********************************** N O D E S **********************************
*NODE, NSET=ALLNODES
    5033,    0.000000e+00,    1.200000e+01,   -6.000000e+00
    5034,    0.000000e+00,    1.200000e+01,    0.000000e+00
    5035,    0.000000e+00,    1.200000e+01,   -3.000000e+00
    5036,    6.000000e+00,    1.200000e+01,   -3.306546e-15
    5037,    3.000000e+00,    1.200000e+01,    0.000000e+00
    5038,    4.242641e+00,    1.200000e+01,   -4.242641e+00
    5039,    2.414214e+00,    1.200000e+01,   -2.414214e+00
    5040,    0.000000e+00,    4.000000e+00,   -6.000000e+00
    5041,    0.000000e+00,    8.000000e+00,   -6.000000e+00
    5042,    6.000000e+00,    4.000000e+00,    0.000000e+00
    5043,    4.242641e+00,    4.000000e+00,   -4.242641e+00
    5044,    6.000000e+00,    8.000000e+00,   -1.224647e-16
    5045,    4.242641e+00,    8.000000e+00,   -4.242641e+00
    5046,    0.000000e+00,    0.000000e+00,   -6.000000e+00
    5047,    6.000000e+00,    0.000000e+00,    3.673940e-16
    5048,    4.242641e+00,    0.000000e+00,   -4.242641e+00
    5049,    0.000000e+00,   -9.600000e+01,    0.000000e+00
    5050,    0.000000e+00,    8.000000e+00,    0.000000e+00
    5051,    0.000000e+00,    4.000000e+00,    0.000000e+00
    5052,    0.000000e+00,    0.000000e+00,    0.000000e+00
    5053,    0.000000e+00,   -4.000000e+00,    0.000000e+00
    5054,    0.000000e+00,   -8.000000e+00,    0.000000e+00
    5055,    0.000000e+00,   -1.200000e+01,    0.000000e+00
    5056,    0.000000e+00,   -1.600000e+01,    0.000000e+00
    5057,    0.000000e+00,   -2.000000e+01,    0.000000e+00
    5058,    0.000000e+00,   -2.400000e+01,    0.000000e+00
    5059,    0.000000e+00,   -2.800000e+01,    0.000000e+00
    5060,    0.000000e+00,   -3.200000e+01,    0.000000e+00
    5061,    0.000000e+00,   -3.600000e+01,    0.000000e+00
    5062,    0.000000e+00,   -4.000000e+01,    0.000000e+00
    5063,    0.000000e+00,   -4.400000e+01,    0.000000e+00
    5064,    0.000000e+00,   -4.800000e+01,    0.000000e+00
    5065,    0.000000e+00,   -5.200000e+01,    0.000000e+00
    5066,    0.000000e+00,   -5.600000e+01,    0.000000e+00
    5067,    0.000000e+00,   -6.000000e+01,    0.000000e+00
    5068,    0.000000e+00,   -6.400000e+01,    0.000000e+00
    5069,    0.000000e+00,   -6.800000e+01,    0.000000e+00
    5070,    0.000000e+00,   -7.200000e+01,    0.000000e+00
    5071,    0.000000e+00,   -7.600000e+01,    0.000000e+00
    5072,    0.000000e+00,   -8.000000e+01,    0.000000e+00
    5073,    0.000000e+00,   -8.400000e+01,    0.000000e+00
    5074,    0.000000e+00,   -8.800000e+01,    0.000000e+00
    5075,    0.000000e+00,   -9.200000e+01,    0.000000e+00
    5076,    0.000000e+00,   -9.600000e+01,   -6.000000e+00
    5077,    0.000000e+00,   -9.200000e+01,   -6.000000e+00
    5078,    0.000000e+00,   -8.800000e+01,   -6.000000e+00
    5079,    0.000000e+00,   -8.400000e+01,   -6.000000e+00
    5080,    0.000000e+00,   -8.000000e+01,   -6.000000e+00
    5081,    0.000000e+00,   -7.600000e+01,   -6.000000e+00
    5082,    0.000000e+00,   -7.200000e+01,   -6.000000e+00
    5083,    0.000000e+00,   -6.800000e+01,   -6.000000e+00
    5084,    0.000000e+00,   -6.400000e+01,   -6.000000e+00
    5085,    0.000000e+00,   -6.000000e+01,   -6.000000e+00
    5086,    0.000000e+00,   -5.600000e+01,   -6.000000e+00
    5087,    0.000000e+00,   -5.200000e+01,   -6.000000e+00
    5088,    0.000000e+00,   -4.800000e+01,   -6.000000e+00
    5089,    0.000000e+00,   -4.400000e+01,   -6.000000e+00
    5090,    0.000000e+00,   -4.000000e+01,   -6.000000e+00
    5091,    0.000000e+00,   -3.600000e+01,   -6.000000e+00
    5092,    0.000000e+00,   -3.200000e+01,   -6.000000e+00
    5093,    0.000000e+00,   -2.800000e+01,   -6.000000e+00
    5094,    0.000000e+00,   -2.400000e+01,   -6.000000e+00
    5095,    0.000000e+00,   -2.000000e+01,   -6.000000e+00
    5096,    0.000000e+00,   -1.600000e+01,   -6.000000e+00
    5097,    0.000000e+00,   -1.200000e+01,   -6.000000e+00
    5098,    0.000000e+00,   -8.000000e+00,   -6.000000e+00
    5099,    0.000000e+00,   -4.000000e+00,   -6.000000e+00
    5100,    0.000000e+00,   -9.600000e+01,   -3.000000e+00
    5101,    0.000000e+00,   -9.200000e+01,   -3.000000e+00
    5102,    0.000000e+00,   -8.800000e+01,   -3.000000e+00
    5103,    0.000000e+00,   -8.400000e+01,   -3.000000e+00
    5104,    0.000000e+00,   -8.000000e+01,   -3.000000e+00
    5105,    0.000000e+00,   -7.600000e+01,   -3.000000e+00
    5106,    0.000000e+00,   -7.200000e+01,   -3.000000e+00
    5107,    0.000000e+00,   -6.800000e+01,   -3.000000e+00
    5108,    0.000000e+00,   -6.400000e+01,   -3.000000e+00
    5109,    0.000000e+00,   -6.000000e+01,   -3.000000e+00
    5110,    0.000000e+00,   -5.600000e+01,   -3.000000e+00
    5111,    0.000000e+00,   -5.200000e+01,   -3.000000e+00
    5112,    0.000000e+00,   -4.800000e+01,   -3.000000e+00
    5113,    0.000000e+00,   -4.400000e+01,   -3.000000e+00
    5114,    0.000000e+00,   -4.000000e+01,   -3.000000e+00
    5115,    0.000000e+00,   -3.600000e+01,   -3.000000e+00
    5116,    0.000000e+00,   -3.200000e+01,   -3.000000e+00
    5117,    0.000000e+00,   -2.800000e+01,   -3.000000e+00
    5118,    0.000000e+00,   -2.400000e+01,   -3.000000e+00
    5119,    0.000000e+00,   -2.000000e+01,   -3.000000e+00
    5120,    0.000000e+00,   -1.600000e+01,   -3.000000e+00
    5121,    0.000000e+00,   -1.200000e+01,   -3.000000e+00
    5122,    0.000000e+00,   -8.000000e+00,   -3.000000e+00
    5123,    0.000000e+00,   -4.000000e+00,   -3.000000e+00
    5124,    0.000000e+00,   -8.881784e-16,   -3.000000e+00
    5125,    0.000000e+00,    4.000000e+00,   -3.000000e+00
    5126,    0.000000e+00,    8.000000e+00,   -3.000000e+00
    5127,    6.000000e+00,   -9.600000e+01,    3.306546e-15
    5128,    6.000000e+00,   -9.200000e+01,    3.061617e-15
    5129,    6.000000e+00,   -8.800000e+01,    2.816688e-15
    5130,    6.000000e+00,   -8.400000e+01,    2.571758e-15
    5131,    6.000000e+00,   -8.000000e+01,    2.326829e-15
    5132,    6.000000e+00,   -7.600000e+01,    2.081900e-15
    5133,    6.000000e+00,   -7.200000e+01,    1.836970e-15
    5134,    6.000000e+00,   -6.800000e+01,    1.592041e-15
    5135,    6.000000e+00,   -6.400000e+01,    1.347111e-15
    5136,    6.000000e+00,   -6.000000e+01,    1.102182e-15
    5137,    6.000000e+00,   -5.600000e+01,    8.572528e-16
    5138,    6.000000e+00,   -5.200000e+01,    6.123234e-16
    5139,    6.000000e+00,   -4.800000e+01,    3.673940e-16
    5140,    6.000000e+00,   -4.400000e+01,    1.224647e-16
    5141,    6.000000e+00,   -4.000000e+01,   -1.224647e-16
    5142,    6.000000e+00,   -3.600000e+01,   -3.673940e-16
    5143,    6.000000e+00,   -3.200000e+01,   -6.123234e-16
    5144,    6.000000e+00,   -2.800000e+01,   -8.572528e-16
    5145,    6.000000e+00,   -2.400000e+01,   -1.102182e-15
    5146,    6.000000e+00,   -2.000000e+01,   -1.347111e-15
    5147,    6.000000e+00,   -1.600000e+01,   -1.592041e-15
    5148,    6.000000e+00,   -1.200000e+01,   -1.836970e-15
    5149,    6.000000e+00,   -8.000000e+00,   -2.081900e-15
    5150,    6.000000e+00,   -4.000000e+00,   -2.326829e-15
    5151,    4.242641e+00,   -9.600000e+01,   -4.242641e+00
    5152,    4.242641e+00,   -4.000000e+00,   -4.242641e+00
    5153,    4.242641e+00,   -8.000000e+00,   -4.242641e+00
    5154,    4.242641e+00,   -1.200000e+01,   -4.242641e+00
    5155,    4.242641e+00,   -1.600000e+01,   -4.242641e+00
    5156,    4.242641e+00,   -2.000000e+01,   -4.242641e+00
    5157,    4.242641e+00,   -2.400000e+01,   -4.242641e+00
    5158,    4.242641e+00,   -2.800000e+01,   -4.242641e+00
    5159,    4.242641e+00,   -3.200000e+01,   -4.242641e+00
    5160,    4.242641e+00,   -3.600000e+01,   -4.242641e+00
    5161,    4.242641e+00,   -4.000000e+01,   -4.242641e+00
    5162,    4.242641e+00,   -4.400000e+01,   -4.242641e+00
    5163,    4.242641e+00,   -4.800000e+01,   -4.242641e+00
    5164,    4.242641e+00,   -5.200000e+01,   -4.242641e+00
    5165,    4.242641e+00,   -5.600000e+01,   -4.242641e+00
    5166,    4.242641e+00,   -6.000000e+01,   -4.242641e+00
    5167,    4.242641e+00,   -6.400000e+01,   -4.242641e+00
    5168,    4.242641e+00,   -6.800000e+01,   -4.242641e+00
    5169,    4.242641e+00,   -7.200000e+01,   -4.242641e+00
    5170,    4.242641e+00,   -7.600000e+01,   -4.242641e+00
    5171,    4.242641e+00,   -8.000000e+01,   -4.242641e+00
    5172,    4.242641e+00,   -8.400000e+01,   -4.242641e+00
    5173,    4.242641e+00,   -8.800000e+01,   -4.242641e+00
    5174,    4.242641e+00,   -9.200000e+01,   -4.242641e+00
    5175,    3.000000e+00,   -9.600000e+01,    0.000000e+00
    5176,    3.000000e+00,    8.000000e+00,    0.000000e+00
    5177,    3.000000e+00,    4.000000e+00,    0.000000e+00
    5178,    3.000000e+00,    0.000000e+00,    0.000000e+00
    5179,    3.000000e+00,   -4.000000e+00,    0.000000e+00
    5180,    3.000000e+00,   -8.000000e+00,    0.000000e+00
    5181,    3.000000e+00,   -1.200000e+01,    0.000000e+00
    5182,    3.000000e+00,   -1.600000e+01,    0.000000e+00
    5183,    3.000000e+00,   -2.000000e+01,    0.000000e+00
    5184,    3.000000e+00,   -2.400000e+01,    0.000000e+00
    5185,    3.000000e+00,   -2.800000e+01,    0.000000e+00
    5186,    3.000000e+00,   -3.200000e+01,    0.000000e+00
    5187,    3.000000e+00,   -3.600000e+01,    0.000000e+00
    5188,    3.000000e+00,   -4.000000e+01,    0.000000e+00
    5189,    3.000000e+00,   -4.400000e+01,    0.000000e+00
    5190,    3.000000e+00,   -4.800000e+01,    0.000000e+00
    5191,    3.000000e+00,   -5.200000e+01,    0.000000e+00
    5192,    3.000000e+00,   -5.600000e+01,    0.000000e+00
    5193,    3.000000e+00,   -6.000000e+01,    0.000000e+00
    5194,    3.000000e+00,   -6.400000e+01,    0.000000e+00
    5195,    3.000000e+00,   -6.800000e+01,    0.000000e+00
    5196,    3.000000e+00,   -7.200000e+01,    0.000000e+00
    5197,    3.000000e+00,   -7.600000e+01,    0.000000e+00
    5198,    3.000000e+00,   -8.000000e+01,    0.000000e+00
    5199,    3.000000e+00,   -8.400000e+01,    0.000000e+00
    5200,    3.000000e+00,   -8.800000e+01,    0.000000e+00
    5201,    3.000000e+00,   -9.200000e+01,    0.000000e+00
    5202,    2.414214e+00,    8.000000e+00,   -2.414214e+00
    5203,    2.414214e+00,    4.000000e+00,   -2.414214e+00
    5204,    2.414214e+00,   -1.364905e-16,   -2.414214e+00
    5205,    2.414214e+00,   -4.000000e+00,   -2.414214e+00
    5206,    2.414214e+00,   -8.000000e+00,   -2.414214e+00
    5207,    2.414214e+00,   -1.200000e+01,   -2.414214e+00
    5208,    2.414214e+00,   -1.600000e+01,   -2.414214e+00
    5209,    2.414214e+00,   -2.000000e+01,   -2.414214e+00
    5210,    2.414214e+00,   -2.400000e+01,   -2.414214e+00
    5211,    2.414214e+00,   -2.800000e+01,   -2.414214e+00
    5212,    2.414214e+00,   -3.200000e+01,   -2.414214e+00
    5213,    2.414214e+00,   -3.600000e+01,   -2.414214e+00
    5214,    2.414214e+00,   -4.000000e+01,   -2.414214e+00
    5215,    2.414214e+00,   -4.400000e+01,   -2.414214e+00
    5216,    2.414214e+00,   -4.800000e+01,   -2.414214e+00
    5217,    2.414214e+00,   -5.200000e+01,   -2.414214e+00
    5218,    2.414214e+00,   -5.600000e+01,   -2.414214e+00
    5219,    2.414214e+00,   -6.000000e+01,   -2.414214e+00
    5220,    2.414214e+00,   -6.400000e+01,   -2.414214e+00
    5221,    2.414214e+00,   -6.800000e+01,   -2.414214e+00
    5222,    2.414214e+00,   -7.200000e+01,   -2.414214e+00
    5223,    2.414214e+00,   -7.600000e+01,   -2.414214e+00
    5224,    2.414214e+00,   -8.000000e+01,   -2.414214e+00
    5225,    2.414214e+00,   -8.400000e+01,   -2.414214e+00
    5226,    2.414214e+00,   -8.800000e+01,   -2.414214e+00
    5227,    2.414214e+00,   -9.200000e+01,   -2.414214e+00
    5228,    2.414214e+00,   -9.600000e+01,   -2.414214e+00
    5229,    0.000000e+00,    4.000000e+00,   -2.400000e+01
    5230,    0.000000e+00,    4.000000e+00,   -2.040000e+01
    5231,    0.000000e+00,    4.000000e+00,   -1.680000e+01
    5232,    0.000000e+00,    4.000000e+00,   -1.320000e+01
    5233,    0.000000e+00,    4.000000e+00,   -9.600000e+00
    5234,    2.400000e+01,    4.000000e+00,    0.000000e+00
    5235,    2.040000e+01,    4.000000e+00,    0.000000e+00
    5236,    1.680000e+01,    4.000000e+00,    0.000000e+00
    5237,    1.320000e+01,    4.000000e+00,    0.000000e+00
    5238,    9.600000e+00,    4.000000e+00,    0.000000e+00
    5239,    2.400000e+01,    4.000000e+00,   -2.400000e+01
    5240,    2.400000e+01,    4.000000e+00,   -2.000000e+01
    5241,    2.400000e+01,    4.000000e+00,   -1.600000e+01
    5242,    2.400000e+01,    4.000000e+00,   -1.200000e+01
    5243,    2.400000e+01,    4.000000e+00,   -8.000000e+00
    5244,    2.400000e+01,    4.000000e+00,   -4.000000e+00
    5245,    4.000000e+00,    4.000000e+00,   -2.400000e+01
    5246,    8.000000e+00,    4.000000e+00,   -2.400000e+01
    5247,    1.200000e+01,    4.000000e+00,   -2.400000e+01
    5248,    1.600000e+01,    4.000000e+00,   -2.400000e+01
    5249,    2.000000e+01,    4.000000e+00,   -2.400000e+01
    5250,    3.964556e+00,    4.000000e+00,   -2.022148e+01
    5251,    3.968002e+00,    4.000000e+00,   -1.644836e+01
    5252,    4.014681e+00,    4.000000e+00,   -1.264868e+01
    5253,    4.099132e+00,    4.000000e+00,   -8.704383e+00
    5254,    8.680007e+00,    4.000000e+00,   -4.104846e+00
    5255,    1.262283e+01,    4.000000e+00,   -4.016034e+00
    5256,    1.642803e+01,    4.000000e+00,   -3.964595e+00
    5257,    2.021801e+01,    4.000000e+00,   -3.974356e+00
    5258,    1.998308e+01,    4.000000e+00,   -1.998854e+01
    5259,    1.596000e+01,    4.000000e+00,   -1.998431e+01
    5260,    1.193782e+01,    4.000000e+00,   -2.000166e+01
    5261,    7.949810e+00,    4.000000e+00,   -2.009133e+01
    5262,    2.007579e+01,    4.000000e+00,   -7.959137e+00
    5263,    2.000203e+01,    4.000000e+00,   -1.196026e+01
    5264,    1.998143e+01,    4.000000e+00,   -1.597599e+01
    5265,    8.235835e+00,    4.000000e+00,   -8.254841e+00
    5266,    1.223294e+01,    4.000000e+00,   -8.039526e+00
    5267,    1.617677e+01,    4.000000e+00,   -7.968714e+00
    5268,    7.954291e+00,    4.000000e+00,   -1.618843e+01
    5269,    8.039865e+00,    4.000000e+00,   -1.227214e+01
    5270,    1.602256e+01,    4.000000e+00,   -1.196785e+01
    5271,    1.596391e+01,    4.000000e+00,   -1.597611e+01
    5272,    1.195563e+01,    4.000000e+00,   -1.603885e+01
    5273,    1.206331e+01,    4.000000e+00,   -1.208034e+01
    5274,    0.000000e+00,    1.200000e+01,   -2.400000e+01
    5275,    0.000000e+00,    1.200000e+01,   -2.040000e+01
    5276,    0.000000e+00,    1.200000e+01,   -1.680000e+01
    5277,    0.000000e+00,    1.200000e+01,   -1.320000e+01
    5278,    0.000000e+00,    1.200000e+01,   -9.600000e+00
    5279,    0.000000e+00,    8.000000e+00,   -2.400000e+01
    5280,    0.000000e+00,    8.000000e+00,   -9.600000e+00
    5281,    0.000000e+00,    8.000000e+00,   -1.320000e+01
    5282,    0.000000e+00,    8.000000e+00,   -1.680000e+01
    5283,    0.000000e+00,    8.000000e+00,   -2.040000e+01
    5284,    2.400000e+01,    1.200000e+01,   -2.400000e+01
    5285,    4.000000e+00,    1.200000e+01,   -2.400000e+01
    5286,    8.000000e+00,    1.200000e+01,   -2.400000e+01
    5287,    1.200000e+01,    1.200000e+01,   -2.400000e+01
    5288,    1.600000e+01,    1.200000e+01,   -2.400000e+01
    5289,    2.000000e+01,    1.200000e+01,   -2.400000e+01
    5290,    2.400000e+01,    8.000000e+00,   -2.400000e+01
    5291,    4.000000e+00,    8.000000e+00,   -2.400000e+01
    5292,    8.000000e+00,    8.000000e+00,   -2.400000e+01
    5293,    1.200000e+01,    8.000000e+00,   -2.400000e+01
    5294,    1.600000e+01,    8.000000e+00,   -2.400000e+01
    5295,    2.000000e+01,    8.000000e+00,   -2.400000e+01
    5296,    2.400000e+01,    1.200000e+01,    0.000000e+00
    5297,    2.400000e+01,    8.000000e+00,    0.000000e+00
    5298,    2.040000e+01,    1.200000e+01,    0.000000e+00
    5299,    1.680000e+01,    1.200000e+01,    0.000000e+00
    5300,    1.320000e+01,    1.200000e+01,    0.000000e+00
    5301,    9.600000e+00,    1.200000e+01,    0.000000e+00
    5302,    9.600000e+00,    8.000000e+00,    0.000000e+00
    5303,    1.320000e+01,    8.000000e+00,    0.000000e+00
    5304,    1.680000e+01,    8.000000e+00,    0.000000e+00
    5305,    2.040000e+01,    8.000000e+00,    0.000000e+00
    5306,    2.400000e+01,    1.200000e+01,   -4.000000e+00
    5307,    2.400000e+01,    1.200000e+01,   -8.000000e+00
    5308,    2.400000e+01,    1.200000e+01,   -1.200000e+01
    5309,    2.400000e+01,    1.200000e+01,   -1.600000e+01
    5310,    2.400000e+01,    1.200000e+01,   -2.000000e+01
    5311,    2.400000e+01,    8.000000e+00,   -4.000000e+00
    5312,    2.400000e+01,    8.000000e+00,   -8.000000e+00
    5313,    2.400000e+01,    8.000000e+00,   -1.200000e+01
    5314,    2.400000e+01,    8.000000e+00,   -1.600000e+01
    5315,    2.400000e+01,    8.000000e+00,   -2.000000e+01
    5316,    3.964556e+00,    8.000000e+00,   -2.022148e+01
    5317,    3.968002e+00,    8.000000e+00,   -1.644836e+01
    5318,    4.014681e+00,    8.000000e+00,   -1.264868e+01
    5319,    4.099132e+00,    8.000000e+00,   -8.704383e+00
    5320,    8.680007e+00,    8.000000e+00,   -4.104846e+00
    5321,    1.262283e+01,    8.000000e+00,   -4.016034e+00
    5322,    1.642803e+01,    8.000000e+00,   -3.964595e+00
    5323,    2.021801e+01,    8.000000e+00,   -3.974356e+00
    5324,    1.998308e+01,    8.000000e+00,   -1.998854e+01
    5325,    1.596000e+01,    8.000000e+00,   -1.998431e+01
    5326,    1.193782e+01,    8.000000e+00,   -2.000166e+01
    5327,    7.949810e+00,    8.000000e+00,   -2.009133e+01
    5328,    2.007579e+01,    8.000000e+00,   -7.959137e+00
    5329,    2.000203e+01,    8.000000e+00,   -1.196026e+01
    5330,    1.998143e+01,    8.000000e+00,   -1.597599e+01
    5331,    8.235835e+00,    8.000000e+00,   -8.254841e+00
    5332,    1.223294e+01,    8.000000e+00,   -8.039526e+00
    5333,    1.617677e+01,    8.000000e+00,   -7.968714e+00
    5334,    7.954291e+00,    8.000000e+00,   -1.618843e+01
    5335,    8.039865e+00,    8.000000e+00,   -1.227214e+01
    5336,    1.602256e+01,    8.000000e+00,   -1.196785e+01
    5337,    1.596391e+01,    8.000000e+00,   -1.597611e+01
    5338,    1.195563e+01,    8.000000e+00,   -1.603885e+01
    5339,    1.206331e+01,    8.000000e+00,   -1.208034e+01
    5340,    3.964556e+00,    1.200000e+01,   -2.022148e+01
    5341,    3.968002e+00,    1.200000e+01,   -1.644836e+01
    5342,    4.014681e+00,    1.200000e+01,   -1.264868e+01
    5343,    4.099132e+00,    1.200000e+01,   -8.704383e+00
    5344,    8.680007e+00,    1.200000e+01,   -4.104846e+00
    5345,    1.262283e+01,    1.200000e+01,   -4.016034e+00
    5346,    1.642803e+01,    1.200000e+01,   -3.964595e+00
    5347,    2.021801e+01,    1.200000e+01,   -3.974356e+00
    5348,    1.998308e+01,    1.200000e+01,   -1.998854e+01
    5349,    1.596000e+01,    1.200000e+01,   -1.998431e+01
    5350,    1.193782e+01,    1.200000e+01,   -2.000166e+01
    5351,    7.949810e+00,    1.200000e+01,   -2.009133e+01
    5352,    2.007579e+01,    1.200000e+01,   -7.959137e+00
    5353,    2.000203e+01,    1.200000e+01,   -1.196026e+01
    5354,    1.998143e+01,    1.200000e+01,   -1.597599e+01
    5355,    8.235835e+00,    1.200000e+01,   -8.254841e+00
    5356,    1.223294e+01,    1.200000e+01,   -8.039526e+00
    5357,    1.617677e+01,    1.200000e+01,   -7.968714e+00
    5358,    7.954291e+00,    1.200000e+01,   -1.618843e+01
    5359,    8.039865e+00,    1.200000e+01,   -1.227214e+01
    5360,    1.602256e+01,    1.200000e+01,   -1.196785e+01
    5361,    1.596391e+01,    1.200000e+01,   -1.597611e+01
    5362,    1.195563e+01,    1.200000e+01,   -1.603885e+01
    5363,    1.206331e+01,    1.200000e+01,   -1.208034e+01
    5364,    0.000000e+00,    0.000000e+00,   -2.400000e+01
    5365,    0.000000e+00,    0.000000e+00,   -9.600000e+00
    5366,    0.000000e+00,    0.000000e+00,   -1.320000e+01
    5367,    0.000000e+00,    0.000000e+00,   -1.680000e+01
    5368,    0.000000e+00,    0.000000e+00,   -2.040000e+01
    5369,    2.400000e+01,    0.000000e+00,   -2.400000e+01
    5370,    2.000000e+01,    0.000000e+00,   -2.400000e+01
    5371,    1.600000e+01,    0.000000e+00,   -2.400000e+01
    5372,    1.200000e+01,    0.000000e+00,   -2.400000e+01
    5373,    8.000000e+00,    0.000000e+00,   -2.400000e+01
    5374,    4.000000e+00,    0.000000e+00,   -2.400000e+01
    5375,    2.400000e+01,    0.000000e+00,    0.000000e+00
    5376,    9.600000e+00,    0.000000e+00,    0.000000e+00
    5377,    1.320000e+01,    0.000000e+00,    0.000000e+00
    5378,    1.680000e+01,    0.000000e+00,    0.000000e+00
    5379,    2.040000e+01,    0.000000e+00,    0.000000e+00
    5380,    2.400000e+01,    0.000000e+00,   -4.000000e+00
    5381,    2.400000e+01,    0.000000e+00,   -8.000000e+00
    5382,    2.400000e+01,    0.000000e+00,   -1.200000e+01
    5383,    2.400000e+01,    0.000000e+00,   -1.600000e+01
    5384,    2.400000e+01,    0.000000e+00,   -2.000000e+01
    5385,    3.964556e+00,    0.000000e+00,   -2.022148e+01
    5386,    3.968002e+00,    0.000000e+00,   -1.644836e+01
    5387,    4.014681e+00,    0.000000e+00,   -1.264868e+01
    5388,    4.099132e+00,    0.000000e+00,   -8.704383e+00
    5389,    8.680007e+00,    0.000000e+00,   -4.104846e+00
    5390,    1.262283e+01,    0.000000e+00,   -4.016034e+00
    5391,    1.642803e+01,    0.000000e+00,   -3.964595e+00
    5392,    2.021801e+01,    0.000000e+00,   -3.974356e+00
    5393,    1.998308e+01,    0.000000e+00,   -1.998854e+01
    5394,    1.596000e+01,    0.000000e+00,   -1.998431e+01
    5395,    1.193782e+01,    0.000000e+00,   -2.000166e+01
    5396,    7.949810e+00,    0.000000e+00,   -2.009133e+01
    5397,    2.007579e+01,    0.000000e+00,   -7.959137e+00
    5398,    2.000203e+01,    0.000000e+00,   -1.196026e+01
    5399,    1.998143e+01,    0.000000e+00,   -1.597599e+01
    5400,    8.235835e+00,    0.000000e+00,   -8.254841e+00
    5401,    1.223294e+01,    0.000000e+00,   -8.039526e+00
    5402,    1.617677e+01,    0.000000e+00,   -7.968714e+00
    5403,    7.954291e+00,    0.000000e+00,   -1.618843e+01
    5404,    8.039865e+00,    0.000000e+00,   -1.227214e+01
    5405,    1.602256e+01,    0.000000e+00,   -1.196785e+01
    5406,    1.596391e+01,    0.000000e+00,   -1.597611e+01
    5407,    1.195563e+01,    0.000000e+00,   -1.603885e+01
    5408,    1.206331e+01,    0.000000e+00,   -1.208034e+01
   10387,   -6.000000e+00,   -9.600000e+01,    0.000000e+00
   10388,   -3.000000e+00,   -9.600000e+01,    0.000000e+00
   10389,   -4.242641e+00,   -9.600000e+01,   -4.242641e+00
   10390,   -2.414214e+00,   -9.600000e+01,   -2.414214e+00
   10391,   -6.000000e+00,    1.200000e+01,    0.000000e+00
   10392,   -4.242641e+00,    1.200000e+01,   -4.242641e+00
   10393,   -6.000000e+00,    4.000000e+00,    8.572528e-16
   10394,   -6.000000e+00,    8.000000e+00,   -1.224647e-16
   10395,   -4.242641e+00,    4.000000e+00,   -4.242641e+00
   10396,   -4.242641e+00,    8.000000e+00,   -4.242641e+00
   10397,   -6.000000e+00,    0.000000e+00,    0.000000e+00
   10398,   -4.242641e+00,    0.000000e+00,   -4.242641e+00
   10399,   -3.000000e+00,    1.200000e+01,    0.000000e+00
   10400,   -6.000000e+00,   -4.000000e+00,   -2.326829e-15
   10401,   -6.000000e+00,   -8.000000e+00,   -2.081900e-15
   10402,   -6.000000e+00,   -1.200000e+01,   -1.836970e-15
   10403,   -6.000000e+00,   -1.600000e+01,   -1.592041e-15
   10404,   -6.000000e+00,   -2.000000e+01,   -1.347111e-15
   10405,   -6.000000e+00,   -2.400000e+01,   -1.102182e-15
   10406,   -6.000000e+00,   -2.800000e+01,   -8.572528e-16
   10407,   -6.000000e+00,   -3.200000e+01,   -6.123234e-16
   10408,   -6.000000e+00,   -3.600000e+01,   -3.673940e-16
   10409,   -6.000000e+00,   -4.000000e+01,   -1.224647e-16
   10410,   -6.000000e+00,   -4.400000e+01,    1.224647e-16
   10411,   -6.000000e+00,   -4.800000e+01,    3.673940e-16
   10412,   -6.000000e+00,   -5.200000e+01,    6.123234e-16
   10413,   -6.000000e+00,   -5.600000e+01,    8.572528e-16
   10414,   -6.000000e+00,   -6.000000e+01,    1.102182e-15
   10415,   -6.000000e+00,   -6.400000e+01,    1.347111e-15
   10416,   -6.000000e+00,   -6.800000e+01,    1.592041e-15
   10417,   -6.000000e+00,   -7.200000e+01,    1.836970e-15
   10418,   -6.000000e+00,   -7.600000e+01,    2.081900e-15
   10419,   -6.000000e+00,   -8.000000e+01,    2.326829e-15
   10420,   -6.000000e+00,   -8.400000e+01,    2.571758e-15
   10421,   -6.000000e+00,   -8.800000e+01,    2.816688e-15
   10422,   -6.000000e+00,   -9.200000e+01,    3.061617e-15
   10423,   -3.000000e+00,   -9.200000e+01,    0.000000e+00
   10424,   -3.000000e+00,   -8.800000e+01,    0.000000e+00
   10425,   -3.000000e+00,   -8.400000e+01,    0.000000e+00
   10426,   -3.000000e+00,   -8.000000e+01,    0.000000e+00
   10427,   -3.000000e+00,   -7.600000e+01,    0.000000e+00
   10428,   -3.000000e+00,   -7.200000e+01,    0.000000e+00
   10429,   -3.000000e+00,   -6.800000e+01,    0.000000e+00
   10430,   -3.000000e+00,   -6.400000e+01,    0.000000e+00
   10431,   -3.000000e+00,   -6.000000e+01,    0.000000e+00
   10432,   -3.000000e+00,   -5.600000e+01,    0.000000e+00
   10433,   -3.000000e+00,   -5.200000e+01,    0.000000e+00
   10434,   -3.000000e+00,   -4.800000e+01,    0.000000e+00
   10435,   -3.000000e+00,   -4.400000e+01,    0.000000e+00
   10436,   -3.000000e+00,   -4.000000e+01,    0.000000e+00
   10437,   -3.000000e+00,   -3.600000e+01,    0.000000e+00
   10438,   -3.000000e+00,   -3.200000e+01,    0.000000e+00
   10439,   -3.000000e+00,   -2.800000e+01,    0.000000e+00
   10440,   -3.000000e+00,   -2.400000e+01,    0.000000e+00
   10441,   -3.000000e+00,   -2.000000e+01,    0.000000e+00
   10442,   -3.000000e+00,   -1.600000e+01,    0.000000e+00
   10443,   -3.000000e+00,   -1.200000e+01,    0.000000e+00
   10444,   -3.000000e+00,   -8.000000e+00,    0.000000e+00
   10445,   -3.000000e+00,   -4.000000e+00,    0.000000e+00
   10446,   -3.000000e+00,    0.000000e+00,    0.000000e+00
   10447,   -3.000000e+00,    4.000000e+00,    0.000000e+00
   10448,   -3.000000e+00,    8.000000e+00,    0.000000e+00
   10449,   -4.242641e+00,   -4.000000e+00,   -4.242641e+00
   10450,   -4.242641e+00,   -8.000000e+00,   -4.242641e+00
   10451,   -4.242641e+00,   -1.200000e+01,   -4.242641e+00
   10452,   -4.242641e+00,   -1.600000e+01,   -4.242641e+00
   10453,   -4.242641e+00,   -2.000000e+01,   -4.242641e+00
   10454,   -4.242641e+00,   -2.400000e+01,   -4.242641e+00
   10455,   -4.242641e+00,   -2.800000e+01,   -4.242641e+00
   10456,   -4.242641e+00,   -3.200000e+01,   -4.242641e+00
   10457,   -4.242641e+00,   -3.600000e+01,   -4.242641e+00
   10458,   -4.242641e+00,   -4.000000e+01,   -4.242641e+00
   10459,   -4.242641e+00,   -4.400000e+01,   -4.242641e+00
   10460,   -4.242641e+00,   -4.800000e+01,   -4.242641e+00
   10461,   -4.242641e+00,   -5.200000e+01,   -4.242641e+00
   10462,   -4.242641e+00,   -5.600000e+01,   -4.242641e+00
   10463,   -4.242641e+00,   -6.000000e+01,   -4.242641e+00
   10464,   -4.242641e+00,   -6.400000e+01,   -4.242641e+00
   10465,   -4.242641e+00,   -6.800000e+01,   -4.242641e+00
   10466,   -4.242641e+00,   -7.200000e+01,   -4.242641e+00
   10467,   -4.242641e+00,   -7.600000e+01,   -4.242641e+00
   10468,   -4.242641e+00,   -8.000000e+01,   -4.242641e+00
   10469,   -4.242641e+00,   -8.400000e+01,   -4.242641e+00
   10470,   -4.242641e+00,   -8.800000e+01,   -4.242641e+00
   10471,   -4.242641e+00,   -9.200000e+01,   -4.242641e+00
   10472,   -2.414214e+00,   -9.200000e+01,   -2.414214e+00
   10473,   -2.414214e+00,   -8.800000e+01,   -2.414214e+00
   10474,   -2.414214e+00,   -8.400000e+01,   -2.414214e+00
   10475,   -2.414214e+00,   -8.000000e+01,   -2.414214e+00
   10476,   -2.414214e+00,   -7.600000e+01,   -2.414214e+00
   10477,   -2.414214e+00,   -7.200000e+01,   -2.414214e+00
   10478,   -2.414214e+00,   -6.800000e+01,   -2.414214e+00
   10479,   -2.414214e+00,   -6.400000e+01,   -2.414214e+00
   10480,   -2.414214e+00,   -6.000000e+01,   -2.414214e+00
   10481,   -2.414214e+00,   -5.600000e+01,   -2.414214e+00
   10482,   -2.414214e+00,   -5.200000e+01,   -2.414214e+00
   10483,   -2.414214e+00,   -4.800000e+01,   -2.414214e+00
   10484,   -2.414214e+00,   -4.400000e+01,   -2.414214e+00
   10485,   -2.414214e+00,   -4.000000e+01,   -2.414214e+00
   10486,   -2.414214e+00,   -3.600000e+01,   -2.414214e+00
   10487,   -2.414214e+00,   -3.200000e+01,   -2.414214e+00
   10488,   -2.414214e+00,   -2.800000e+01,   -2.414214e+00
   10489,   -2.414214e+00,   -2.400000e+01,   -2.414214e+00
   10490,   -2.414214e+00,   -2.000000e+01,   -2.414214e+00
   10491,   -2.414214e+00,   -1.600000e+01,   -2.414214e+00
   10492,   -2.414214e+00,   -1.200000e+01,   -2.414214e+00
   10493,   -2.414214e+00,   -8.000000e+00,   -2.414214e+00
   10494,   -2.414214e+00,   -4.000000e+00,   -2.414214e+00
   10495,   -2.414214e+00,   -1.364905e-16,   -2.414214e+00
   10496,   -2.414214e+00,    4.000000e+00,   -2.414214e+00
   10497,   -2.414214e+00,    8.000000e+00,   -2.414214e+00
   10498,   -2.414214e+00,    1.200000e+01,   -2.414214e+00
   10499,   -2.400000e+01,    4.000000e+00,   -2.400000e+01
   10500,   -2.000000e+01,    4.000000e+00,   -2.400000e+01
   10501,   -1.600000e+01,    4.000000e+00,   -2.400000e+01
   10502,   -1.200000e+01,    4.000000e+00,   -2.400000e+01
   10503,   -8.000000e+00,    4.000000e+00,   -2.400000e+01
   10504,   -4.000000e+00,    4.000000e+00,   -2.400000e+01
   10505,   -2.400000e+01,    4.000000e+00,    0.000000e+00
   10506,   -2.400000e+01,    4.000000e+00,   -4.000000e+00
   10507,   -2.400000e+01,    4.000000e+00,   -8.000000e+00
   10508,   -2.400000e+01,    4.000000e+00,   -1.200000e+01
   10509,   -2.400000e+01,    4.000000e+00,   -1.600000e+01
   10510,   -2.400000e+01,    4.000000e+00,   -2.000000e+01
   10511,   -9.600000e+00,    4.000000e+00,    0.000000e+00
   10512,   -1.320000e+01,    4.000000e+00,    0.000000e+00
   10513,   -1.680000e+01,    4.000000e+00,    0.000000e+00
   10514,   -2.040000e+01,    4.000000e+00,    0.000000e+00
   10515,   -4.104106e+00,    4.000000e+00,   -8.680930e+00
   10516,   -4.015578e+00,    4.000000e+00,   -1.262416e+01
   10517,   -3.963085e+00,    4.000000e+00,   -1.642881e+01
   10518,   -3.974599e+00,    4.000000e+00,   -2.021779e+01
   10519,   -2.022150e+01,    4.000000e+00,   -3.964219e+00
   10520,   -1.644854e+01,    4.000000e+00,   -3.967188e+00
   10521,   -1.264871e+01,    4.000000e+00,   -4.014225e+00
   10522,   -8.704086e+00,    4.000000e+00,   -4.099107e+00
   10523,   -7.959229e+00,    4.000000e+00,   -2.007523e+01
   10524,   -1.196080e+01,    4.000000e+00,   -2.000246e+01
   10525,   -1.597534e+01,    4.000000e+00,   -1.998118e+01
   10526,   -1.998961e+01,    4.000000e+00,   -1.998472e+01
   10527,   -1.998445e+01,    4.000000e+00,   -1.596112e+01
   10528,   -2.000168e+01,    4.000000e+00,   -1.193852e+01
   10529,   -2.009151e+01,    4.000000e+00,   -7.949854e+00
   10530,   -8.253750e+00,    4.000000e+00,   -8.236472e+00
   10531,   -8.039951e+00,    4.000000e+00,   -1.223275e+01
   10532,   -7.968893e+00,    4.000000e+00,   -1.617644e+01
   10533,   -1.618837e+01,    4.000000e+00,   -7.954333e+00
   10534,   -1.227183e+01,    4.000000e+00,   -8.039772e+00
   10535,   -1.596167e+01,    4.000000e+00,   -1.594717e+01
   10536,   -1.603555e+01,    4.000000e+00,   -1.195174e+01
   10537,   -1.196942e+01,    4.000000e+00,   -1.602381e+01
   10538,   -1.207977e+01,    4.000000e+00,   -1.206246e+01
   10539,   -2.400000e+01,    1.200000e+01,    0.000000e+00
   10540,   -9.600000e+00,    1.200000e+01,    0.000000e+00
   10541,   -1.320000e+01,    1.200000e+01,    0.000000e+00
   10542,   -1.680000e+01,    1.200000e+01,    0.000000e+00
   10543,   -2.040000e+01,    1.200000e+01,    0.000000e+00
   10544,   -2.400000e+01,    8.000000e+00,    0.000000e+00
   10545,   -2.040000e+01,    8.000000e+00,    0.000000e+00
   10546,   -1.680000e+01,    8.000000e+00,    0.000000e+00
   10547,   -1.320000e+01,    8.000000e+00,    0.000000e+00
   10548,   -9.600000e+00,    8.000000e+00,    0.000000e+00
   10549,   -2.400000e+01,    1.200000e+01,   -2.400000e+01
   10550,   -2.400000e+01,    8.000000e+00,   -2.400000e+01
   10551,   -2.000000e+01,    1.200000e+01,   -2.400000e+01
   10552,   -1.600000e+01,    1.200000e+01,   -2.400000e+01
   10553,   -1.200000e+01,    1.200000e+01,   -2.400000e+01
   10554,   -8.000000e+00,    1.200000e+01,   -2.400000e+01
   10555,   -4.000000e+00,    1.200000e+01,   -2.400000e+01
   10556,   -4.000000e+00,    8.000000e+00,   -2.400000e+01
   10557,   -8.000000e+00,    8.000000e+00,   -2.400000e+01
   10558,   -1.200000e+01,    8.000000e+00,   -2.400000e+01
   10559,   -1.600000e+01,    8.000000e+00,   -2.400000e+01
   10560,   -2.000000e+01,    8.000000e+00,   -2.400000e+01
   10561,   -2.400000e+01,    1.200000e+01,   -4.000000e+00
   10562,   -2.400000e+01,    1.200000e+01,   -8.000000e+00
   10563,   -2.400000e+01,    1.200000e+01,   -1.200000e+01
   10564,   -2.400000e+01,    1.200000e+01,   -1.600000e+01
   10565,   -2.400000e+01,    1.200000e+01,   -2.000000e+01
   10566,   -2.400000e+01,    8.000000e+00,   -4.000000e+00
   10567,   -2.400000e+01,    8.000000e+00,   -8.000000e+00
   10568,   -2.400000e+01,    8.000000e+00,   -1.200000e+01
   10569,   -2.400000e+01,    8.000000e+00,   -1.600000e+01
   10570,   -2.400000e+01,    8.000000e+00,   -2.000000e+01
   10571,   -4.104106e+00,    8.000000e+00,   -8.680930e+00
   10572,   -4.015578e+00,    8.000000e+00,   -1.262416e+01
   10573,   -3.963085e+00,    8.000000e+00,   -1.642881e+01
   10574,   -3.974599e+00,    8.000000e+00,   -2.021779e+01
   10575,   -2.022150e+01,    8.000000e+00,   -3.964219e+00
   10576,   -1.644854e+01,    8.000000e+00,   -3.967188e+00
   10577,   -1.264871e+01,    8.000000e+00,   -4.014225e+00
   10578,   -8.704086e+00,    8.000000e+00,   -4.099107e+00
   10579,   -7.959229e+00,    8.000000e+00,   -2.007523e+01
   10580,   -1.196080e+01,    8.000000e+00,   -2.000246e+01
   10581,   -1.597534e+01,    8.000000e+00,   -1.998118e+01
   10582,   -1.998961e+01,    8.000000e+00,   -1.998472e+01
   10583,   -1.998445e+01,    8.000000e+00,   -1.596112e+01
   10584,   -2.000168e+01,    8.000000e+00,   -1.193852e+01
   10585,   -2.009151e+01,    8.000000e+00,   -7.949854e+00
   10586,   -8.253750e+00,    8.000000e+00,   -8.236472e+00
   10587,   -8.039951e+00,    8.000000e+00,   -1.223275e+01
   10588,   -7.968893e+00,    8.000000e+00,   -1.617644e+01
   10589,   -1.618837e+01,    8.000000e+00,   -7.954333e+00
   10590,   -1.227183e+01,    8.000000e+00,   -8.039772e+00
   10591,   -1.596167e+01,    8.000000e+00,   -1.594717e+01
   10592,   -1.603555e+01,    8.000000e+00,   -1.195174e+01
   10593,   -1.196942e+01,    8.000000e+00,   -1.602381e+01
   10594,   -1.207977e+01,    8.000000e+00,   -1.206246e+01
   10595,   -4.104106e+00,    1.200000e+01,   -8.680930e+00
   10596,   -4.015578e+00,    1.200000e+01,   -1.262416e+01
   10597,   -3.963085e+00,    1.200000e+01,   -1.642881e+01
   10598,   -3.974599e+00,    1.200000e+01,   -2.021779e+01
   10599,   -2.022150e+01,    1.200000e+01,   -3.964219e+00
   10600,   -1.644854e+01,    1.200000e+01,   -3.967188e+00
   10601,   -1.264871e+01,    1.200000e+01,   -4.014225e+00
   10602,   -8.704086e+00,    1.200000e+01,   -4.099107e+00
   10603,   -7.959229e+00,    1.200000e+01,   -2.007523e+01
   10604,   -1.196080e+01,    1.200000e+01,   -2.000246e+01
   10605,   -1.597534e+01,    1.200000e+01,   -1.998118e+01
   10606,   -1.998961e+01,    1.200000e+01,   -1.998472e+01
   10607,   -1.998445e+01,    1.200000e+01,   -1.596112e+01
   10608,   -2.000168e+01,    1.200000e+01,   -1.193852e+01
   10609,   -2.009151e+01,    1.200000e+01,   -7.949854e+00
   10610,   -8.253750e+00,    1.200000e+01,   -8.236472e+00
   10611,   -8.039951e+00,    1.200000e+01,   -1.223275e+01
   10612,   -7.968893e+00,    1.200000e+01,   -1.617644e+01
   10613,   -1.618837e+01,    1.200000e+01,   -7.954333e+00
   10614,   -1.227183e+01,    1.200000e+01,   -8.039772e+00
   10615,   -1.596167e+01,    1.200000e+01,   -1.594717e+01
   10616,   -1.603555e+01,    1.200000e+01,   -1.195174e+01
   10617,   -1.196942e+01,    1.200000e+01,   -1.602381e+01
   10618,   -1.207977e+01,    1.200000e+01,   -1.206246e+01
   10619,   -2.400000e+01,    0.000000e+00,    0.000000e+00
   10620,   -2.040000e+01,    0.000000e+00,    0.000000e+00
   10621,   -1.680000e+01,    0.000000e+00,    0.000000e+00
   10622,   -1.320000e+01,    0.000000e+00,    0.000000e+00
   10623,   -9.600000e+00,    0.000000e+00,    0.000000e+00
   10624,   -2.400000e+01,    0.000000e+00,   -2.400000e+01
   10625,   -2.400000e+01,    0.000000e+00,   -4.000000e+00
   10626,   -2.400000e+01,    0.000000e+00,   -8.000000e+00
   10627,   -2.400000e+01,    0.000000e+00,   -1.200000e+01
   10628,   -2.400000e+01,    0.000000e+00,   -1.600000e+01
   10629,   -2.400000e+01,    0.000000e+00,   -2.000000e+01
   10630,   -4.000000e+00,    0.000000e+00,   -2.400000e+01
   10631,   -8.000000e+00,    0.000000e+00,   -2.400000e+01
   10632,   -1.200000e+01,    0.000000e+00,   -2.400000e+01
   10633,   -1.600000e+01,    0.000000e+00,   -2.400000e+01
   10634,   -2.000000e+01,    0.000000e+00,   -2.400000e+01
   10635,   -4.104106e+00,    0.000000e+00,   -8.680930e+00
   10636,   -4.015578e+00,    0.000000e+00,   -1.262416e+01
   10637,   -3.963085e+00,    0.000000e+00,   -1.642881e+01
   10638,   -3.974599e+00,    0.000000e+00,   -2.021779e+01
   10639,   -2.022150e+01,    0.000000e+00,   -3.964219e+00
   10640,   -1.644854e+01,    0.000000e+00,   -3.967188e+00
   10641,   -1.264871e+01,    0.000000e+00,   -4.014225e+00
   10642,   -8.704086e+00,    0.000000e+00,   -4.099107e+00
   10643,   -7.959229e+00,    0.000000e+00,   -2.007523e+01
   10644,   -1.196080e+01,    0.000000e+00,   -2.000246e+01
   10645,   -1.597534e+01,    0.000000e+00,   -1.998118e+01
   10646,   -1.998961e+01,    0.000000e+00,   -1.998472e+01
   10647,   -1.998445e+01,    0.000000e+00,   -1.596112e+01
   10648,   -2.000168e+01,    0.000000e+00,   -1.193852e+01
   10649,   -2.009151e+01,    0.000000e+00,   -7.949854e+00
   10650,   -8.253750e+00,    0.000000e+00,   -8.236472e+00
   10651,   -8.039951e+00,    0.000000e+00,   -1.223275e+01
   10652,   -7.968893e+00,    0.000000e+00,   -1.617644e+01
   10653,   -1.618837e+01,    0.000000e+00,   -7.954333e+00
   10654,   -1.227183e+01,    0.000000e+00,   -8.039772e+00
   10655,   -1.596167e+01,    0.000000e+00,   -1.594717e+01
   10656,   -1.603555e+01,    0.000000e+00,   -1.195174e+01
   10657,   -1.196942e+01,    0.000000e+00,   -1.602381e+01
   10658,   -1.207977e+01,    0.000000e+00,   -1.206246e+01
   10839,    0.000000e+00,   -4.286264e-16,   -7.000000e+00
   10840,    0.000000e+00,   -3.673940e-16,   -6.000000e+00
   10841,    0.000000e+00,   -9.600000e+01,   -7.000000e+00
   10842,    0.000000e+00,   -9.200000e+01,   -7.000000e+00
   10843,    0.000000e+00,   -8.800000e+01,   -7.000000e+00
   10844,    0.000000e+00,   -8.400000e+01,   -7.000000e+00
   10845,    0.000000e+00,   -8.000000e+01,   -7.000000e+00
   10846,    0.000000e+00,   -7.600000e+01,   -7.000000e+00
   10847,    0.000000e+00,   -7.200000e+01,   -7.000000e+00
   10848,    0.000000e+00,   -6.800000e+01,   -7.000000e+00
   10849,    0.000000e+00,   -6.400000e+01,   -7.000000e+00
   10850,    0.000000e+00,   -6.000000e+01,   -7.000000e+00
   10851,    0.000000e+00,   -5.600000e+01,   -7.000000e+00
   10852,    0.000000e+00,   -5.200000e+01,   -7.000000e+00
   10853,    0.000000e+00,   -4.800000e+01,   -7.000000e+00
   10854,    0.000000e+00,   -4.400000e+01,   -7.000000e+00
   10855,    0.000000e+00,   -4.000000e+01,   -7.000000e+00
   10856,    0.000000e+00,   -3.600000e+01,   -7.000000e+00
   10857,    0.000000e+00,   -3.200000e+01,   -7.000000e+00
   10858,    0.000000e+00,   -2.800000e+01,   -7.000000e+00
   10859,    0.000000e+00,   -2.400000e+01,   -7.000000e+00
   10860,    0.000000e+00,   -2.000000e+01,   -7.000000e+00
   10861,    0.000000e+00,   -1.600000e+01,   -7.000000e+00
   10862,    0.000000e+00,   -1.200000e+01,   -7.000000e+00
   10863,    0.000000e+00,   -8.000000e+00,   -7.000000e+00
   10864,    0.000000e+00,   -4.000000e+00,   -7.000000e+00
   10865,    0.000000e+00,   -9.600000e+01,   -6.000000e+00
   10866,    0.000000e+00,   -4.000000e+00,   -6.000000e+00
   10867,    0.000000e+00,   -8.000000e+00,   -6.000000e+00
   10868,    0.000000e+00,   -1.200000e+01,   -6.000000e+00
   10869,    0.000000e+00,   -1.600000e+01,   -6.000000e+00
   10870,    0.000000e+00,   -2.000000e+01,   -6.000000e+00
   10871,    0.000000e+00,   -2.400000e+01,   -6.000000e+00
   10872,    0.000000e+00,   -2.800000e+01,   -6.000000e+00
   10873,    0.000000e+00,   -3.200000e+01,   -6.000000e+00
   10874,    0.000000e+00,   -3.600000e+01,   -6.000000e+00
   10875,    0.000000e+00,   -4.000000e+01,   -6.000000e+00
   10876,    0.000000e+00,   -4.400000e+01,   -6.000000e+00
   10877,    0.000000e+00,   -4.800000e+01,   -6.000000e+00
   10878,    0.000000e+00,   -5.200000e+01,   -6.000000e+00
   10879,    0.000000e+00,   -5.600000e+01,   -6.000000e+00
   10880,    0.000000e+00,   -6.000000e+01,   -6.000000e+00
   10881,    0.000000e+00,   -6.400000e+01,   -6.000000e+00
   10882,    0.000000e+00,   -6.800000e+01,   -6.000000e+00
   10883,    0.000000e+00,   -7.200000e+01,   -6.000000e+00
   10884,    0.000000e+00,   -7.600000e+01,   -6.000000e+00
   10885,    0.000000e+00,   -8.000000e+01,   -6.000000e+00
   10886,    0.000000e+00,   -8.400000e+01,   -6.000000e+00
   10887,    0.000000e+00,   -8.800000e+01,   -6.000000e+00
   10888,    0.000000e+00,   -9.200000e+01,   -6.000000e+00
   10889,    7.000000e+00,   -9.600000e+01,    2.939152e-15
   10890,    3.500000e+00,   -9.600000e+01,   -6.062178e+00
   10891,    6.062178e+00,   -9.600000e+01,   -3.500000e+00
   10892,    6.000000e+00,   -9.600000e+01,    2.939152e-15
   10893,    5.196152e+00,   -9.600000e+01,   -3.000000e+00
   10894,    3.000000e+00,   -9.600000e+01,   -5.196152e+00
   10895,    7.000000e+00,    0.000000e+00,   -2.939152e-15
   10896,    6.062178e+00,   -2.143132e-16,   -3.500000e+00
   10897,    3.500000e+00,   -3.712013e-16,   -6.062178e+00
   10898,    7.000000e+00,   -9.200000e+01,    2.694223e-15
   10899,    7.000000e+00,   -8.800000e+01,    2.449294e-15
   10900,    7.000000e+00,   -8.400000e+01,    2.204364e-15
   10901,    7.000000e+00,   -8.000000e+01,    1.959435e-15
   10902,    7.000000e+00,   -7.600000e+01,    1.714506e-15
   10903,    7.000000e+00,   -7.200000e+01,    1.469576e-15
   10904,    7.000000e+00,   -6.800000e+01,    1.224647e-15
   10905,    7.000000e+00,   -6.400000e+01,    9.797174e-16
   10906,    7.000000e+00,   -6.000000e+01,    7.347881e-16
   10907,    7.000000e+00,   -5.600000e+01,    4.898587e-16
   10908,    7.000000e+00,   -5.200000e+01,    2.449294e-16
   10909,    7.000000e+00,   -4.800000e+01,    0.000000e+00
   10910,    7.000000e+00,   -4.400000e+01,   -2.449294e-16
   10911,    7.000000e+00,   -4.000000e+01,   -4.898587e-16
   10912,    7.000000e+00,   -3.600000e+01,   -7.347881e-16
   10913,    7.000000e+00,   -3.200000e+01,   -9.797174e-16
   10914,    7.000000e+00,   -2.800000e+01,   -1.224647e-15
   10915,    7.000000e+00,   -2.400000e+01,   -1.469576e-15
   10916,    7.000000e+00,   -2.000000e+01,   -1.714506e-15
   10917,    7.000000e+00,   -1.600000e+01,   -1.959435e-15
   10918,    7.000000e+00,   -1.200000e+01,   -2.204364e-15
   10919,    7.000000e+00,   -8.000000e+00,   -2.449294e-15
   10920,    7.000000e+00,   -4.000000e+00,   -2.694223e-15
   10921,    3.500000e+00,   -9.200000e+01,   -6.062178e+00
   10922,    3.500000e+00,   -8.800000e+01,   -6.062178e+00
   10923,    3.500000e+00,   -8.400000e+01,   -6.062178e+00
   10924,    3.500000e+00,   -8.000000e+01,   -6.062178e+00
   10925,    3.500000e+00,   -7.600000e+01,   -6.062178e+00
   10926,    3.500000e+00,   -7.200000e+01,   -6.062178e+00
   10927,    3.500000e+00,   -6.800000e+01,   -6.062178e+00
   10928,    3.500000e+00,   -6.400000e+01,   -6.062178e+00
   10929,    3.500000e+00,   -6.000000e+01,   -6.062178e+00
   10930,    3.500000e+00,   -5.600000e+01,   -6.062178e+00
   10931,    3.500000e+00,   -5.200000e+01,   -6.062178e+00
   10932,    3.500000e+00,   -4.800000e+01,   -6.062178e+00
   10933,    3.500000e+00,   -4.400000e+01,   -6.062178e+00
   10934,    3.500000e+00,   -4.000000e+01,   -6.062178e+00
   10935,    3.500000e+00,   -3.600000e+01,   -6.062178e+00
   10936,    3.500000e+00,   -3.200000e+01,   -6.062178e+00
   10937,    3.500000e+00,   -2.800000e+01,   -6.062178e+00
   10938,    3.500000e+00,   -2.400000e+01,   -6.062178e+00
   10939,    3.500000e+00,   -2.000000e+01,   -6.062178e+00
   10940,    3.500000e+00,   -1.600000e+01,   -6.062178e+00
   10941,    3.500000e+00,   -1.200000e+01,   -6.062178e+00
   10942,    3.500000e+00,   -8.000000e+00,   -6.062178e+00
   10943,    3.500000e+00,   -4.000000e+00,   -6.062178e+00
   10944,    6.062178e+00,   -9.200000e+01,   -3.500000e+00
   10945,    6.062178e+00,   -8.800000e+01,   -3.500000e+00
   10946,    6.062178e+00,   -8.400000e+01,   -3.500000e+00
   10947,    6.062178e+00,   -8.000000e+01,   -3.500000e+00
   10948,    6.062178e+00,   -7.600000e+01,   -3.500000e+00
   10949,    6.062178e+00,   -7.200000e+01,   -3.500000e+00
   10950,    6.062178e+00,   -6.800000e+01,   -3.500000e+00
   10951,    6.062178e+00,   -6.400000e+01,   -3.500000e+00
   10952,    6.062178e+00,   -6.000000e+01,   -3.500000e+00
   10953,    6.062178e+00,   -5.600000e+01,   -3.500000e+00
   10954,    6.062178e+00,   -5.200000e+01,   -3.500000e+00
   10955,    6.062178e+00,   -4.800000e+01,   -3.500000e+00
   10956,    6.062178e+00,   -4.400000e+01,   -3.500000e+00
   10957,    6.062178e+00,   -4.000000e+01,   -3.500000e+00
   10958,    6.062178e+00,   -3.600000e+01,   -3.500000e+00
   10959,    6.062178e+00,   -3.200000e+01,   -3.500000e+00
   10960,    6.062178e+00,   -2.800000e+01,   -3.500000e+00
   10961,    6.062178e+00,   -2.400000e+01,   -3.500000e+00
   10962,    6.062178e+00,   -2.000000e+01,   -3.500000e+00
   10963,    6.062178e+00,   -1.600000e+01,   -3.500000e+00
   10964,    6.062178e+00,   -1.200000e+01,   -3.500000e+00
   10965,    6.062178e+00,   -8.000000e+00,   -3.500000e+00
   10966,    6.062178e+00,   -4.000000e+00,   -3.500000e+00
   10967,    6.000000e+00,    0.000000e+00,   -2.939152e-15
   10968,    6.000000e+00,   -4.000000e+00,   -2.694223e-15
   10969,    6.000000e+00,   -8.000000e+00,   -2.449294e-15
   10970,    6.000000e+00,   -1.200000e+01,   -2.204364e-15
   10971,    6.000000e+00,   -1.600000e+01,   -1.959435e-15
   10972,    6.000000e+00,   -2.000000e+01,   -1.714506e-15
   10973,    6.000000e+00,   -2.400000e+01,   -1.469576e-15
   10974,    6.000000e+00,   -2.800000e+01,   -1.224647e-15
   10975,    6.000000e+00,   -3.200000e+01,   -9.797174e-16
   10976,    6.000000e+00,   -3.600000e+01,   -7.347881e-16
   10977,    6.000000e+00,   -4.000000e+01,   -4.898587e-16
   10978,    6.000000e+00,   -4.400000e+01,   -2.449294e-16
   10979,    6.000000e+00,   -4.800000e+01,    0.000000e+00
   10980,    6.000000e+00,   -5.200000e+01,    2.449294e-16
   10981,    6.000000e+00,   -5.600000e+01,    4.898587e-16
   10982,    6.000000e+00,   -6.000000e+01,    7.347881e-16
   10983,    6.000000e+00,   -6.400000e+01,    9.797174e-16
   10984,    6.000000e+00,   -6.800000e+01,    1.224647e-15
   10985,    6.000000e+00,   -7.200000e+01,    1.469576e-15
   10986,    6.000000e+00,   -7.600000e+01,    1.714506e-15
   10987,    6.000000e+00,   -8.000000e+01,    1.959435e-15
   10988,    6.000000e+00,   -8.400000e+01,    2.204364e-15
   10989,    6.000000e+00,   -8.800000e+01,    2.449294e-15
   10990,    6.000000e+00,   -9.200000e+01,    2.694223e-15
   10991,    3.000000e+00,   -3.181726e-16,   -5.196152e+00
   10992,    5.196152e+00,   -1.836970e-16,   -3.000000e+00
   10993,    3.000000e+00,   -4.000000e+00,   -5.196152e+00
   10994,    3.000000e+00,   -8.000000e+00,   -5.196152e+00
   10995,    3.000000e+00,   -1.200000e+01,   -5.196152e+00
   10996,    3.000000e+00,   -1.600000e+01,   -5.196152e+00
   10997,    3.000000e+00,   -2.000000e+01,   -5.196152e+00
   10998,    3.000000e+00,   -2.400000e+01,   -5.196152e+00
   10999,    3.000000e+00,   -2.800000e+01,   -5.196152e+00
   11000,    3.000000e+00,   -3.200000e+01,   -5.196152e+00
   11001,    3.000000e+00,   -3.600000e+01,   -5.196152e+00
   11002,    3.000000e+00,   -4.000000e+01,   -5.196152e+00
   11003,    3.000000e+00,   -4.400000e+01,   -5.196152e+00
   11004,    3.000000e+00,   -4.800000e+01,   -5.196152e+00
   11005,    3.000000e+00,   -5.200000e+01,   -5.196152e+00
   11006,    3.000000e+00,   -5.600000e+01,   -5.196152e+00
   11007,    3.000000e+00,   -6.000000e+01,   -5.196152e+00
   11008,    3.000000e+00,   -6.400000e+01,   -5.196152e+00
   11009,    3.000000e+00,   -6.800000e+01,   -5.196152e+00
   11010,    3.000000e+00,   -7.200000e+01,   -5.196152e+00
   11011,    3.000000e+00,   -7.600000e+01,   -5.196152e+00
   11012,    3.000000e+00,   -8.000000e+01,   -5.196152e+00
   11013,    3.000000e+00,   -8.400000e+01,   -5.196152e+00
   11014,    3.000000e+00,   -8.800000e+01,   -5.196152e+00
   11015,    3.000000e+00,   -9.200000e+01,   -5.196152e+00
   11016,    5.196152e+00,   -4.000000e+00,   -3.000000e+00
   11017,    5.196152e+00,   -8.000000e+00,   -3.000000e+00
   11018,    5.196152e+00,   -1.200000e+01,   -3.000000e+00
   11019,    5.196152e+00,   -1.600000e+01,   -3.000000e+00
   11020,    5.196152e+00,   -2.000000e+01,   -3.000000e+00
   11021,    5.196152e+00,   -2.400000e+01,   -3.000000e+00
   11022,    5.196152e+00,   -2.800000e+01,   -3.000000e+00
   11023,    5.196152e+00,   -3.200000e+01,   -3.000000e+00
   11024,    5.196152e+00,   -3.600000e+01,   -3.000000e+00
   11025,    5.196152e+00,   -4.000000e+01,   -3.000000e+00
   11026,    5.196152e+00,   -4.400000e+01,   -3.000000e+00
   11027,    5.196152e+00,   -4.800000e+01,   -3.000000e+00
   11028,    5.196152e+00,   -5.200000e+01,   -3.000000e+00
   11029,    5.196152e+00,   -5.600000e+01,   -3.000000e+00
   11030,    5.196152e+00,   -6.000000e+01,   -3.000000e+00
   11031,    5.196152e+00,   -6.400000e+01,   -3.000000e+00
   11032,    5.196152e+00,   -6.800000e+01,   -3.000000e+00
   11033,    5.196152e+00,   -7.200000e+01,   -3.000000e+00
   11034,    5.196152e+00,   -7.600000e+01,   -3.000000e+00
   11035,    5.196152e+00,   -8.000000e+01,   -3.000000e+00
   11036,    5.196152e+00,   -8.400000e+01,   -3.000000e+00
   11037,    5.196152e+00,   -8.800000e+01,   -3.000000e+00
   11038,    5.196152e+00,   -9.200000e+01,   -3.000000e+00
   13669,   -6.000000e+00,    1.799712e-31,    0.000000e+00
   13670,   -5.196152e+00,   -1.836970e-16,   -3.000000e+00
   13671,   -3.000000e+00,   -3.181726e-16,   -5.196152e+00
   13672,   -6.000000e+00,   -9.600000e+01,    0.000000e+00
   13673,   -6.000000e+00,   -9.200000e+01,    2.694223e-15
   13674,   -6.000000e+00,   -8.800000e+01,    2.449294e-15
   13675,   -6.000000e+00,   -8.400000e+01,    2.204364e-15
   13676,   -6.000000e+00,   -8.000000e+01,    1.959435e-15
   13677,   -6.000000e+00,   -7.600000e+01,    1.714506e-15
   13678,   -6.000000e+00,   -7.200000e+01,    1.469576e-15
   13679,   -6.000000e+00,   -6.800000e+01,    1.224647e-15
   13680,   -6.000000e+00,   -6.400000e+01,    9.797174e-16
   13681,   -6.000000e+00,   -6.000000e+01,    7.347881e-16
   13682,   -6.000000e+00,   -5.600000e+01,    4.898587e-16
   13683,   -6.000000e+00,   -5.200000e+01,    2.449294e-16
   13684,   -6.000000e+00,   -4.800000e+01,    0.000000e+00
   13685,   -6.000000e+00,   -4.400000e+01,   -2.449294e-16
   13686,   -6.000000e+00,   -4.000000e+01,   -4.898587e-16
   13687,   -6.000000e+00,   -3.600000e+01,   -7.347881e-16
   13688,   -6.000000e+00,   -3.200000e+01,   -9.797174e-16
   13689,   -6.000000e+00,   -2.800000e+01,   -1.224647e-15
   13690,   -6.000000e+00,   -2.400000e+01,   -1.469576e-15
   13691,   -6.000000e+00,   -2.000000e+01,   -1.714506e-15
   13692,   -6.000000e+00,   -1.600000e+01,   -1.959435e-15
   13693,   -6.000000e+00,   -1.200000e+01,   -2.204364e-15
   13694,   -6.000000e+00,   -8.000000e+00,   -2.449294e-15
   13695,   -6.000000e+00,   -4.000000e+00,   -2.694223e-15
   13696,   -3.000000e+00,   -9.600000e+01,   -5.196152e+00
   13697,   -5.196152e+00,   -9.600000e+01,   -3.000000e+00
   13698,   -3.000000e+00,   -9.200000e+01,   -5.196152e+00
   13699,   -3.000000e+00,   -8.800000e+01,   -5.196152e+00
   13700,   -3.000000e+00,   -8.400000e+01,   -5.196152e+00
   13701,   -3.000000e+00,   -8.000000e+01,   -5.196152e+00
   13702,   -3.000000e+00,   -7.600000e+01,   -5.196152e+00
   13703,   -3.000000e+00,   -7.200000e+01,   -5.196152e+00
   13704,   -3.000000e+00,   -6.800000e+01,   -5.196152e+00
   13705,   -3.000000e+00,   -6.400000e+01,   -5.196152e+00
   13706,   -3.000000e+00,   -6.000000e+01,   -5.196152e+00
   13707,   -3.000000e+00,   -5.600000e+01,   -5.196152e+00
   13708,   -3.000000e+00,   -5.200000e+01,   -5.196152e+00
   13709,   -3.000000e+00,   -4.800000e+01,   -5.196152e+00
   13710,   -3.000000e+00,   -4.400000e+01,   -5.196152e+00
   13711,   -3.000000e+00,   -4.000000e+01,   -5.196152e+00
   13712,   -3.000000e+00,   -3.600000e+01,   -5.196152e+00
   13713,   -3.000000e+00,   -3.200000e+01,   -5.196152e+00
   13714,   -3.000000e+00,   -2.800000e+01,   -5.196152e+00
   13715,   -3.000000e+00,   -2.400000e+01,   -5.196152e+00
   13716,   -3.000000e+00,   -2.000000e+01,   -5.196152e+00
   13717,   -3.000000e+00,   -1.600000e+01,   -5.196152e+00
   13718,   -3.000000e+00,   -1.200000e+01,   -5.196152e+00
   13719,   -3.000000e+00,   -8.000000e+00,   -5.196152e+00
   13720,   -3.000000e+00,   -4.000000e+00,   -5.196152e+00
   13721,   -5.196152e+00,   -9.200000e+01,   -3.000000e+00
   13722,   -5.196152e+00,   -8.800000e+01,   -3.000000e+00
   13723,   -5.196152e+00,   -8.400000e+01,   -3.000000e+00
   13724,   -5.196152e+00,   -8.000000e+01,   -3.000000e+00
   13725,   -5.196152e+00,   -7.600000e+01,   -3.000000e+00
   13726,   -5.196152e+00,   -7.200000e+01,   -3.000000e+00
   13727,   -5.196152e+00,   -6.800000e+01,   -3.000000e+00
   13728,   -5.196152e+00,   -6.400000e+01,   -3.000000e+00
   13729,   -5.196152e+00,   -6.000000e+01,   -3.000000e+00
   13730,   -5.196152e+00,   -5.600000e+01,   -3.000000e+00
   13731,   -5.196152e+00,   -5.200000e+01,   -3.000000e+00
   13732,   -5.196152e+00,   -4.800000e+01,   -3.000000e+00
   13733,   -5.196152e+00,   -4.400000e+01,   -3.000000e+00
   13734,   -5.196152e+00,   -4.000000e+01,   -3.000000e+00
   13735,   -5.196152e+00,   -3.600000e+01,   -3.000000e+00
   13736,   -5.196152e+00,   -3.200000e+01,   -3.000000e+00
   13737,   -5.196152e+00,   -2.800000e+01,   -3.000000e+00
   13738,   -5.196152e+00,   -2.400000e+01,   -3.000000e+00
   13739,   -5.196152e+00,   -2.000000e+01,   -3.000000e+00
   13740,   -5.196152e+00,   -1.600000e+01,   -3.000000e+00
   13741,   -5.196152e+00,   -1.200000e+01,   -3.000000e+00
   13742,   -5.196152e+00,   -8.000000e+00,   -3.000000e+00
   13743,   -5.196152e+00,   -4.000000e+00,   -3.000000e+00
   13744,   -7.000000e+00,    1.799712e-31,    0.000000e+00
   13745,   -3.500000e+00,   -3.712013e-16,   -6.062178e+00
   13746,   -6.062178e+00,   -2.143132e-16,   -3.500000e+00
   13747,   -7.000000e+00,   -9.600000e+01,    0.000000e+00
   13748,   -7.000000e+00,   -4.000000e+00,   -2.694223e-15
   13749,   -7.000000e+00,   -8.000000e+00,   -2.449294e-15
   13750,   -7.000000e+00,   -1.200000e+01,   -2.204364e-15
   13751,   -7.000000e+00,   -1.600000e+01,   -1.959435e-15
   13752,   -7.000000e+00,   -2.000000e+01,   -1.714506e-15
   13753,   -7.000000e+00,   -2.400000e+01,   -1.469576e-15
   13754,   -7.000000e+00,   -2.800000e+01,   -1.224647e-15
   13755,   -7.000000e+00,   -3.200000e+01,   -9.797174e-16
   13756,   -7.000000e+00,   -3.600000e+01,   -7.347881e-16
   13757,   -7.000000e+00,   -4.000000e+01,   -4.898587e-16
   13758,   -7.000000e+00,   -4.400000e+01,   -2.449294e-16
   13759,   -7.000000e+00,   -4.800000e+01,    0.000000e+00
   13760,   -7.000000e+00,   -5.200000e+01,    2.449294e-16
   13761,   -7.000000e+00,   -5.600000e+01,    4.898587e-16
   13762,   -7.000000e+00,   -6.000000e+01,    7.347881e-16
   13763,   -7.000000e+00,   -6.400000e+01,    9.797174e-16
   13764,   -7.000000e+00,   -6.800000e+01,    1.224647e-15
   13765,   -7.000000e+00,   -7.200000e+01,    1.469576e-15
   13766,   -7.000000e+00,   -7.600000e+01,    1.714506e-15
   13767,   -7.000000e+00,   -8.000000e+01,    1.959435e-15
   13768,   -7.000000e+00,   -8.400000e+01,    2.204364e-15
   13769,   -7.000000e+00,   -8.800000e+01,    2.449294e-15
   13770,   -7.000000e+00,   -9.200000e+01,    2.694223e-15
   13771,   -6.062178e+00,   -9.600000e+01,   -3.500000e+00
   13772,   -3.500000e+00,   -9.600000e+01,   -6.062178e+00
   13773,   -3.500000e+00,   -4.000000e+00,   -6.062178e+00
   13774,   -3.500000e+00,   -8.000000e+00,   -6.062178e+00
   13775,   -3.500000e+00,   -1.200000e+01,   -6.062178e+00
   13776,   -3.500000e+00,   -1.600000e+01,   -6.062178e+00
   13777,   -3.500000e+00,   -2.000000e+01,   -6.062178e+00
   13778,   -3.500000e+00,   -2.400000e+01,   -6.062178e+00
   13779,   -3.500000e+00,   -2.800000e+01,   -6.062178e+00
   13780,   -3.500000e+00,   -3.200000e+01,   -6.062178e+00
   13781,   -3.500000e+00,   -3.600000e+01,   -6.062178e+00
   13782,   -3.500000e+00,   -4.000000e+01,   -6.062178e+00
   13783,   -3.500000e+00,   -4.400000e+01,   -6.062178e+00
   13784,   -3.500000e+00,   -4.800000e+01,   -6.062178e+00
   13785,   -3.500000e+00,   -5.200000e+01,   -6.062178e+00
   13786,   -3.500000e+00,   -5.600000e+01,   -6.062178e+00
   13787,   -3.500000e+00,   -6.000000e+01,   -6.062178e+00
   13788,   -3.500000e+00,   -6.400000e+01,   -6.062178e+00
   13789,   -3.500000e+00,   -6.800000e+01,   -6.062178e+00
   13790,   -3.500000e+00,   -7.200000e+01,   -6.062178e+00
   13791,   -3.500000e+00,   -7.600000e+01,   -6.062178e+00
   13792,   -3.500000e+00,   -8.000000e+01,   -6.062178e+00
   13793,   -3.500000e+00,   -8.400000e+01,   -6.062178e+00
   13794,   -3.500000e+00,   -8.800000e+01,   -6.062178e+00
   13795,   -3.500000e+00,   -9.200000e+01,   -6.062178e+00
   13796,   -6.062178e+00,   -4.000000e+00,   -3.500000e+00
   13797,   -6.062178e+00,   -8.000000e+00,   -3.500000e+00
   13798,   -6.062178e+00,   -1.200000e+01,   -3.500000e+00
   13799,   -6.062178e+00,   -1.600000e+01,   -3.500000e+00
   13800,   -6.062178e+00,   -2.000000e+01,   -3.500000e+00
   13801,   -6.062178e+00,   -2.400000e+01,   -3.500000e+00
   13802,   -6.062178e+00,   -2.800000e+01,   -3.500000e+00
   13803,   -6.062178e+00,   -3.200000e+01,   -3.500000e+00
   13804,   -6.062178e+00,   -3.600000e+01,   -3.500000e+00
   13805,   -6.062178e+00,   -4.000000e+01,   -3.500000e+00
   13806,   -6.062178e+00,   -4.400000e+01,   -3.500000e+00
   13807,   -6.062178e+00,   -4.800000e+01,   -3.500000e+00
   13808,   -6.062178e+00,   -5.200000e+01,   -3.500000e+00
   13809,   -6.062178e+00,   -5.600000e+01,   -3.500000e+00
   13810,   -6.062178e+00,   -6.000000e+01,   -3.500000e+00
   13811,   -6.062178e+00,   -6.400000e+01,   -3.500000e+00
   13812,   -6.062178e+00,   -6.800000e+01,   -3.500000e+00
   13813,   -6.062178e+00,   -7.200000e+01,   -3.500000e+00
   13814,   -6.062178e+00,   -7.600000e+01,   -3.500000e+00
   13815,   -6.062178e+00,   -8.000000e+01,   -3.500000e+00
   13816,   -6.062178e+00,   -8.400000e+01,   -3.500000e+00
   13817,   -6.062178e+00,   -8.800000e+01,   -3.500000e+00
   13818,   -6.062178e+00,   -9.200000e+01,   -3.500000e+00
********************************** E L E M E N T S ****************************
*ELEMENT, TYPE=C3D8R, ELSET=steel
       1,    5176,    5044,    5045,    5202,    5037,    5036,    5038,    5039
       2,    5126,    5050,    5176,    5202,    5035,    5034,    5037,    5039
       3,    5045,    5041,    5126,    5202,    5038,    5033,    5035,    5039
       4,    5177,    5042,    5043,    5203,    5176,    5044,    5045,    5202
       5,    5125,    5051,    5177,    5203,    5126,    5050,    5176,    5202
       6,    5043,    5040,    5125,    5203,    5045,    5041,    5126,    5202
       7,    5178,    5047,    5048,    5204,    5177,    5042,    5043,    5203
       8,    5124,    5052,    5178,    5204,    5125,    5051,    5177,    5203
       9,    5048,    5046,    5124,    5204,    5043,    5040,    5125,    5203
      10,    5179,    5150,    5152,    5205,    5178,    5047,    5048,    5204
      11,    5123,    5053,    5179,    5205,    5124,    5052,    5178,    5204
      12,    5152,    5099,    5123,    5205,    5048,    5046,    5124,    5204
      13,    5180,    5149,    5153,    5206,    5179,    5150,    5152,    5205
      14,    5122,    5054,    5180,    5206,    5123,    5053,    5179,    5205
      15,    5153,    5098,    5122,    5206,    5152,    5099,    5123,    5205
      16,    5181,    5148,    5154,    5207,    5180,    5149,    5153,    5206
      17,    5121,    5055,    5181,    5207,    5122,    5054,    5180,    5206
      18,    5154,    5097,    5121,    5207,    5153,    5098,    5122,    5206
      19,    5182,    5147,    5155,    5208,    5181,    5148,    5154,    5207
      20,    5120,    5056,    5182,    5208,    5121,    5055,    5181,    5207
      21,    5155,    5096,    5120,    5208,    5154,    5097,    5121,    5207
      22,    5183,    5146,    5156,    5209,    5182,    5147,    5155,    5208
      23,    5119,    5057,    5183,    5209,    5120,    5056,    5182,    5208
      24,    5156,    5095,    5119,    5209,    5155,    5096,    5120,    5208
      25,    5184,    5145,    5157,    5210,    5183,    5146,    5156,    5209
      26,    5118,    5058,    5184,    5210,    5119,    5057,    5183,    5209
      27,    5157,    5094,    5118,    5210,    5156,    5095,    5119,    5209
      28,    5185,    5144,    5158,    5211,    5184,    5145,    5157,    5210
      29,    5117,    5059,    5185,    5211,    5118,    5058,    5184,    5210
      30,    5158,    5093,    5117,    5211,    5157,    5094,    5118,    5210
      31,    5186,    5143,    5159,    5212,    5185,    5144,    5158,    5211
      32,    5116,    5060,    5186,    5212,    5117,    5059,    5185,    5211
      33,    5159,    5092,    5116,    5212,    5158,    5093,    5117,    5211
      34,    5187,    5142,    5160,    5213,    5186,    5143,    5159,    5212
      35,    5115,    5061,    5187,    5213,    5116,    5060,    5186,    5212
      36,    5160,    5091,    5115,    5213,    5159,    5092,    5116,    5212
      37,    5188,    5141,    5161,    5214,    5187,    5142,    5160,    5213
      38,    5114,    5062,    5188,    5214,    5115,    5061,    5187,    5213
      39,    5161,    5090,    5114,    5214,    5160,    5091,    5115,    5213
      40,    5189,    5140,    5162,    5215,    5188,    5141,    5161,    5214
      41,    5113,    5063,    5189,    5215,    5114,    5062,    5188,    5214
      42,    5162,    5089,    5113,    5215,    5161,    5090,    5114,    5214
      43,    5190,    5139,    5163,    5216,    5189,    5140,    5162,    5215
      44,    5112,    5064,    5190,    5216,    5113,    5063,    5189,    5215
      45,    5163,    5088,    5112,    5216,    5162,    5089,    5113,    5215
      46,    5191,    5138,    5164,    5217,    5190,    5139,    5163,    5216
      47,    5111,    5065,    5191,    5217,    5112,    5064,    5190,    5216
      48,    5164,    5087,    5111,    5217,    5163,    5088,    5112,    5216
      49,    5192,    5137,    5165,    5218,    5191,    5138,    5164,    5217
      50,    5110,    5066,    5192,    5218,    5111,    5065,    5191,    5217
      51,    5165,    5086,    5110,    5218,    5164,    5087,    5111,    5217
      52,    5193,    5136,    5166,    5219,    5192,    5137,    5165,    5218
      53,    5109,    5067,    5193,    5219,    5110,    5066,    5192,    5218
      54,    5166,    5085,    5109,    5219,    5165,    5086,    5110,    5218
      55,    5194,    5135,    5167,    5220,    5193,    5136,    5166,    5219
      56,    5108,    5068,    5194,    5220,    5109,    5067,    5193,    5219
      57,    5167,    5084,    5108,    5220,    5166,    5085,    5109,    5219
      58,    5195,    5134,    5168,    5221,    5194,    5135,    5167,    5220
      59,    5107,    5069,    5195,    5221,    5108,    5068,    5194,    5220
      60,    5168,    5083,    5107,    5221,    5167,    5084,    5108,    5220
      61,    5196,    5133,    5169,    5222,    5195,    5134,    5168,    5221
      62,    5106,    5070,    5196,    5222,    5107,    5069,    5195,    5221
      63,    5169,    5082,    5106,    5222,    5168,    5083,    5107,    5221
      64,    5197,    5132,    5170,    5223,    5196,    5133,    5169,    5222
      65,    5105,    5071,    5197,    5223,    5106,    5070,    5196,    5222
      66,    5170,    5081,    5105,    5223,    5169,    5082,    5106,    5222
      67,    5198,    5131,    5171,    5224,    5197,    5132,    5170,    5223
      68,    5104,    5072,    5198,    5224,    5105,    5071,    5197,    5223
      69,    5171,    5080,    5104,    5224,    5170,    5081,    5105,    5223
      70,    5199,    5130,    5172,    5225,    5198,    5131,    5171,    5224
      71,    5103,    5073,    5199,    5225,    5104,    5072,    5198,    5224
      72,    5172,    5079,    5103,    5225,    5171,    5080,    5104,    5224
      73,    5200,    5129,    5173,    5226,    5199,    5130,    5172,    5225
      74,    5102,    5074,    5200,    5226,    5103,    5073,    5199,    5225
      75,    5173,    5078,    5102,    5226,    5172,    5079,    5103,    5225
      76,    5201,    5128,    5174,    5227,    5200,    5129,    5173,    5226
      77,    5101,    5075,    5201,    5227,    5102,    5074,    5200,    5226
      78,    5174,    5077,    5101,    5227,    5173,    5078,    5102,    5226
      79,    5175,    5127,    5151,    5228,    5201,    5128,    5174,    5227
      80,    5100,    5049,    5175,    5228,    5101,    5075,    5201,    5227
      81,    5151,    5076,    5100,    5228,    5174,    5077,    5101,    5227
      82,    5408,    5401,    5402,    5405,    5273,    5266,    5267,    5270
      83,    5405,    5406,    5407,    5408,    5270,    5271,    5272,    5273
      84,    5404,    5400,    5401,    5408,    5269,    5265,    5266,    5273
      85,    5403,    5404,    5408,    5407,    5268,    5269,    5273,    5272
      86,    5395,    5396,    5403,    5407,    5260,    5261,    5268,    5272
      87,    5394,    5395,    5407,    5406,    5259,    5260,    5272,    5271
      88,    5399,    5393,    5394,    5406,    5264,    5258,    5259,    5271
      89,    5398,    5399,    5406,    5405,    5263,    5264,    5271,    5270
      90,    5397,    5398,    5405,    5402,    5262,    5263,    5270,    5267
      91,    5387,    5388,    5400,    5404,    5252,    5253,    5265,    5269
      92,    5386,    5387,    5404,    5403,    5251,    5252,    5269,    5268
      93,    5385,    5386,    5403,    5396,    5250,    5251,    5268,    5261
      94,    5391,    5392,    5397,    5402,    5256,    5257,    5262,    5267
      95,    5390,    5391,    5402,    5401,    5255,    5256,    5267,    5266
      96,    5389,    5390,    5401,    5400,    5254,    5255,    5266,    5265
      97,    5048,    5389,    5400,    5388,    5043,    5254,    5265,    5253
      98,    5383,    5384,    5393,    5399,    5241,    5240,    5258,    5264
      99,    5382,    5383,    5399,    5398,    5242,    5241,    5264,    5263
     100,    5381,    5382,    5398,    5397,    5243,    5242,    5263,    5262
     101,    5380,    5381,    5397,    5392,    5244,    5243,    5262,    5257
     102,    5373,    5374,    5385,    5396,    5246,    5245,    5250,    5261
     103,    5372,    5373,    5396,    5395,    5247,    5246,    5261,    5260
     104,    5371,    5372,    5395,    5394,    5248,    5247,    5260,    5259
     105,    5370,    5371,    5394,    5393,    5249,    5248,    5259,    5258
     106,    5369,    5370,    5393,    5384,    5239,    5249,    5258,    5240
     107,    5379,    5375,    5380,    5392,    5235,    5234,    5244,    5257
     108,    5378,    5379,    5392,    5391,    5236,    5235,    5257,    5256
     109,    5377,    5378,    5391,    5390,    5237,    5236,    5256,    5255
     110,    5376,    5377,    5390,    5389,    5238,    5237,    5255,    5254
     111,    5047,    5376,    5389,    5048,    5042,    5238,    5254,    5043
     112,    5365,    5046,    5048,    5388,    5233,    5040,    5043,    5253
     113,    5366,    5365,    5388,    5387,    5232,    5233,    5253,    5252
     114,    5367,    5366,    5387,    5386,    5231,    5232,    5252,    5251
     115,    5368,    5367,    5386,    5385,    5230,    5231,    5251,    5250
     116,    5364,    5368,    5385,    5374,    5229,    5230,    5250,    5245
     117,    5273,    5266,    5267,    5270,    5339,    5332,    5333,    5336
     118,    5270,    5271,    5272,    5273,    5336,    5337,    5338,    5339
     119,    5269,    5265,    5266,    5273,    5335,    5331,    5332,    5339
     120,    5268,    5269,    5273,    5272,    5334,    5335,    5339,    5338
     121,    5260,    5261,    5268,    5272,    5326,    5327,    5334,    5338
     122,    5259,    5260,    5272,    5271,    5325,    5326,    5338,    5337
     123,    5264,    5258,    5259,    5271,    5330,    5324,    5325,    5337
     124,    5263,    5264,    5271,    5270,    5329,    5330,    5337,    5336
     125,    5262,    5263,    5270,    5267,    5328,    5329,    5336,    5333
     126,    5252,    5253,    5265,    5269,    5318,    5319,    5331,    5335
     127,    5251,    5252,    5269,    5268,    5317,    5318,    5335,    5334
     128,    5250,    5251,    5268,    5261,    5316,    5317,    5334,    5327
     129,    5256,    5257,    5262,    5267,    5322,    5323,    5328,    5333
     130,    5255,    5256,    5267,    5266,    5321,    5322,    5333,    5332
     131,    5254,    5255,    5266,    5265,    5320,    5321,    5332,    5331
     132,    5043,    5254,    5265,    5253,    5045,    5320,    5331,    5319
     133,    5241,    5240,    5258,    5264,    5314,    5315,    5324,    5330
     134,    5242,    5241,    5264,    5263,    5313,    5314,    5330,    5329
     135,    5243,    5242,    5263,    5262,    5312,    5313,    5329,    5328
     136,    5244,    5243,    5262,    5257,    5311,    5312,    5328,    5323
     137,    5246,    5245,    5250,    5261,    5292,    5291,    5316,    5327
     138,    5247,    5246,    5261,    5260,    5293,    5292,    5327,    5326
     139,    5248,    5247,    5260,    5259,    5294,    5293,    5326,    5325
     140,    5249,    5248,    5259,    5258,    5295,    5294,    5325,    5324
     141,    5239,    5249,    5258,    5240,    5290,    5295,    5324,    5315
     142,    5235,    5234,    5244,    5257,    5305,    5297,    5311,    5323
     143,    5236,    5235,    5257,    5256,    5304,    5305,    5323,    5322
     144,    5237,    5236,    5256,    5255,    5303,    5304,    5322,    5321
     145,    5238,    5237,    5255,    5254,    5302,    5303,    5321,    5320
     146,    5042,    5238,    5254,    5043,    5044,    5302,    5320,    5045
     147,    5233,    5040,    5043,    5253,    5280,    5041,    5045,    5319
     148,    5232,    5233,    5253,    5252,    5281,    5280,    5319,    5318
     149,    5231,    5232,    5252,    5251,    5282,    5281,    5318,    5317
     150,    5230,    5231,    5251,    5250,    5283,    5282,    5317,    5316
     151,    5229,    5230,    5250,    5245,    5279,    5283,    5316,    5291
     152,    5339,    5332,    5333,    5336,    5363,    5356,    5357,    5360
     153,    5336,    5337,    5338,    5339,    5360,    5361,    5362,    5363
     154,    5335,    5331,    5332,    5339,    5359,    5355,    5356,    5363
     155,    5334,    5335,    5339,    5338,    5358,    5359,    5363,    5362
     156,    5326,    5327,    5334,    5338,    5350,    5351,    5358,    5362
     157,    5325,    5326,    5338,    5337,    5349,    5350,    5362,    5361
     158,    5330,    5324,    5325,    5337,    5354,    5348,    5349,    5361
     159,    5329,    5330,    5337,    5336,    5353,    5354,    5361,    5360
     160,    5328,    5329,    5336,    5333,    5352,    5353,    5360,    5357
     161,    5318,    5319,    5331,    5335,    5342,    5343,    5355,    5359
     162,    5317,    5318,    5335,    5334,    5341,    5342,    5359,    5358
     163,    5316,    5317,    5334,    5327,    5340,    5341,    5358,    5351
     164,    5322,    5323,    5328,    5333,    5346,    5347,    5352,    5357
     165,    5321,    5322,    5333,    5332,    5345,    5346,    5357,    5356
     166,    5320,    5321,    5332,    5331,    5344,    5345,    5356,    5355
     167,    5045,    5320,    5331,    5319,    5038,    5344,    5355,    5343
     168,    5314,    5315,    5324,    5330,    5309,    5310,    5348,    5354
     169,    5313,    5314,    5330,    5329,    5308,    5309,    5354,    5353
     170,    5312,    5313,    5329,    5328,    5307,    5308,    5353,    5352
     171,    5311,    5312,    5328,    5323,    5306,    5307,    5352,    5347
     172,    5292,    5291,    5316,    5327,    5286,    5285,    5340,    5351
     173,    5293,    5292,    5327,    5326,    5287,    5286,    5351,    5350
     174,    5294,    5293,    5326,    5325,    5288,    5287,    5350,    5349
     175,    5295,    5294,    5325,    5324,    5289,    5288,    5349,    5348
     176,    5290,    5295,    5324,    5315,    5284,    5289,    5348,    5310
     177,    5305,    5297,    5311,    5323,    5298,    5296,    5306,    5347
     178,    5304,    5305,    5323,    5322,    5299,    5298,    5347,    5346
     179,    5303,    5304,    5322,    5321,    5300,    5299,    5346,    5345
     180,    5302,    5303,    5321,    5320,    5301,    5300,    5345,    5344
     181,    5044,    5302,    5320,    5045,    5036,    5301,    5344,    5038
     182,    5280,    5041,    5045,    5319,    5278,    5033,    5038,    5343
     183,    5281,    5280,    5319,    5318,    5277,    5278,    5343,    5342
     184,    5282,    5281,    5318,    5317,    5276,    5277,    5342,    5341
     185,    5283,    5282,    5317,    5316,    5275,    5276,    5341,    5340
     186,    5279,    5283,    5316,    5291,    5274,    5275,    5340,    5285
     187,   10423,   10422,   10471,   10472,   10388,   10387,   10389,   10390
     188,    5101,    5075,   10423,   10472,    5100,    5049,   10388,   10390
     189,   10471,    5077,    5101,   10472,   10389,    5076,    5100,   10390
     190,   10424,   10421,   10470,   10473,   10423,   10422,   10471,   10472
     191,    5102,    5074,   10424,   10473,    5101,    5075,   10423,   10472
     192,   10470,    5078,    5102,   10473,   10471,    5077,    5101,   10472
     193,   10425,   10420,   10469,   10474,   10424,   10421,   10470,   10473
     194,    5103,    5073,   10425,   10474,    5102,    5074,   10424,   10473
     195,   10469,    5079,    5103,   10474,   10470,    5078,    5102,   10473
     196,   10426,   10419,   10468,   10475,   10425,   10420,   10469,   10474
     197,    5104,    5072,   10426,   10475,    5103,    5073,   10425,   10474
     198,   10468,    5080,    5104,   10475,   10469,    5079,    5103,   10474
     199,   10427,   10418,   10467,   10476,   10426,   10419,   10468,   10475
     200,    5105,    5071,   10427,   10476,    5104,    5072,   10426,   10475
     201,   10467,    5081,    5105,   10476,   10468,    5080,    5104,   10475
     202,   10428,   10417,   10466,   10477,   10427,   10418,   10467,   10476
     203,    5106,    5070,   10428,   10477,    5105,    5071,   10427,   10476
     204,   10466,    5082,    5106,   10477,   10467,    5081,    5105,   10476
     205,   10429,   10416,   10465,   10478,   10428,   10417,   10466,   10477
     206,    5107,    5069,   10429,   10478,    5106,    5070,   10428,   10477
     207,   10465,    5083,    5107,   10478,   10466,    5082,    5106,   10477
     208,   10430,   10415,   10464,   10479,   10429,   10416,   10465,   10478
     209,    5108,    5068,   10430,   10479,    5107,    5069,   10429,   10478
     210,   10464,    5084,    5108,   10479,   10465,    5083,    5107,   10478
     211,   10431,   10414,   10463,   10480,   10430,   10415,   10464,   10479
     212,    5109,    5067,   10431,   10480,    5108,    5068,   10430,   10479
     213,   10463,    5085,    5109,   10480,   10464,    5084,    5108,   10479
     214,   10432,   10413,   10462,   10481,   10431,   10414,   10463,   10480
     215,    5110,    5066,   10432,   10481,    5109,    5067,   10431,   10480
     216,   10462,    5086,    5110,   10481,   10463,    5085,    5109,   10480
     217,   10433,   10412,   10461,   10482,   10432,   10413,   10462,   10481
     218,    5111,    5065,   10433,   10482,    5110,    5066,   10432,   10481
     219,   10461,    5087,    5111,   10482,   10462,    5086,    5110,   10481
     220,   10434,   10411,   10460,   10483,   10433,   10412,   10461,   10482
     221,    5112,    5064,   10434,   10483,    5111,    5065,   10433,   10482
     222,   10460,    5088,    5112,   10483,   10461,    5087,    5111,   10482
     223,   10435,   10410,   10459,   10484,   10434,   10411,   10460,   10483
     224,    5113,    5063,   10435,   10484,    5112,    5064,   10434,   10483
     225,   10459,    5089,    5113,   10484,   10460,    5088,    5112,   10483
     226,   10436,   10409,   10458,   10485,   10435,   10410,   10459,   10484
     227,    5114,    5062,   10436,   10485,    5113,    5063,   10435,   10484
     228,   10458,    5090,    5114,   10485,   10459,    5089,    5113,   10484
     229,   10437,   10408,   10457,   10486,   10436,   10409,   10458,   10485
     230,    5115,    5061,   10437,   10486,    5114,    5062,   10436,   10485
     231,   10457,    5091,    5115,   10486,   10458,    5090,    5114,   10485
     232,   10438,   10407,   10456,   10487,   10437,   10408,   10457,   10486
     233,    5116,    5060,   10438,   10487,    5115,    5061,   10437,   10486
     234,   10456,    5092,    5116,   10487,   10457,    5091,    5115,   10486
     235,   10439,   10406,   10455,   10488,   10438,   10407,   10456,   10487
     236,    5117,    5059,   10439,   10488,    5116,    5060,   10438,   10487
     237,   10455,    5093,    5117,   10488,   10456,    5092,    5116,   10487
     238,   10440,   10405,   10454,   10489,   10439,   10406,   10455,   10488
     239,    5118,    5058,   10440,   10489,    5117,    5059,   10439,   10488
     240,   10454,    5094,    5118,   10489,   10455,    5093,    5117,   10488
     241,   10441,   10404,   10453,   10490,   10440,   10405,   10454,   10489
     242,    5119,    5057,   10441,   10490,    5118,    5058,   10440,   10489
     243,   10453,    5095,    5119,   10490,   10454,    5094,    5118,   10489
     244,   10442,   10403,   10452,   10491,   10441,   10404,   10453,   10490
     245,    5120,    5056,   10442,   10491,    5119,    5057,   10441,   10490
     246,   10452,    5096,    5120,   10491,   10453,    5095,    5119,   10490
     247,   10443,   10402,   10451,   10492,   10442,   10403,   10452,   10491
     248,    5121,    5055,   10443,   10492,    5120,    5056,   10442,   10491
     249,   10451,    5097,    5121,   10492,   10452,    5096,    5120,   10491
     250,   10444,   10401,   10450,   10493,   10443,   10402,   10451,   10492
     251,    5122,    5054,   10444,   10493,    5121,    5055,   10443,   10492
     252,   10450,    5098,    5122,   10493,   10451,    5097,    5121,   10492
     253,   10445,   10400,   10449,   10494,   10444,   10401,   10450,   10493
     254,    5123,    5053,   10445,   10494,    5122,    5054,   10444,   10493
     255,   10449,    5099,    5123,   10494,   10450,    5098,    5122,   10493
     256,   10446,   10397,   10398,   10495,   10445,   10400,   10449,   10494
     257,    5124,    5052,   10446,   10495,    5123,    5053,   10445,   10494
     258,   10398,    5046,    5124,   10495,   10449,    5099,    5123,   10494
     259,   10447,   10393,   10395,   10496,   10446,   10397,   10398,   10495
     260,    5125,    5051,   10447,   10496,    5124,    5052,   10446,   10495
     261,   10395,    5040,    5125,   10496,   10398,    5046,    5124,   10495
     262,   10448,   10394,   10396,   10497,   10447,   10393,   10395,   10496
     263,    5126,    5050,   10448,   10497,    5125,    5051,   10447,   10496
     264,   10396,    5041,    5126,   10497,   10395,    5040,    5125,   10496
     265,   10399,   10391,   10392,   10498,   10448,   10394,   10396,   10497
     266,    5035,    5034,   10399,   10498,    5126,    5050,   10448,   10497
     267,   10392,    5033,    5035,   10498,   10396,    5041,    5126,   10497
     268,   10658,   10651,   10652,   10657,   10538,   10531,   10532,   10537
     269,   10657,   10655,   10656,   10658,   10537,   10535,   10536,   10538
     270,   10654,   10650,   10651,   10658,   10534,   10530,   10531,   10538
     271,   10653,   10654,   10658,   10656,   10533,   10534,   10538,   10536
     272,   10644,   10645,   10655,   10657,   10524,   10525,   10535,   10537
     273,   10643,   10644,   10657,   10652,   10523,   10524,   10537,   10532
     274,   10648,   10649,   10653,   10656,   10528,   10529,   10533,   10536
     275,   10647,   10648,   10656,   10655,   10527,   10528,   10536,   10535
     276,   10646,   10647,   10655,   10645,   10526,   10527,   10535,   10525
     277,   10641,   10642,   10650,   10654,   10521,   10522,   10530,   10534
     278,   10640,   10641,   10654,   10653,   10520,   10521,   10534,   10533
     279,   10639,   10640,   10653,   10649,   10519,   10520,   10533,   10529
     280,   10637,   10638,   10643,   10652,   10517,   10518,   10523,   10532
     281,   10636,   10637,   10652,   10651,   10516,   10517,   10532,   10531
     282,   10635,   10636,   10651,   10650,   10515,   10516,   10531,   10530
     283,   10398,   10635,   10650,   10642,   10395,   10515,   10530,   10522
     284,   10626,   10625,   10639,   10649,   10507,   10506,   10519,   10529
     285,   10627,   10626,   10649,   10648,   10508,   10507,   10529,   10528
     286,   10628,   10627,   10648,   10647,   10509,   10508,   10528,   10527
     287,   10629,   10628,   10647,   10646,   10510,   10509,   10527,   10526
     288,   10634,   10624,   10629,   10646,   10500,   10499,   10510,   10526
     289,   10633,   10634,   10646,   10645,   10501,   10500,   10526,   10525
     290,   10632,   10633,   10645,   10644,   10502,   10501,   10525,   10524
     291,   10631,   10632,   10644,   10643,   10503,   10502,   10524,   10523
     292,   10630,   10631,   10643,   10638,   10504,   10503,   10523,   10518
     293,   10623,   10397,   10398,   10642,   10511,   10393,   10395,   10522
     294,   10622,   10623,   10642,   10641,   10512,   10511,   10522,   10521
     295,   10621,   10622,   10641,   10640,   10513,   10512,   10521,   10520
     296,   10620,   10621,   10640,   10639,   10514,   10513,   10520,   10519
     297,   10619,   10620,   10639,   10625,   10505,   10514,   10519,   10506
     298,    5368,    5364,   10630,   10638,    5230,    5229,   10504,   10518
     299,    5367,    5368,   10638,   10637,    5231,    5230,   10518,   10517
     300,    5366,    5367,   10637,   10636,    5232,    5231,   10517,   10516
     301,    5365,    5366,   10636,   10635,    5233,    5232,   10516,   10515
     302,    5046,    5365,   10635,   10398,    5040,    5233,   10515,   10395
     303,   10538,   10531,   10532,   10537,   10594,   10587,   10588,   10593
     304,   10537,   10535,   10536,   10538,   10593,   10591,   10592,   10594
     305,   10534,   10530,   10531,   10538,   10590,   10586,   10587,   10594
     306,   10533,   10534,   10538,   10536,   10589,   10590,   10594,   10592
     307,   10524,   10525,   10535,   10537,   10580,   10581,   10591,   10593
     308,   10523,   10524,   10537,   10532,   10579,   10580,   10593,   10588
     309,   10528,   10529,   10533,   10536,   10584,   10585,   10589,   10592
     310,   10527,   10528,   10536,   10535,   10583,   10584,   10592,   10591
     311,   10526,   10527,   10535,   10525,   10582,   10583,   10591,   10581
     312,   10521,   10522,   10530,   10534,   10577,   10578,   10586,   10590
     313,   10520,   10521,   10534,   10533,   10576,   10577,   10590,   10589
     314,   10519,   10520,   10533,   10529,   10575,   10576,   10589,   10585
     315,   10517,   10518,   10523,   10532,   10573,   10574,   10579,   10588
     316,   10516,   10517,   10532,   10531,   10572,   10573,   10588,   10587
     317,   10515,   10516,   10531,   10530,   10571,   10572,   10587,   10586
     318,   10395,   10515,   10530,   10522,   10396,   10571,   10586,   10578
     319,   10507,   10506,   10519,   10529,   10567,   10566,   10575,   10585
     320,   10508,   10507,   10529,   10528,   10568,   10567,   10585,   10584
     321,   10509,   10508,   10528,   10527,   10569,   10568,   10584,   10583
     322,   10510,   10509,   10527,   10526,   10570,   10569,   10583,   10582
     323,   10500,   10499,   10510,   10526,   10560,   10550,   10570,   10582
     324,   10501,   10500,   10526,   10525,   10559,   10560,   10582,   10581
     325,   10502,   10501,   10525,   10524,   10558,   10559,   10581,   10580
     326,   10503,   10502,   10524,   10523,   10557,   10558,   10580,   10579
     327,   10504,   10503,   10523,   10518,   10556,   10557,   10579,   10574
     328,   10511,   10393,   10395,   10522,   10548,   10394,   10396,   10578
     329,   10512,   10511,   10522,   10521,   10547,   10548,   10578,   10577
     330,   10513,   10512,   10521,   10520,   10546,   10547,   10577,   10576
     331,   10514,   10513,   10520,   10519,   10545,   10546,   10576,   10575
     332,   10505,   10514,   10519,   10506,   10544,   10545,   10575,   10566
     333,    5230,    5229,   10504,   10518,    5283,    5279,   10556,   10574
     334,    5231,    5230,   10518,   10517,    5282,    5283,   10574,   10573
     335,    5232,    5231,   10517,   10516,    5281,    5282,   10573,   10572
     336,    5233,    5232,   10516,   10515,    5280,    5281,   10572,   10571
     337,    5040,    5233,   10515,   10395,    5041,    5280,   10571,   10396
     338,   10594,   10587,   10588,   10593,   10618,   10611,   10612,   10617
     339,   10593,   10591,   10592,   10594,   10617,   10615,   10616,   10618
     340,   10590,   10586,   10587,   10594,   10614,   10610,   10611,   10618
     341,   10589,   10590,   10594,   10592,   10613,   10614,   10618,   10616
     342,   10580,   10581,   10591,   10593,   10604,   10605,   10615,   10617
     343,   10579,   10580,   10593,   10588,   10603,   10604,   10617,   10612
     344,   10584,   10585,   10589,   10592,   10608,   10609,   10613,   10616
     345,   10583,   10584,   10592,   10591,   10607,   10608,   10616,   10615
     346,   10582,   10583,   10591,   10581,   10606,   10607,   10615,   10605
     347,   10577,   10578,   10586,   10590,   10601,   10602,   10610,   10614
     348,   10576,   10577,   10590,   10589,   10600,   10601,   10614,   10613
     349,   10575,   10576,   10589,   10585,   10599,   10600,   10613,   10609
     350,   10573,   10574,   10579,   10588,   10597,   10598,   10603,   10612
     351,   10572,   10573,   10588,   10587,   10596,   10597,   10612,   10611
     352,   10571,   10572,   10587,   10586,   10595,   10596,   10611,   10610
     353,   10396,   10571,   10586,   10578,   10392,   10595,   10610,   10602
     354,   10567,   10566,   10575,   10585,   10562,   10561,   10599,   10609
     355,   10568,   10567,   10585,   10584,   10563,   10562,   10609,   10608
     356,   10569,   10568,   10584,   10583,   10564,   10563,   10608,   10607
     357,   10570,   10569,   10583,   10582,   10565,   10564,   10607,   10606
     358,   10560,   10550,   10570,   10582,   10551,   10549,   10565,   10606
     359,   10559,   10560,   10582,   10581,   10552,   10551,   10606,   10605
     360,   10558,   10559,   10581,   10580,   10553,   10552,   10605,   10604
     361,   10557,   10558,   10580,   10579,   10554,   10553,   10604,   10603
     362,   10556,   10557,   10579,   10574,   10555,   10554,   10603,   10598
     363,   10548,   10394,   10396,   10578,   10540,   10391,   10392,   10602
     364,   10547,   10548,   10578,   10577,   10541,   10540,   10602,   10601
     365,   10546,   10547,   10577,   10576,   10542,   10541,   10601,   10600
     366,   10545,   10546,   10576,   10575,   10543,   10542,   10600,   10599
     367,   10544,   10545,   10575,   10566,   10539,   10543,   10599,   10561
     368,    5283,    5279,   10556,   10574,    5275,    5274,   10555,   10598
     369,    5282,    5283,   10574,   10573,    5276,    5275,   10598,   10597
     370,    5281,    5282,   10573,   10572,    5277,    5276,   10597,   10596
     371,    5280,    5281,   10572,   10571,    5278,    5277,   10596,   10595
     372,    5041,    5280,   10571,   10396,    5033,    5278,   10595,   10392
*ELEMENT, TYPE=C3D8R, ELSET=mortar
     373,   10895,   10920,   10968,   10967,   10896,   10966,   11016,   10992
     374,   10920,   10919,   10969,   10968,   10966,   10965,   11017,   11016
     375,   10919,   10918,   10970,   10969,   10965,   10964,   11018,   11017
     376,   10918,   10917,   10971,   10970,   10964,   10963,   11019,   11018
     377,   10917,   10916,   10972,   10971,   10963,   10962,   11020,   11019
     378,   10916,   10915,   10973,   10972,   10962,   10961,   11021,   11020
     379,   10915,   10914,   10974,   10973,   10961,   10960,   11022,   11021
     380,   10914,   10913,   10975,   10974,   10960,   10959,   11023,   11022
     381,   10913,   10912,   10976,   10975,   10959,   10958,   11024,   11023
     382,   10912,   10911,   10977,   10976,   10958,   10957,   11025,   11024
     383,   10911,   10910,   10978,   10977,   10957,   10956,   11026,   11025
     384,   10910,   10909,   10979,   10978,   10956,   10955,   11027,   11026
     385,   10909,   10908,   10980,   10979,   10955,   10954,   11028,   11027
     386,   10908,   10907,   10981,   10980,   10954,   10953,   11029,   11028
     387,   10907,   10906,   10982,   10981,   10953,   10952,   11030,   11029
     388,   10906,   10905,   10983,   10982,   10952,   10951,   11031,   11030
     389,   10905,   10904,   10984,   10983,   10951,   10950,   11032,   11031
     390,   10904,   10903,   10985,   10984,   10950,   10949,   11033,   11032
     391,   10903,   10902,   10986,   10985,   10949,   10948,   11034,   11033
     392,   10902,   10901,   10987,   10986,   10948,   10947,   11035,   11034
     393,   10901,   10900,   10988,   10987,   10947,   10946,   11036,   11035
     394,   10900,   10899,   10989,   10988,   10946,   10945,   11037,   11036
     395,   10899,   10898,   10990,   10989,   10945,   10944,   11038,   11037
     396,   10898,   10889,   10892,   10990,   10944,   10891,   10893,   11038
     397,   10896,   10966,   11016,   10992,   10897,   10943,   10993,   10991
     398,   10966,   10965,   11017,   11016,   10943,   10942,   10994,   10993
     399,   10965,   10964,   11018,   11017,   10942,   10941,   10995,   10994
     400,   10964,   10963,   11019,   11018,   10941,   10940,   10996,   10995
     401,   10963,   10962,   11020,   11019,   10940,   10939,   10997,   10996
     402,   10962,   10961,   11021,   11020,   10939,   10938,   10998,   10997
     403,   10961,   10960,   11022,   11021,   10938,   10937,   10999,   10998
     404,   10960,   10959,   11023,   11022,   10937,   10936,   11000,   10999
     405,   10959,   10958,   11024,   11023,   10936,   10935,   11001,   11000
     406,   10958,   10957,   11025,   11024,   10935,   10934,   11002,   11001
     407,   10957,   10956,   11026,   11025,   10934,   10933,   11003,   11002
     408,   10956,   10955,   11027,   11026,   10933,   10932,   11004,   11003
     409,   10955,   10954,   11028,   11027,   10932,   10931,   11005,   11004
     410,   10954,   10953,   11029,   11028,   10931,   10930,   11006,   11005
     411,   10953,   10952,   11030,   11029,   10930,   10929,   11007,   11006
     412,   10952,   10951,   11031,   11030,   10929,   10928,   11008,   11007
     413,   10951,   10950,   11032,   11031,   10928,   10927,   11009,   11008
     414,   10950,   10949,   11033,   11032,   10927,   10926,   11010,   11009
     415,   10949,   10948,   11034,   11033,   10926,   10925,   11011,   11010
     416,   10948,   10947,   11035,   11034,   10925,   10924,   11012,   11011
     417,   10947,   10946,   11036,   11035,   10924,   10923,   11013,   11012
     418,   10946,   10945,   11037,   11036,   10923,   10922,   11014,   11013
     419,   10945,   10944,   11038,   11037,   10922,   10921,   11015,   11014
     420,   10944,   10891,   10893,   11038,   10921,   10890,   10894,   11015
     421,   10897,   10943,   10993,   10991,   10839,   10864,   10866,   10840
     422,   10943,   10942,   10994,   10993,   10864,   10863,   10867,   10866
     423,   10942,   10941,   10995,   10994,   10863,   10862,   10868,   10867
     424,   10941,   10940,   10996,   10995,   10862,   10861,   10869,   10868
     425,   10940,   10939,   10997,   10996,   10861,   10860,   10870,   10869
     426,   10939,   10938,   10998,   10997,   10860,   10859,   10871,   10870
     427,   10938,   10937,   10999,   10998,   10859,   10858,   10872,   10871
     428,   10937,   10936,   11000,   10999,   10858,   10857,   10873,   10872
     429,   10936,   10935,   11001,   11000,   10857,   10856,   10874,   10873
     430,   10935,   10934,   11002,   11001,   10856,   10855,   10875,   10874
     431,   10934,   10933,   11003,   11002,   10855,   10854,   10876,   10875
     432,   10933,   10932,   11004,   11003,   10854,   10853,   10877,   10876
     433,   10932,   10931,   11005,   11004,   10853,   10852,   10878,   10877
     434,   10931,   10930,   11006,   11005,   10852,   10851,   10879,   10878
     435,   10930,   10929,   11007,   11006,   10851,   10850,   10880,   10879
     436,   10929,   10928,   11008,   11007,   10850,   10849,   10881,   10880
     437,   10928,   10927,   11009,   11008,   10849,   10848,   10882,   10881
     438,   10927,   10926,   11010,   11009,   10848,   10847,   10883,   10882
     439,   10926,   10925,   11011,   11010,   10847,   10846,   10884,   10883
     440,   10925,   10924,   11012,   11011,   10846,   10845,   10885,   10884
     441,   10924,   10923,   11013,   11012,   10845,   10844,   10886,   10885
     442,   10923,   10922,   11014,   11013,   10844,   10843,   10887,   10886
     443,   10922,   10921,   11015,   11014,   10843,   10842,   10888,   10887
     444,   10921,   10890,   10894,   11015,   10842,   10841,   10865,   10888
     445,   10841,   13772,   13696,   10865,   10842,   13795,   13698,   10888
     446,   13772,   13771,   13697,   13696,   13795,   13818,   13721,   13698
     447,   13771,   13747,   13672,   13697,   13818,   13770,   13673,   13721
     448,   10842,   13795,   13698,   10888,   10843,   13794,   13699,   10887
     449,   13795,   13818,   13721,   13698,   13794,   13817,   13722,   13699
     450,   13818,   13770,   13673,   13721,   13817,   13769,   13674,   13722
     451,   10843,   13794,   13699,   10887,   10844,   13793,   13700,   10886
     452,   13794,   13817,   13722,   13699,   13793,   13816,   13723,   13700
     453,   13817,   13769,   13674,   13722,   13816,   13768,   13675,   13723
     454,   10844,   13793,   13700,   10886,   10845,   13792,   13701,   10885
     455,   13793,   13816,   13723,   13700,   13792,   13815,   13724,   13701
     456,   13816,   13768,   13675,   13723,   13815,   13767,   13676,   13724
     457,   10845,   13792,   13701,   10885,   10846,   13791,   13702,   10884
     458,   13792,   13815,   13724,   13701,   13791,   13814,   13725,   13702
     459,   13815,   13767,   13676,   13724,   13814,   13766,   13677,   13725
     460,   10846,   13791,   13702,   10884,   10847,   13790,   13703,   10883
     461,   13791,   13814,   13725,   13702,   13790,   13813,   13726,   13703
     462,   13814,   13766,   13677,   13725,   13813,   13765,   13678,   13726
     463,   10847,   13790,   13703,   10883,   10848,   13789,   13704,   10882
     464,   13790,   13813,   13726,   13703,   13789,   13812,   13727,   13704
     465,   13813,   13765,   13678,   13726,   13812,   13764,   13679,   13727
     466,   10848,   13789,   13704,   10882,   10849,   13788,   13705,   10881
     467,   13789,   13812,   13727,   13704,   13788,   13811,   13728,   13705
     468,   13812,   13764,   13679,   13727,   13811,   13763,   13680,   13728
     469,   10849,   13788,   13705,   10881,   10850,   13787,   13706,   10880
     470,   13788,   13811,   13728,   13705,   13787,   13810,   13729,   13706
     471,   13811,   13763,   13680,   13728,   13810,   13762,   13681,   13729
     472,   10850,   13787,   13706,   10880,   10851,   13786,   13707,   10879
     473,   13787,   13810,   13729,   13706,   13786,   13809,   13730,   13707
     474,   13810,   13762,   13681,   13729,   13809,   13761,   13682,   13730
     475,   10851,   13786,   13707,   10879,   10852,   13785,   13708,   10878
     476,   13786,   13809,   13730,   13707,   13785,   13808,   13731,   13708
     477,   13809,   13761,   13682,   13730,   13808,   13760,   13683,   13731
     478,   10852,   13785,   13708,   10878,   10853,   13784,   13709,   10877
     479,   13785,   13808,   13731,   13708,   13784,   13807,   13732,   13709
     480,   13808,   13760,   13683,   13731,   13807,   13759,   13684,   13732
     481,   10853,   13784,   13709,   10877,   10854,   13783,   13710,   10876
     482,   13784,   13807,   13732,   13709,   13783,   13806,   13733,   13710
     483,   13807,   13759,   13684,   13732,   13806,   13758,   13685,   13733
     484,   10854,   13783,   13710,   10876,   10855,   13782,   13711,   10875
     485,   13783,   13806,   13733,   13710,   13782,   13805,   13734,   13711
     486,   13806,   13758,   13685,   13733,   13805,   13757,   13686,   13734
     487,   10855,   13782,   13711,   10875,   10856,   13781,   13712,   10874
     488,   13782,   13805,   13734,   13711,   13781,   13804,   13735,   13712
     489,   13805,   13757,   13686,   13734,   13804,   13756,   13687,   13735
     490,   10856,   13781,   13712,   10874,   10857,   13780,   13713,   10873
     491,   13781,   13804,   13735,   13712,   13780,   13803,   13736,   13713
     492,   13804,   13756,   13687,   13735,   13803,   13755,   13688,   13736
     493,   10857,   13780,   13713,   10873,   10858,   13779,   13714,   10872
     494,   13780,   13803,   13736,   13713,   13779,   13802,   13737,   13714
     495,   13803,   13755,   13688,   13736,   13802,   13754,   13689,   13737
     496,   10858,   13779,   13714,   10872,   10859,   13778,   13715,   10871
     497,   13779,   13802,   13737,   13714,   13778,   13801,   13738,   13715
     498,   13802,   13754,   13689,   13737,   13801,   13753,   13690,   13738
     499,   10859,   13778,   13715,   10871,   10860,   13777,   13716,   10870
     500,   13778,   13801,   13738,   13715,   13777,   13800,   13739,   13716
     501,   13801,   13753,   13690,   13738,   13800,   13752,   13691,   13739
     502,   10860,   13777,   13716,   10870,   10861,   13776,   13717,   10869
     503,   13777,   13800,   13739,   13716,   13776,   13799,   13740,   13717
     504,   13800,   13752,   13691,   13739,   13799,   13751,   13692,   13740
     505,   10861,   13776,   13717,   10869,   10862,   13775,   13718,   10868
     506,   13776,   13799,   13740,   13717,   13775,   13798,   13741,   13718
     507,   13799,   13751,   13692,   13740,   13798,   13750,   13693,   13741
     508,   10862,   13775,   13718,   10868,   10863,   13774,   13719,   10867
     509,   13775,   13798,   13741,   13718,   13774,   13797,   13742,   13719
     510,   13798,   13750,   13693,   13741,   13797,   13749,   13694,   13742
     511,   10863,   13774,   13719,   10867,   10864,   13773,   13720,   10866
     512,   13774,   13797,   13742,   13719,   13773,   13796,   13743,   13720
     513,   13797,   13749,   13694,   13742,   13796,   13748,   13695,   13743
     514,   10864,   13773,   13720,   10866,   10839,   13745,   13671,   10840
     515,   13773,   13796,   13743,   13720,   13745,   13746,   13670,   13671
     516,   13796,   13748,   13695,   13743,   13746,   13744,   13669,   13670
********************************** N O D E S E T S **********************************
*NSET, NSET=plate_bottom
    5046,    5047,    5048,    5364,    5365,    5366,
    5367,    5368,    5369,    5370,    5371,    5372,
    5373,    5374,    5375,    5376,    5377,    5378,
    5379,    5380,    5381,    5382,    5383,    5384,
    5385,    5386,    5387,    5388,    5389,    5390,
    5391,    5392,    5393,    5394,    5395,    5396,
    5397,    5398,    5399,    5400,    5401,    5402,
    5403,    5404,    5405,    5406,    5407,    5408,
   10397,   10398,   10619,   10620,   10621,   10622,
   10623,   10624,   10625,   10626,   10627,   10628,
   10629,   10630,   10631,   10632,   10633,   10634,
   10635,   10636,   10637,   10638,   10639,   10640,
   10641,   10642,   10643,   10644,   10645,   10646,
   10647,   10648,   10649,   10650,   10651,   10652,
   10653,   10654,   10655,   10656,   10657,   10658,
*NSET, NSET=plate_left_loading
   10499,   10505,   10506,   10507,   10508,   10509,
   10510,
*NSET, NSET=z_symm
    5034,    5037,    5042,    5049,    5050,    5051,
    5052,    5053,    5054,    5055,    5056,    5057,
    5058,    5059,    5060,    5061,    5062,    5063,
    5064,    5065,    5066,    5067,    5068,    5069,
    5070,    5071,    5072,    5073,    5074,    5075,
    5175,    5176,    5177,    5178,    5179,    5180,
    5181,    5182,    5183,    5184,    5185,    5186,
    5187,    5188,    5189,    5190,    5191,    5192,
    5193,    5194,    5195,    5196,    5197,    5198,
    5199,    5200,    5201,    5234,    5235,    5236,
    5237,    5238,    5296,    5297,    5298,    5299,
    5300,    5301,    5302,    5303,    5304,    5305,
    5375,    5376,    5377,    5378,    5379,   10387,
   10388,   10391,   10397,   10399,   10423,   10424,
   10425,   10426,   10427,   10428,   10429,   10430,
   10431,   10432,   10433,   10434,   10435,   10436,
   10437,   10438,   10439,   10440,   10441,   10442,
   10443,   10444,   10445,   10446,   10447,   10448,
   10505,   10511,   10512,   10513,   10514,   10539,
   10540,   10541,   10542,   10543,   10544,   10545,
   10546,   10547,   10548,   10619,   10620,   10621,
   10622,   10623,   10909,   10979,   13669,   13672,
   13684,   13744,   13747,   13759,
********************************** S I D E S E T S **********************************
*ELSET, ELSET=plate_bottom_S1
      82,      83,      84,      85,      86,      87,      88,      89,      90,      91,
      92,      93,      94,      95,      96,      97,      98,      99,     100,     101,
     102,     103,     104,     105,     106,     107,     108,     109,     110,     111,
     112,     113,     114,     115,     116,     268,     269,     270,     271,     272,
     273,     274,     275,     276,     277,     278,     279,     280,     281,     282,
     283,     284,     285,     286,     287,     288,     289,     290,     291,     292,
     293,     294,     295,     296,     297,     298,     299,     300,     301,     302
*SURFACE, NAME=plate_bottom
plate_bottom_S1, S1
*ELSET, ELSET=mortar_to_anchor_S5
     373,     374,     375,     376,     377,     378,     379,     380,     381,     382,
     383,     384,     385,     386,     387,     388,     389,     390,     391,     392,
     393,     394,     395,     396,     397,     398,     399,     400,     401,     402,
     403,     404,     405,     406,     407,     408,     409,     410,     411,     412,
     413,     414,     415,     416,     417,     418,     419,     420,     421,     422,
     423,     424,     425,     426,     427,     428,     429,     430,     431,     432,
     433,     434,     435,     436,     437,     438,     439,     440,     441,     442,
     443,     444,     445,     446,     447,     448,     449,     450,     451,     452,
     453,     454,     455,     456,     457,     458,     459,     460,     461,     462,
     463,     464,     465,     466,     467,     468,     469,     470,     471,     472,
     473,     474,     475,     476,     477,     478,     479,     480,     481,     482,
     483,     484,     485,     486,     487,     488,     489,     490,     491,     492,
     493,     494,     495,     496,     497,     498,     499,     500,     501,     502,
     503,     504,     505,     506,     507,     508,     509,     510,     511,     512,
     513,     514,     515,     516
*SURFACE, NAME=mortar_to_anchor
mortar_to_anchor_S5, S5
*ELSET, ELSET=anchor_to_mortar_S3
      12,      15,      18,      21,      24,      27,      30,      33,      36,      39,
      42,      45,      48,      51,      54,      57,      60,      63,      66,      69,
      72,      75,      78,      81,     189,     192,     195,     198,     201,     204,
     207,     210,     213,     216,     219,     222,     225,     228,     231,     234,
     237,     240,     243,     246,     249,     252,     255,     258
*ELSET, ELSET=anchor_to_mortar_S4
      10,      13,      16,      19,      22,      25,      28,      31,      34,      37,
      40,      43,      46,      49,      52,      55,      58,      61,      64,      67,
      70,      73,      76,      79,     112,     147,     182,     187,     190,     193,
     196,     199,     202,     205,     208,     211,     214,     217,     220,     223,
     226,     229,     232,     235,     238,     241,     244,     247,     250,     253,
     256,     293,     328,     363
*ELSET, ELSET=anchor_to_mortar_S6
     111,     146,     181,     302,     337,     372
*SURFACE, NAME=anchor_to_mortar
anchor_to_mortar_S3, S3
anchor_to_mortar_S4, S4
anchor_to_mortar_S6, S6
*ELSET, ELSET=mortar_to_concrete_S3
     373,     374,     375,     376,     377,     378,     379,     380,     381,     382,
     383,     384,     385,     386,     387,     388,     389,     390,     391,     392,
     393,     394,     395,     396,     397,     398,     399,     400,     401,     402,
     403,     404,     405,     406,     407,     408,     409,     410,     411,     412,
     413,     414,     415,     416,     417,     418,     419,     420,     421,     422,
     423,     424,     425,     426,     427,     428,     429,     430,     431,     432,
     433,     434,     435,     436,     437,     438,     439,     440,     441,     442,
     443,     444,     445,     446,     447,     448,     449,     450,     451,     452,
     453,     454,     455,     456,     457,     458,     459,     460,     461,     462,
     463,     464,     465,     466,     467,     468,     469,     470,     471,     472,
     473,     474,     475,     476,     477,     478,     479,     480,     481,     482,
     483,     484,     485,     486,     487,     488,     489,     490,     491,     492,
     493,     494,     495,     496,     497,     498,     499,     500,     501,     502,
     503,     504,     505,     506,     507,     508,     509,     510,     511,     512,
     513,     514,     515,     516
*SURFACE, NAME=mortar_to_concrete
mortar_to_concrete_S3, S3
