********************************** N O D E S **********************************
*NODE, NSET=ALLNODES
    1028,    0.000000e+00,    1.600000e+01,   -8.000000e+00
    1029,    0.000000e+00,    1.600000e+01,    0.000000e+00
    1030,    0.000000e+00,    1.600000e+01,   -4.000000e+00
    1031,    8.000000e+00,    1.600000e+01,   -2.020667e-15
    1032,    5.333333e+00,    1.600000e+01,    0.000000e+00
    1033,    2.666667e+00,    1.600000e+01,    0.000000e+00
    1034,    6.928203e+00,    1.600000e+01,   -4.000000e+00
    1035,    4.000000e+00,    1.600000e+01,   -6.928203e+00
    1036,    5.026854e+00,    1.600000e+01,   -2.413361e+00
    1037,    2.829203e+00,    1.600000e+01,   -3.243589e+00
    1038,    0.000000e+00,    5.333333e+00,   -8.000000e+00
    1039,    0.000000e+00,    1.244444e+01,   -8.000000e+00
    1040,    0.000000e+00,    8.888889e+00,   -8.000000e+00
    1041,    8.000000e+00,    5.333333e+00,    0.000000e+00
    1042,    6.928203e+00,    5.333333e+00,   -4.000000e+00
    1043,    4.000000e+00,    5.333333e+00,   -6.928203e+00
    1044,    8.000000e+00,    1.244444e+01,   -2.721437e-16
    1045,    8.000000e+00,    8.888889e+00,   -5.442875e-17
    1046,    4.000000e+00,    1.244444e+01,   -6.928203e+00
    1047,    4.000000e+00,    8.888889e+00,   -6.928203e+00
    1048,    6.928203e+00,    1.244444e+01,   -4.000000e+00
    1049,    6.928203e+00,    8.888889e+00,   -4.000000e+00
    1050,    0.000000e+00,    0.000000e+00,   -8.000000e+00
    1051,    8.000000e+00,    0.000000e+00,    4.898587e-16
    1052,    6.928203e+00,    0.000000e+00,   -4.000000e+00
    1053,    4.000000e+00,    0.000000e+00,   -6.928203e+00
    1054,    0.000000e+00,   -5.000000e+01,    0.000000e+00
    1055,    0.000000e+00,    1.211765e+01,    0.000000e+00
    1056,    0.000000e+00,    8.235294e+00,    0.000000e+00
    1057,    0.000000e+00,    4.352941e+00,    0.000000e+00
    1058,    0.000000e+00,    4.705882e-01,    0.000000e+00
    1059,    0.000000e+00,   -3.411765e+00,    0.000000e+00
    1060,    0.000000e+00,   -7.294118e+00,    0.000000e+00
    1061,    0.000000e+00,   -1.117647e+01,    0.000000e+00
    1062,    0.000000e+00,   -1.505882e+01,    0.000000e+00
    1063,    0.000000e+00,   -1.894118e+01,    0.000000e+00
    1064,    0.000000e+00,   -2.282353e+01,    0.000000e+00
    1065,    0.000000e+00,   -2.670588e+01,    0.000000e+00
    1066,    0.000000e+00,   -3.058824e+01,    0.000000e+00
    1067,    0.000000e+00,   -3.447059e+01,    0.000000e+00
    1068,    0.000000e+00,   -3.835294e+01,    0.000000e+00
    1069,    0.000000e+00,   -4.223529e+01,    0.000000e+00
    1070,    0.000000e+00,   -4.611765e+01,    0.000000e+00
    1071,    0.000000e+00,   -5.000000e+01,   -8.000000e+00
    1072,    0.000000e+00,   -4.615385e+01,   -8.000000e+00
    1073,    0.000000e+00,   -4.230769e+01,   -8.000000e+00
    1074,    0.000000e+00,   -3.846154e+01,   -8.000000e+00
    1075,    0.000000e+00,   -3.461538e+01,   -8.000000e+00
    1076,    0.000000e+00,   -3.076923e+01,   -8.000000e+00
    1077,    0.000000e+00,   -2.692308e+01,   -8.000000e+00
    1078,    0.000000e+00,   -2.307692e+01,   -8.000000e+00
    1079,    0.000000e+00,   -1.923077e+01,   -8.000000e+00
    1080,    0.000000e+00,   -1.538462e+01,   -8.000000e+00
    1081,    0.000000e+00,   -1.153846e+01,   -8.000000e+00
    1082,    0.000000e+00,   -7.692308e+00,   -8.000000e+00
    1083,    0.000000e+00,   -3.846154e+00,   -8.000000e+00
    1084,    0.000000e+00,   -5.000000e+01,   -4.000000e+00
    1085,    0.000000e+00,   -4.613575e+01,   -4.000000e+00
    1086,    0.000000e+00,   -4.227149e+01,   -4.000000e+00
    1087,    0.000000e+00,   -3.840724e+01,   -4.000000e+00
    1088,    0.000000e+00,   -3.454299e+01,   -4.000000e+00
    1089,    0.000000e+00,   -3.067873e+01,   -4.000000e+00
    1090,    0.000000e+00,   -2.681448e+01,   -4.000000e+00
    1091,    0.000000e+00,   -2.295023e+01,   -4.000000e+00
    1092,    0.000000e+00,   -1.908597e+01,   -4.000000e+00
    1093,    0.000000e+00,   -1.522172e+01,   -4.000000e+00
    1094,    0.000000e+00,   -1.135747e+01,   -4.000000e+00
    1095,    0.000000e+00,   -7.493213e+00,   -4.000000e+00
    1096,    0.000000e+00,   -3.628959e+00,   -4.000000e+00
    1097,    0.000000e+00,    2.352941e-01,   -4.000000e+00
    1098,    0.000000e+00,    4.843137e+00,   -4.000000e+00
    1099,    0.000000e+00,    8.562092e+00,   -4.000000e+00
    1100,    0.000000e+00,    1.228105e+01,   -4.000000e+00
    1101,    8.000000e+00,   -5.000000e+01,    2.020667e-15
    1102,    8.000000e+00,   -4.615385e+01,    1.785158e-15
    1103,    8.000000e+00,   -4.230769e+01,    1.549649e-15
    1104,    8.000000e+00,   -3.846154e+01,    1.314140e-15
    1105,    8.000000e+00,   -3.461538e+01,    1.078631e-15
    1106,    8.000000e+00,   -3.076923e+01,    8.431222e-16
    1107,    8.000000e+00,   -2.692308e+01,    6.076132e-16
    1108,    8.000000e+00,   -2.307692e+01,    3.721042e-16
    1109,    8.000000e+00,   -1.923077e+01,    1.365952e-16
    1110,    8.000000e+00,   -1.538462e+01,   -9.891378e-17
    1111,    8.000000e+00,   -1.153846e+01,   -3.344228e-16
    1112,    8.000000e+00,   -7.692308e+00,   -5.699318e-16
    1113,    8.000000e+00,   -3.846154e+00,   -8.054408e-16
    1114,    4.000000e+00,   -5.000000e+01,   -6.928203e+00
    1115,    6.928203e+00,   -5.000000e+01,   -4.000000e+00
    1116,    4.000000e+00,   -3.846154e+00,   -6.928203e+00
    1117,    6.928203e+00,   -3.846154e+00,   -4.000000e+00
    1118,    4.000000e+00,   -7.692308e+00,   -6.928203e+00
    1119,    6.928203e+00,   -7.692308e+00,   -4.000000e+00
    1120,    4.000000e+00,   -1.153846e+01,   -6.928203e+00
    1121,    6.928203e+00,   -1.153846e+01,   -4.000000e+00
    1122,    4.000000e+00,   -1.538462e+01,   -6.928203e+00
    1123,    6.928203e+00,   -1.538462e+01,   -4.000000e+00
    1124,    4.000000e+00,   -1.923077e+01,   -6.928203e+00
    1125,    6.928203e+00,   -1.923077e+01,   -4.000000e+00
    1126,    4.000000e+00,   -2.307692e+01,   -6.928203e+00
    1127,    6.928203e+00,   -2.307692e+01,   -4.000000e+00
    1128,    4.000000e+00,   -2.692308e+01,   -6.928203e+00
    1129,    6.928203e+00,   -2.692308e+01,   -4.000000e+00
    1130,    4.000000e+00,   -3.076923e+01,   -6.928203e+00
    1131,    6.928203e+00,   -3.076923e+01,   -4.000000e+00
    1132,    4.000000e+00,   -3.461538e+01,   -6.928203e+00
    1133,    6.928203e+00,   -3.461538e+01,   -4.000000e+00
    1134,    4.000000e+00,   -3.846154e+01,   -6.928203e+00
    1135,    6.928203e+00,   -3.846154e+01,   -4.000000e+00
    1136,    4.000000e+00,   -4.230769e+01,   -6.928203e+00
    1137,    6.928203e+00,   -4.230769e+01,   -4.000000e+00
    1138,    4.000000e+00,   -4.615385e+01,   -6.928203e+00
    1139,    6.928203e+00,   -4.615385e+01,   -4.000000e+00
    1140,    2.666667e+00,   -5.000000e+01,    0.000000e+00
    1141,    5.333333e+00,   -5.000000e+01,    0.000000e+00
    1142,    2.666667e+00,    1.222658e+01,    0.000000e+00
    1143,    2.666667e+00,    8.453159e+00,    0.000000e+00
    1144,    2.666667e+00,    4.679739e+00,    0.000000e+00
    1145,    2.666667e+00,    3.137255e-01,    0.000000e+00
    1146,    2.666667e+00,   -3.556561e+00,    0.000000e+00
    1147,    2.666667e+00,   -7.426848e+00,    0.000000e+00
    1148,    2.666667e+00,   -1.129713e+01,    0.000000e+00
    1149,    2.666667e+00,   -1.516742e+01,    0.000000e+00
    1150,    2.666667e+00,   -1.903771e+01,    0.000000e+00
    1151,    2.666667e+00,   -2.290799e+01,    0.000000e+00
    1152,    2.666667e+00,   -2.677828e+01,    0.000000e+00
    1153,    2.666667e+00,   -3.064857e+01,    0.000000e+00
    1154,    2.666667e+00,   -3.451885e+01,    0.000000e+00
    1155,    2.666667e+00,   -3.838914e+01,    0.000000e+00
    1156,    2.666667e+00,   -4.225943e+01,    0.000000e+00
    1157,    2.666667e+00,   -4.612971e+01,    0.000000e+00
    1158,    5.333333e+00,    1.233551e+01,    0.000000e+00
    1159,    5.333333e+00,    8.671024e+00,    0.000000e+00
    1160,    5.333333e+00,    5.006536e+00,    0.000000e+00
    1161,    5.333333e+00,    1.568627e-01,    0.000000e+00
    1162,    5.333333e+00,   -3.701357e+00,    0.000000e+00
    1163,    5.333333e+00,   -7.559578e+00,    0.000000e+00
    1164,    5.333333e+00,   -1.141780e+01,    0.000000e+00
    1165,    5.333333e+00,   -1.527602e+01,    0.000000e+00
    1166,    5.333333e+00,   -1.913424e+01,    0.000000e+00
    1167,    5.333333e+00,   -2.299246e+01,    0.000000e+00
    1168,    5.333333e+00,   -2.685068e+01,    0.000000e+00
    1169,    5.333333e+00,   -3.070890e+01,    0.000000e+00
    1170,    5.333333e+00,   -3.456712e+01,    0.000000e+00
    1171,    5.333333e+00,   -3.842534e+01,    0.000000e+00
    1172,    5.333333e+00,   -4.228356e+01,    0.000000e+00
    1173,    5.333333e+00,   -4.614178e+01,    0.000000e+00
    1174,    2.829203e+00,    1.233717e+01,   -3.243589e+00
    1175,    5.026854e+00,    1.237978e+01,   -2.413361e+00
    1176,    2.829203e+00,    8.663715e+00,   -3.243589e+00
    1177,    5.026854e+00,    8.750145e+00,   -2.413361e+00
    1178,    2.829203e+00,    4.995572e+00,   -3.243589e+00
    1179,    5.026854e+00,    5.125218e+00,   -2.413361e+00
    1180,    2.829203e+00,    1.621253e-01,   -3.243589e+00
    1181,    5.026854e+00,    9.989524e-02,   -2.413361e+00
    1182,    2.829203e+00,   -3.703567e+00,   -3.243589e+00
    1183,    5.026854e+00,   -3.760201e+00,   -2.413361e+00
    1184,    2.829203e+00,   -7.561603e+00,   -3.243589e+00
    1185,    5.026854e+00,   -7.613518e+00,   -2.413361e+00
    1186,    2.829203e+00,   -1.141964e+01,   -3.243589e+00
    1187,    5.026854e+00,   -1.146683e+01,   -2.413361e+00
    1188,    2.829203e+00,   -1.527768e+01,   -3.243589e+00
    1189,    5.026854e+00,   -1.532015e+01,   -2.413361e+00
    1190,    2.829203e+00,   -1.913571e+01,   -3.243589e+00
    1191,    5.026854e+00,   -1.917347e+01,   -2.413361e+00
    1192,    2.829203e+00,   -2.299375e+01,   -3.243589e+00
    1193,    5.026854e+00,   -2.302678e+01,   -2.413361e+00
    1194,    2.829203e+00,   -2.685178e+01,   -3.243589e+00
    1195,    5.026854e+00,   -2.688010e+01,   -2.413361e+00
    1196,    2.829203e+00,   -3.070982e+01,   -3.243589e+00
    1197,    5.026854e+00,   -3.073342e+01,   -2.413361e+00
    1198,    2.829203e+00,   -3.456786e+01,   -3.243589e+00
    1199,    5.026854e+00,   -3.458673e+01,   -2.413361e+00
    1200,    2.829203e+00,   -3.842589e+01,   -3.243589e+00
    1201,    5.026854e+00,   -3.844005e+01,   -2.413361e+00
    1202,    2.829203e+00,   -4.228393e+01,   -3.243589e+00
    1203,    5.026854e+00,   -4.229337e+01,   -2.413361e+00
    1204,    2.829203e+00,   -4.614196e+01,   -3.243589e+00
    1205,    5.026854e+00,   -4.614668e+01,   -2.413361e+00
    1206,    2.829203e+00,   -5.000000e+01,   -3.243589e+00
    1207,    5.026854e+00,   -5.000000e+01,   -2.413361e+00
    1208,    0.000000e+00,    5.333333e+00,   -3.200000e+01
    1209,    0.000000e+00,    5.333333e+00,   -2.800000e+01
    1210,    0.000000e+00,    5.333333e+00,   -2.400000e+01
    1211,    0.000000e+00,    5.333333e+00,   -2.000000e+01
    1212,    0.000000e+00,    5.333333e+00,   -1.600000e+01
    1213,    0.000000e+00,    5.333333e+00,   -1.200000e+01
    1214,    3.200000e+01,    5.333333e+00,    0.000000e+00
    1215,    2.800000e+01,    5.333333e+00,    0.000000e+00
    1216,    2.400000e+01,    5.333333e+00,    0.000000e+00
    1217,    2.000000e+01,    5.333333e+00,    0.000000e+00
    1218,    1.600000e+01,    5.333333e+00,    0.000000e+00
    1219,    1.200000e+01,    5.333333e+00,    0.000000e+00
    1220,    3.200000e+01,    5.333333e+00,   -3.200000e+01
    1221,    3.200000e+01,    5.333333e+00,   -2.844444e+01
    1222,    3.200000e+01,    5.333333e+00,   -2.488889e+01
    1223,    3.200000e+01,    5.333333e+00,   -2.133333e+01
    1224,    3.200000e+01,    5.333333e+00,   -1.777778e+01
    1225,    3.200000e+01,    5.333333e+00,   -1.422222e+01
    1226,    3.200000e+01,    5.333333e+00,   -1.066667e+01
    1227,    3.200000e+01,    5.333333e+00,   -7.111111e+00
    1228,    3.200000e+01,    5.333333e+00,   -3.555556e+00
    1229,    4.000000e+00,    5.333333e+00,   -3.200000e+01
    1230,    8.000000e+00,    5.333333e+00,   -3.200000e+01
    1231,    1.200000e+01,    5.333333e+00,   -3.200000e+01
    1232,    1.600000e+01,    5.333333e+00,   -3.200000e+01
    1233,    2.000000e+01,    5.333333e+00,   -3.200000e+01
    1234,    2.400000e+01,    5.333333e+00,   -3.200000e+01
    1235,    2.800000e+01,    5.333333e+00,   -3.200000e+01
    1236,    2.812003e+01,    5.333333e+00,   -3.414845e+00
    1237,    2.797864e+01,    5.333333e+00,   -6.754863e+00
    1238,    2.762910e+01,    5.333333e+00,   -1.020751e+01
    1239,    2.731317e+01,    5.333333e+00,   -1.384184e+01
    1240,    2.762424e+01,    5.333333e+00,   -1.759450e+01
    1241,    2.791641e+01,    5.333333e+00,   -2.121915e+01
    1242,    2.802649e+01,    5.333333e+00,   -2.481971e+01
    1243,    2.803102e+01,    5.333333e+00,   -2.841462e+01
    1244,    4.074691e+00,    5.333333e+00,   -2.807655e+01
    1245,    4.204790e+00,    5.333333e+00,   -2.411931e+01
    1246,    4.494764e+00,    5.333333e+00,   -2.007880e+01
    1247,    5.258743e+00,    5.333333e+00,   -1.591285e+01
    1248,    6.604932e+00,    5.333333e+00,   -1.086153e+01
    1249,    1.187342e+01,    5.333333e+00,   -5.738712e+00
    1250,    1.720166e+01,    5.333333e+00,   -4.149378e+00
    1251,    2.083400e+01,    5.333333e+00,   -3.187386e+00
    1252,    2.430850e+01,    5.333333e+00,   -3.213687e+00
    1253,    2.406667e+01,    5.333333e+00,   -2.843076e+01
    1254,    2.008566e+01,    5.333333e+00,   -2.850775e+01
    1255,    1.610483e+01,    5.333333e+00,   -2.851623e+01
    1256,    1.212834e+01,    5.333333e+00,   -2.838958e+01
    1257,    8.124210e+00,    5.333333e+00,   -2.821898e+01
    1258,    2.425294e+01,    5.333333e+00,   -6.270300e+00
    1259,    2.318170e+01,    5.333333e+00,   -9.374250e+00
    1260,    2.130020e+01,    5.333333e+00,   -1.325280e+01
    1261,    2.296177e+01,    5.333333e+00,   -1.759617e+01
    1262,    2.367202e+01,    5.333333e+00,   -2.133115e+01
    1263,    2.400709e+01,    5.333333e+00,   -2.490508e+01
    1264,    1.998169e+01,    5.333333e+00,   -2.506174e+01
    1265,    1.615924e+01,    5.333333e+00,   -2.512063e+01
    1266,    1.232558e+01,    5.333333e+00,   -2.481764e+01
    1267,    8.342438e+00,    5.333333e+00,   -2.443121e+01
    1268,    8.974009e+00,    5.333333e+00,   -2.067915e+01
    1269,    1.010391e+01,    5.333333e+00,   -1.687424e+01
    1270,    1.250144e+01,    5.333333e+00,   -1.314404e+01
    1271,    1.629642e+01,    5.333333e+00,   -9.961566e+00
    1272,    2.157232e+01,    5.333333e+00,   -5.658829e+00
    1273,    1.957326e+01,    5.333333e+00,   -7.453734e+00
    1274,    1.969011e+01,    5.333333e+00,   -2.169171e+01
    1275,    1.291311e+01,    5.333333e+00,   -2.142747e+01
    1276,    1.397717e+01,    5.333333e+00,   -1.825778e+01
    1277,    1.660092e+01,    5.333333e+00,   -1.559855e+01
    1278,    1.892839e+01,    5.333333e+00,   -1.842924e+01
    1279,    1.622813e+01,    5.333333e+00,   -2.198711e+01
    1280,    1.637790e+01,    5.333333e+00,   -1.955804e+01
    1281,    0.000000e+00,    1.600000e+01,   -3.200000e+01
    1282,    0.000000e+00,    1.600000e+01,   -2.800000e+01
    1283,    0.000000e+00,    1.600000e+01,   -2.400000e+01
    1284,    0.000000e+00,    1.600000e+01,   -2.000000e+01
    1285,    0.000000e+00,    1.600000e+01,   -1.600000e+01
    1286,    0.000000e+00,    1.600000e+01,   -1.200000e+01
    1287,    0.000000e+00,    8.888889e+00,   -3.200000e+01
    1288,    0.000000e+00,    1.244444e+01,   -3.200000e+01
    1289,    0.000000e+00,    8.888889e+00,   -1.200000e+01
    1290,    0.000000e+00,    1.244444e+01,   -1.200000e+01
    1291,    0.000000e+00,    8.888889e+00,   -1.600000e+01
    1292,    0.000000e+00,    1.244444e+01,   -1.600000e+01
    1293,    0.000000e+00,    8.888889e+00,   -2.000000e+01
    1294,    0.000000e+00,    1.244444e+01,   -2.000000e+01
    1295,    0.000000e+00,    8.888889e+00,   -2.400000e+01
    1296,    0.000000e+00,    1.244444e+01,   -2.400000e+01
    1297,    0.000000e+00,    8.888889e+00,   -2.800000e+01
    1298,    0.000000e+00,    1.244444e+01,   -2.800000e+01
    1299,    3.200000e+01,    1.600000e+01,   -3.200000e+01
    1300,    4.000000e+00,    1.600000e+01,   -3.200000e+01
    1301,    8.000000e+00,    1.600000e+01,   -3.200000e+01
    1302,    1.200000e+01,    1.600000e+01,   -3.200000e+01
    1303,    1.600000e+01,    1.600000e+01,   -3.200000e+01
    1304,    2.000000e+01,    1.600000e+01,   -3.200000e+01
    1305,    2.400000e+01,    1.600000e+01,   -3.200000e+01
    1306,    2.800000e+01,    1.600000e+01,   -3.200000e+01
    1307,    3.200000e+01,    1.244444e+01,   -3.200000e+01
    1308,    3.200000e+01,    8.888889e+00,   -3.200000e+01
    1309,    4.000000e+00,    8.888889e+00,   -3.200000e+01
    1310,    4.000000e+00,    1.244444e+01,   -3.200000e+01
    1311,    8.000000e+00,    8.888889e+00,   -3.200000e+01
    1312,    8.000000e+00,    1.244444e+01,   -3.200000e+01
    1313,    1.200000e+01,    8.888889e+00,   -3.200000e+01
    1314,    1.200000e+01,    1.244444e+01,   -3.200000e+01
    1315,    1.600000e+01,    8.888889e+00,   -3.200000e+01
    1316,    1.600000e+01,    1.244444e+01,   -3.200000e+01
    1317,    2.000000e+01,    8.888889e+00,   -3.200000e+01
    1318,    2.000000e+01,    1.244444e+01,   -3.200000e+01
    1319,    2.400000e+01,    8.888889e+00,   -3.200000e+01
    1320,    2.400000e+01,    1.244444e+01,   -3.200000e+01
    1321,    2.800000e+01,    8.888889e+00,   -3.200000e+01
    1322,    2.800000e+01,    1.244444e+01,   -3.200000e+01
    1323,    3.200000e+01,    1.600000e+01,    0.000000e+00
    1324,    3.200000e+01,    8.888889e+00,    0.000000e+00
    1325,    3.200000e+01,    1.244444e+01,    0.000000e+00
    1326,    2.800000e+01,    1.600000e+01,    0.000000e+00
    1327,    2.400000e+01,    1.600000e+01,    0.000000e+00
    1328,    2.000000e+01,    1.600000e+01,    0.000000e+00
    1329,    1.600000e+01,    1.600000e+01,    0.000000e+00
    1330,    1.200000e+01,    1.600000e+01,    0.000000e+00
    1331,    1.200000e+01,    8.888889e+00,    0.000000e+00
    1332,    1.600000e+01,    8.888889e+00,    0.000000e+00
    1333,    2.000000e+01,    8.888889e+00,    0.000000e+00
    1334,    2.400000e+01,    8.888889e+00,    0.000000e+00
    1335,    2.800000e+01,    8.888889e+00,    0.000000e+00
    1336,    1.200000e+01,    1.244444e+01,    0.000000e+00
    1337,    1.600000e+01,    1.244444e+01,    0.000000e+00
    1338,    2.000000e+01,    1.244444e+01,    0.000000e+00
    1339,    2.400000e+01,    1.244444e+01,    0.000000e+00
    1340,    2.800000e+01,    1.244444e+01,    0.000000e+00
    1341,    3.200000e+01,    1.600000e+01,   -3.555556e+00
    1342,    3.200000e+01,    1.600000e+01,   -7.111111e+00
    1343,    3.200000e+01,    1.600000e+01,   -1.066667e+01
    1344,    3.200000e+01,    1.600000e+01,   -1.422222e+01
    1345,    3.200000e+01,    1.600000e+01,   -1.777778e+01
    1346,    3.200000e+01,    1.600000e+01,   -2.133333e+01
    1347,    3.200000e+01,    1.600000e+01,   -2.488889e+01
    1348,    3.200000e+01,    1.600000e+01,   -2.844444e+01
    1349,    3.200000e+01,    1.244444e+01,   -3.555556e+00
    1350,    3.200000e+01,    8.888889e+00,   -3.555556e+00
    1351,    3.200000e+01,    1.244444e+01,   -7.111111e+00
    1352,    3.200000e+01,    8.888889e+00,   -7.111111e+00
    1353,    3.200000e+01,    1.244444e+01,   -1.066667e+01
    1354,    3.200000e+01,    8.888889e+00,   -1.066667e+01
    1355,    3.200000e+01,    1.244444e+01,   -1.422222e+01
    1356,    3.200000e+01,    8.888889e+00,   -1.422222e+01
    1357,    3.200000e+01,    1.244444e+01,   -1.777778e+01
    1358,    3.200000e+01,    8.888889e+00,   -1.777778e+01
    1359,    3.200000e+01,    1.244444e+01,   -2.133333e+01
    1360,    3.200000e+01,    8.888889e+00,   -2.133333e+01
    1361,    3.200000e+01,    1.244444e+01,   -2.488889e+01
    1362,    3.200000e+01,    8.888889e+00,   -2.488889e+01
    1363,    3.200000e+01,    1.244444e+01,   -2.844444e+01
    1364,    3.200000e+01,    8.888889e+00,   -2.844444e+01
    1365,    2.812003e+01,    8.888889e+00,   -3.414845e+00
    1366,    2.797864e+01,    8.888889e+00,   -6.754863e+00
    1367,    2.762910e+01,    8.888889e+00,   -1.020751e+01
    1368,    2.731317e+01,    8.888889e+00,   -1.384184e+01
    1369,    2.762424e+01,    8.888889e+00,   -1.759450e+01
    1370,    2.791641e+01,    8.888889e+00,   -2.121915e+01
    1371,    2.802649e+01,    8.888889e+00,   -2.481971e+01
    1372,    2.803102e+01,    8.888889e+00,   -2.841462e+01
    1373,    4.074691e+00,    8.888889e+00,   -2.807655e+01
    1374,    4.204790e+00,    8.888889e+00,   -2.411931e+01
    1375,    4.494764e+00,    8.888889e+00,   -2.007880e+01
    1376,    5.258743e+00,    8.888889e+00,   -1.591285e+01
    1377,    6.604932e+00,    8.888889e+00,   -1.086153e+01
    1378,    1.187342e+01,    8.888889e+00,   -5.738712e+00
    1379,    1.720166e+01,    8.888889e+00,   -4.149378e+00
    1380,    2.083400e+01,    8.888889e+00,   -3.187386e+00
    1381,    2.430850e+01,    8.888889e+00,   -3.213687e+00
    1382,    2.406667e+01,    8.888889e+00,   -2.843076e+01
    1383,    2.008566e+01,    8.888889e+00,   -2.850775e+01
    1384,    1.610483e+01,    8.888889e+00,   -2.851623e+01
    1385,    1.212834e+01,    8.888889e+00,   -2.838958e+01
    1386,    8.124210e+00,    8.888889e+00,   -2.821898e+01
    1387,    2.425294e+01,    8.888889e+00,   -6.270300e+00
    1388,    2.318170e+01,    8.888889e+00,   -9.374250e+00
    1389,    2.130020e+01,    8.888889e+00,   -1.325280e+01
    1390,    2.296177e+01,    8.888889e+00,   -1.759617e+01
    1391,    2.367202e+01,    8.888889e+00,   -2.133115e+01
    1392,    2.400709e+01,    8.888889e+00,   -2.490508e+01
    1393,    1.998169e+01,    8.888889e+00,   -2.506174e+01
    1394,    1.615924e+01,    8.888889e+00,   -2.512063e+01
    1395,    1.232558e+01,    8.888889e+00,   -2.481764e+01
    1396,    8.342438e+00,    8.888889e+00,   -2.443121e+01
    1397,    8.974009e+00,    8.888889e+00,   -2.067915e+01
    1398,    1.010391e+01,    8.888889e+00,   -1.687424e+01
    1399,    1.250144e+01,    8.888889e+00,   -1.314404e+01
    1400,    1.629642e+01,    8.888889e+00,   -9.961566e+00
    1401,    1.957326e+01,    8.888889e+00,   -7.453734e+00
    1402,    2.157232e+01,    8.888889e+00,   -5.658829e+00
    1403,    1.892839e+01,    8.888889e+00,   -1.842924e+01
    1404,    1.969011e+01,    8.888889e+00,   -2.169171e+01
    1405,    1.291311e+01,    8.888889e+00,   -2.142747e+01
    1406,    1.397717e+01,    8.888889e+00,   -1.825778e+01
    1407,    1.660092e+01,    8.888889e+00,   -1.559855e+01
    1408,    1.622813e+01,    8.888889e+00,   -2.198711e+01
    1409,    1.637790e+01,    8.888889e+00,   -1.955804e+01
    1410,    2.812003e+01,    1.244444e+01,   -3.414845e+00
    1411,    2.797864e+01,    1.244444e+01,   -6.754863e+00
    1412,    2.762910e+01,    1.244444e+01,   -1.020751e+01
    1413,    2.731317e+01,    1.244444e+01,   -1.384184e+01
    1414,    2.762424e+01,    1.244444e+01,   -1.759450e+01
    1415,    2.791641e+01,    1.244444e+01,   -2.121915e+01
    1416,    2.802649e+01,    1.244444e+01,   -2.481971e+01
    1417,    2.803102e+01,    1.244444e+01,   -2.841462e+01
    1418,    4.074691e+00,    1.244444e+01,   -2.807655e+01
    1419,    4.204790e+00,    1.244444e+01,   -2.411931e+01
    1420,    4.494764e+00,    1.244444e+01,   -2.007880e+01
    1421,    5.258743e+00,    1.244444e+01,   -1.591285e+01
    1422,    6.604932e+00,    1.244444e+01,   -1.086153e+01
    1423,    1.187342e+01,    1.244444e+01,   -5.738712e+00
    1424,    1.720166e+01,    1.244444e+01,   -4.149378e+00
    1425,    2.083400e+01,    1.244444e+01,   -3.187386e+00
    1426,    2.430850e+01,    1.244444e+01,   -3.213687e+00
    1427,    2.406667e+01,    1.244444e+01,   -2.843076e+01
    1428,    2.008566e+01,    1.244444e+01,   -2.850775e+01
    1429,    1.610483e+01,    1.244444e+01,   -2.851623e+01
    1430,    1.212834e+01,    1.244444e+01,   -2.838958e+01
    1431,    8.124210e+00,    1.244444e+01,   -2.821898e+01
    1432,    2.425294e+01,    1.244444e+01,   -6.270300e+00
    1433,    2.318170e+01,    1.244444e+01,   -9.374250e+00
    1434,    2.130020e+01,    1.244444e+01,   -1.325280e+01
    1435,    2.296177e+01,    1.244444e+01,   -1.759617e+01
    1436,    2.367202e+01,    1.244444e+01,   -2.133115e+01
    1437,    2.400709e+01,    1.244444e+01,   -2.490508e+01
    1438,    1.998169e+01,    1.244444e+01,   -2.506174e+01
    1439,    1.615924e+01,    1.244444e+01,   -2.512063e+01
    1440,    1.232558e+01,    1.244444e+01,   -2.481764e+01
    1441,    8.342438e+00,    1.244444e+01,   -2.443121e+01
    1442,    8.974009e+00,    1.244444e+01,   -2.067915e+01
    1443,    1.010391e+01,    1.244444e+01,   -1.687424e+01
    1444,    1.250144e+01,    1.244444e+01,   -1.314404e+01
    1445,    1.629642e+01,    1.244444e+01,   -9.961566e+00
    1446,    1.957326e+01,    1.244444e+01,   -7.453734e+00
    1447,    2.157232e+01,    1.244444e+01,   -5.658829e+00
    1448,    1.892839e+01,    1.244444e+01,   -1.842924e+01
    1449,    1.969011e+01,    1.244444e+01,   -2.169171e+01
    1450,    1.291311e+01,    1.244444e+01,   -2.142747e+01
    1451,    1.397717e+01,    1.244444e+01,   -1.825778e+01
    1452,    1.660092e+01,    1.244444e+01,   -1.559855e+01
    1453,    1.622813e+01,    1.244444e+01,   -2.198711e+01
    1454,    1.637790e+01,    1.244444e+01,   -1.955804e+01
    1455,    2.812003e+01,    1.600000e+01,   -3.414845e+00
    1456,    2.797864e+01,    1.600000e+01,   -6.754863e+00
    1457,    2.762910e+01,    1.600000e+01,   -1.020751e+01
    1458,    2.731317e+01,    1.600000e+01,   -1.384184e+01
    1459,    2.762424e+01,    1.600000e+01,   -1.759450e+01
    1460,    2.791641e+01,    1.600000e+01,   -2.121915e+01
    1461,    2.802649e+01,    1.600000e+01,   -2.481971e+01
    1462,    2.803102e+01,    1.600000e+01,   -2.841462e+01
    1463,    4.074691e+00,    1.600000e+01,   -2.807655e+01
    1464,    4.204790e+00,    1.600000e+01,   -2.411931e+01
    1465,    4.494764e+00,    1.600000e+01,   -2.007880e+01
    1466,    5.258743e+00,    1.600000e+01,   -1.591285e+01
    1467,    6.604932e+00,    1.600000e+01,   -1.086153e+01
    1468,    1.187342e+01,    1.600000e+01,   -5.738712e+00
    1469,    1.720166e+01,    1.600000e+01,   -4.149378e+00
    1470,    2.083400e+01,    1.600000e+01,   -3.187386e+00
    1471,    2.430850e+01,    1.600000e+01,   -3.213687e+00
    1472,    2.406667e+01,    1.600000e+01,   -2.843076e+01
    1473,    2.008566e+01,    1.600000e+01,   -2.850775e+01
    1474,    1.610483e+01,    1.600000e+01,   -2.851623e+01
    1475,    1.212834e+01,    1.600000e+01,   -2.838958e+01
    1476,    8.124210e+00,    1.600000e+01,   -2.821898e+01
    1477,    2.425294e+01,    1.600000e+01,   -6.270300e+00
    1478,    2.318170e+01,    1.600000e+01,   -9.374250e+00
    1479,    2.130020e+01,    1.600000e+01,   -1.325280e+01
    1480,    2.296177e+01,    1.600000e+01,   -1.759617e+01
    1481,    2.367202e+01,    1.600000e+01,   -2.133115e+01
    1482,    2.400709e+01,    1.600000e+01,   -2.490508e+01
    1483,    1.998169e+01,    1.600000e+01,   -2.506174e+01
    1484,    1.615924e+01,    1.600000e+01,   -2.512063e+01
    1485,    1.232558e+01,    1.600000e+01,   -2.481764e+01
    1486,    8.342438e+00,    1.600000e+01,   -2.443121e+01
    1487,    8.974009e+00,    1.600000e+01,   -2.067915e+01
    1488,    1.010391e+01,    1.600000e+01,   -1.687424e+01
    1489,    1.250144e+01,    1.600000e+01,   -1.314404e+01
    1490,    1.629642e+01,    1.600000e+01,   -9.961566e+00
    1491,    1.957326e+01,    1.600000e+01,   -7.453734e+00
    1492,    2.157232e+01,    1.600000e+01,   -5.658829e+00
    1493,    1.892839e+01,    1.600000e+01,   -1.842924e+01
    1494,    1.969011e+01,    1.600000e+01,   -2.169171e+01
    1495,    1.291311e+01,    1.600000e+01,   -2.142747e+01
    1496,    1.397717e+01,    1.600000e+01,   -1.825778e+01
    1497,    1.660092e+01,    1.600000e+01,   -1.559855e+01
    1498,    1.622813e+01,    1.600000e+01,   -2.198711e+01
    1499,    1.637790e+01,    1.600000e+01,   -1.955804e+01
    1500,    0.000000e+00,    0.000000e+00,   -3.200000e+01
    1501,    0.000000e+00,    0.000000e+00,   -1.200000e+01
    1502,    0.000000e+00,    0.000000e+00,   -1.600000e+01
    1503,    0.000000e+00,    0.000000e+00,   -2.000000e+01
    1504,    0.000000e+00,    0.000000e+00,   -2.400000e+01
    1505,    0.000000e+00,    0.000000e+00,   -2.800000e+01
    1506,    3.200000e+01,    0.000000e+00,   -3.200000e+01
    1507,    2.800000e+01,    0.000000e+00,   -3.200000e+01
    1508,    2.400000e+01,    0.000000e+00,   -3.200000e+01
    1509,    2.000000e+01,    0.000000e+00,   -3.200000e+01
    1510,    1.600000e+01,    0.000000e+00,   -3.200000e+01
    1511,    1.200000e+01,    0.000000e+00,   -3.200000e+01
    1512,    8.000000e+00,    0.000000e+00,   -3.200000e+01
    1513,    4.000000e+00,    0.000000e+00,   -3.200000e+01
    1514,    3.200000e+01,    0.000000e+00,    0.000000e+00
    1515,    1.200000e+01,    0.000000e+00,    0.000000e+00
    1516,    1.600000e+01,    0.000000e+00,    0.000000e+00
    1517,    2.000000e+01,    0.000000e+00,    0.000000e+00
    1518,    2.400000e+01,    0.000000e+00,    0.000000e+00
    1519,    2.800000e+01,    0.000000e+00,    0.000000e+00
    1520,    3.200000e+01,    0.000000e+00,   -3.555556e+00
    1521,    3.200000e+01,    0.000000e+00,   -7.111111e+00
    1522,    3.200000e+01,    0.000000e+00,   -1.066667e+01
    1523,    3.200000e+01,    0.000000e+00,   -1.422222e+01
    1524,    3.200000e+01,    0.000000e+00,   -1.777778e+01
    1525,    3.200000e+01,    0.000000e+00,   -2.133333e+01
    1526,    3.200000e+01,    0.000000e+00,   -2.488889e+01
    1527,    3.200000e+01,    0.000000e+00,   -2.844444e+01
    1528,    2.812003e+01,    0.000000e+00,   -3.414845e+00
    1529,    2.797864e+01,    0.000000e+00,   -6.754863e+00
    1530,    2.762910e+01,    0.000000e+00,   -1.020751e+01
    1531,    2.731317e+01,    0.000000e+00,   -1.384184e+01
    1532,    2.762424e+01,    0.000000e+00,   -1.759450e+01
    1533,    2.791641e+01,    0.000000e+00,   -2.121915e+01
    1534,    2.802649e+01,    0.000000e+00,   -2.481971e+01
    1535,    2.803102e+01,    0.000000e+00,   -2.841462e+01
    1536,    4.074691e+00,    0.000000e+00,   -2.807655e+01
    1537,    4.204790e+00,    0.000000e+00,   -2.411931e+01
    1538,    4.494764e+00,    0.000000e+00,   -2.007880e+01
    1539,    5.258743e+00,    0.000000e+00,   -1.591285e+01
    1540,    6.604932e+00,    0.000000e+00,   -1.086153e+01
    1541,    1.187342e+01,    0.000000e+00,   -5.738712e+00
    1542,    1.720166e+01,    0.000000e+00,   -4.149378e+00
    1543,    2.083400e+01,    0.000000e+00,   -3.187386e+00
    1544,    2.430850e+01,    0.000000e+00,   -3.213687e+00
    1545,    2.406667e+01,    0.000000e+00,   -2.843076e+01
    1546,    2.008566e+01,    0.000000e+00,   -2.850775e+01
    1547,    1.610483e+01,    0.000000e+00,   -2.851623e+01
    1548,    1.212834e+01,    0.000000e+00,   -2.838958e+01
    1549,    8.124210e+00,    0.000000e+00,   -2.821898e+01
    1550,    2.425294e+01,    0.000000e+00,   -6.270300e+00
    1551,    2.318170e+01,    0.000000e+00,   -9.374250e+00
    1552,    2.130020e+01,    0.000000e+00,   -1.325280e+01
    1553,    2.296177e+01,    0.000000e+00,   -1.759617e+01
    1554,    2.367202e+01,    0.000000e+00,   -2.133115e+01
    1555,    2.400709e+01,    0.000000e+00,   -2.490508e+01
    1556,    1.998169e+01,    0.000000e+00,   -2.506174e+01
    1557,    1.615924e+01,    0.000000e+00,   -2.512063e+01
    1558,    1.232558e+01,    0.000000e+00,   -2.481764e+01
    1559,    8.342438e+00,    0.000000e+00,   -2.443121e+01
    1560,    8.974009e+00,    0.000000e+00,   -2.067915e+01
    1561,    1.010391e+01,    0.000000e+00,   -1.687424e+01
    1562,    1.250144e+01,    0.000000e+00,   -1.314404e+01
    1563,    1.629642e+01,    0.000000e+00,   -9.961566e+00
    1564,    1.957326e+01,    0.000000e+00,   -7.453734e+00
    1565,    2.157232e+01,    0.000000e+00,   -5.658829e+00
    1566,    1.969011e+01,    0.000000e+00,   -2.169171e+01
    1567,    1.892839e+01,    0.000000e+00,   -1.842924e+01
    1568,    1.291311e+01,    0.000000e+00,   -2.142747e+01
    1569,    1.397717e+01,    0.000000e+00,   -1.825778e+01
    1570,    1.660092e+01,    0.000000e+00,   -1.559855e+01
    1571,    1.622813e+01,    0.000000e+00,   -2.198711e+01
    1572,    1.637790e+01,    0.000000e+00,   -1.955804e+01
    2648,   -8.000000e+00,   -5.000000e+01,    0.000000e+00
    2649,   -5.333333e+00,   -5.000000e+01,    0.000000e+00
    2650,   -2.666667e+00,   -5.000000e+01,    0.000000e+00
    2651,   -6.928203e+00,   -5.000000e+01,   -4.000000e+00
    2652,   -4.000000e+00,   -5.000000e+01,   -6.928203e+00
    2653,   -5.026854e+00,   -5.000000e+01,   -2.413361e+00
    2654,   -2.829203e+00,   -5.000000e+01,   -3.243589e+00
    2655,   -8.000000e+00,    1.600000e+01,    0.000000e+00
    2656,   -4.000000e+00,    1.600000e+01,   -6.928203e+00
    2657,   -6.928203e+00,    1.600000e+01,   -4.000000e+00
    2658,   -8.000000e+00,    5.333333e+00,    1.143004e-15
    2659,   -8.000000e+00,    8.888889e+00,   -5.442875e-17
    2660,   -8.000000e+00,    1.244444e+01,   -2.721437e-16
    2661,   -4.000000e+00,    5.333333e+00,   -6.928203e+00
    2662,   -6.928203e+00,    5.333333e+00,   -4.000000e+00
    2663,   -4.000000e+00,    8.888889e+00,   -6.928203e+00
    2664,   -4.000000e+00,    1.244444e+01,   -6.928203e+00
    2665,   -6.928203e+00,    8.888889e+00,   -4.000000e+00
    2666,   -6.928203e+00,    1.244444e+01,   -4.000000e+00
    2667,   -8.000000e+00,    0.000000e+00,    0.000000e+00
    2668,   -4.000000e+00,    0.000000e+00,   -6.928203e+00
    2669,   -6.928203e+00,    0.000000e+00,   -4.000000e+00
    2670,   -2.666667e+00,    1.600000e+01,    0.000000e+00
    2671,   -5.333333e+00,    1.600000e+01,    0.000000e+00
    2672,   -8.000000e+00,   -3.846154e+00,   -8.054408e-16
    2673,   -8.000000e+00,   -7.692308e+00,   -5.699318e-16
    2674,   -8.000000e+00,   -1.153846e+01,   -3.344228e-16
    2675,   -8.000000e+00,   -1.538462e+01,   -9.891378e-17
    2676,   -8.000000e+00,   -1.923077e+01,    1.365952e-16
    2677,   -8.000000e+00,   -2.307692e+01,    3.721042e-16
    2678,   -8.000000e+00,   -2.692308e+01,    6.076132e-16
    2679,   -8.000000e+00,   -3.076923e+01,    8.431222e-16
    2680,   -8.000000e+00,   -3.461538e+01,    1.078631e-15
    2681,   -8.000000e+00,   -3.846154e+01,    1.314140e-15
    2682,   -8.000000e+00,   -4.230769e+01,    1.549649e-15
    2683,   -8.000000e+00,   -4.615385e+01,    1.785158e-15
    2684,   -2.666667e+00,   -4.612971e+01,    0.000000e+00
    2685,   -2.666667e+00,   -4.225943e+01,    0.000000e+00
    2686,   -2.666667e+00,   -3.838914e+01,    0.000000e+00
    2687,   -2.666667e+00,   -3.451885e+01,    0.000000e+00
    2688,   -2.666667e+00,   -3.064857e+01,    0.000000e+00
    2689,   -2.666667e+00,   -2.677828e+01,    0.000000e+00
    2690,   -2.666667e+00,   -2.290799e+01,    0.000000e+00
    2691,   -2.666667e+00,   -1.903771e+01,    0.000000e+00
    2692,   -2.666667e+00,   -1.516742e+01,    0.000000e+00
    2693,   -2.666667e+00,   -1.129713e+01,    0.000000e+00
    2694,   -2.666667e+00,   -7.426848e+00,    0.000000e+00
    2695,   -2.666667e+00,   -3.556561e+00,    0.000000e+00
    2696,   -2.666667e+00,    3.137255e-01,    0.000000e+00
    2697,   -2.666667e+00,    4.679739e+00,    0.000000e+00
    2698,   -2.666667e+00,    8.453159e+00,    0.000000e+00
    2699,   -2.666667e+00,    1.222658e+01,    0.000000e+00
    2700,   -5.333333e+00,   -4.614178e+01,    0.000000e+00
    2701,   -5.333333e+00,   -4.228356e+01,    0.000000e+00
    2702,   -5.333333e+00,   -3.842534e+01,    0.000000e+00
    2703,   -5.333333e+00,   -3.456712e+01,    0.000000e+00
    2704,   -5.333333e+00,   -3.070890e+01,    0.000000e+00
    2705,   -5.333333e+00,   -2.685068e+01,    0.000000e+00
    2706,   -5.333333e+00,   -2.299246e+01,    0.000000e+00
    2707,   -5.333333e+00,   -1.913424e+01,    0.000000e+00
    2708,   -5.333333e+00,   -1.527602e+01,    0.000000e+00
    2709,   -5.333333e+00,   -1.141780e+01,    0.000000e+00
    2710,   -5.333333e+00,   -7.559578e+00,    0.000000e+00
    2711,   -5.333333e+00,   -3.701357e+00,    0.000000e+00
    2712,   -5.333333e+00,    1.568627e-01,    0.000000e+00
    2713,   -5.333333e+00,    5.006536e+00,    0.000000e+00
    2714,   -5.333333e+00,    8.671024e+00,    0.000000e+00
    2715,   -5.333333e+00,    1.233551e+01,    0.000000e+00
    2716,   -6.928203e+00,   -3.846154e+00,   -4.000000e+00
    2717,   -4.000000e+00,   -3.846154e+00,   -6.928203e+00
    2718,   -6.928203e+00,   -7.692308e+00,   -4.000000e+00
    2719,   -4.000000e+00,   -7.692308e+00,   -6.928203e+00
    2720,   -6.928203e+00,   -1.153846e+01,   -4.000000e+00
    2721,   -4.000000e+00,   -1.153846e+01,   -6.928203e+00
    2722,   -6.928203e+00,   -1.538462e+01,   -4.000000e+00
    2723,   -4.000000e+00,   -1.538462e+01,   -6.928203e+00
    2724,   -6.928203e+00,   -1.923077e+01,   -4.000000e+00
    2725,   -4.000000e+00,   -1.923077e+01,   -6.928203e+00
    2726,   -6.928203e+00,   -2.307692e+01,   -4.000000e+00
    2727,   -4.000000e+00,   -2.307692e+01,   -6.928203e+00
    2728,   -6.928203e+00,   -2.692308e+01,   -4.000000e+00
    2729,   -4.000000e+00,   -2.692308e+01,   -6.928203e+00
    2730,   -6.928203e+00,   -3.076923e+01,   -4.000000e+00
    2731,   -4.000000e+00,   -3.076923e+01,   -6.928203e+00
    2732,   -6.928203e+00,   -3.461538e+01,   -4.000000e+00
    2733,   -4.000000e+00,   -3.461538e+01,   -6.928203e+00
    2734,   -6.928203e+00,   -3.846154e+01,   -4.000000e+00
    2735,   -4.000000e+00,   -3.846154e+01,   -6.928203e+00
    2736,   -6.928203e+00,   -4.230769e+01,   -4.000000e+00
    2737,   -4.000000e+00,   -4.230769e+01,   -6.928203e+00
    2738,   -6.928203e+00,   -4.615385e+01,   -4.000000e+00
    2739,   -4.000000e+00,   -4.615385e+01,   -6.928203e+00
    2740,   -2.829203e+00,   -4.614196e+01,   -3.243589e+00
    2741,   -5.026854e+00,   -4.614668e+01,   -2.413361e+00
    2742,   -2.829203e+00,   -4.228393e+01,   -3.243589e+00
    2743,   -5.026854e+00,   -4.229337e+01,   -2.413361e+00
    2744,   -2.829203e+00,   -3.842589e+01,   -3.243589e+00
    2745,   -5.026854e+00,   -3.844005e+01,   -2.413361e+00
    2746,   -2.829203e+00,   -3.456786e+01,   -3.243589e+00
    2747,   -5.026854e+00,   -3.458673e+01,   -2.413361e+00
    2748,   -2.829203e+00,   -3.070982e+01,   -3.243589e+00
    2749,   -5.026854e+00,   -3.073342e+01,   -2.413361e+00
    2750,   -2.829203e+00,   -2.685178e+01,   -3.243589e+00
    2751,   -5.026854e+00,   -2.688010e+01,   -2.413361e+00
    2752,   -2.829203e+00,   -2.299375e+01,   -3.243589e+00
    2753,   -5.026854e+00,   -2.302678e+01,   -2.413361e+00
    2754,   -2.829203e+00,   -1.913571e+01,   -3.243589e+00
    2755,   -5.026854e+00,   -1.917347e+01,   -2.413361e+00
    2756,   -2.829203e+00,   -1.527768e+01,   -3.243589e+00
    2757,   -5.026854e+00,   -1.532015e+01,   -2.413361e+00
    2758,   -2.829203e+00,   -1.141964e+01,   -3.243589e+00
    2759,   -5.026854e+00,   -1.146683e+01,   -2.413361e+00
    2760,   -2.829203e+00,   -7.561603e+00,   -3.243589e+00
    2761,   -5.026854e+00,   -7.613518e+00,   -2.413361e+00
    2762,   -2.829203e+00,   -3.703567e+00,   -3.243589e+00
    2763,   -5.026854e+00,   -3.760201e+00,   -2.413361e+00
    2764,   -2.829203e+00,    1.621253e-01,   -3.243589e+00
    2765,   -5.026854e+00,    9.989524e-02,   -2.413361e+00
    2766,   -2.829203e+00,    4.995572e+00,   -3.243589e+00
    2767,   -5.026854e+00,    5.125218e+00,   -2.413361e+00
    2768,   -2.829203e+00,    8.663715e+00,   -3.243589e+00
    2769,   -5.026854e+00,    8.750145e+00,   -2.413361e+00
    2770,   -2.829203e+00,    1.233717e+01,   -3.243589e+00
    2771,   -5.026854e+00,    1.237978e+01,   -2.413361e+00
    2772,   -2.829203e+00,    1.600000e+01,   -3.243589e+00
    2773,   -5.026854e+00,    1.600000e+01,   -2.413361e+00
    2774,   -3.200000e+01,    5.333333e+00,   -3.200000e+01
    2775,   -2.800000e+01,    5.333333e+00,   -3.200000e+01
    2776,   -2.400000e+01,    5.333333e+00,   -3.200000e+01
    2777,   -2.000000e+01,    5.333333e+00,   -3.200000e+01
    2778,   -1.600000e+01,    5.333333e+00,   -3.200000e+01
    2779,   -1.200000e+01,    5.333333e+00,   -3.200000e+01
    2780,   -8.000000e+00,    5.333333e+00,   -3.200000e+01
    2781,   -4.000000e+00,    5.333333e+00,   -3.200000e+01
    2782,   -3.200000e+01,    5.333333e+00,    0.000000e+00
    2783,   -3.200000e+01,    5.333333e+00,   -3.555556e+00
    2784,   -3.200000e+01,    5.333333e+00,   -7.111111e+00
    2785,   -3.200000e+01,    5.333333e+00,   -1.066667e+01
    2786,   -3.200000e+01,    5.333333e+00,   -1.422222e+01
    2787,   -3.200000e+01,    5.333333e+00,   -1.777778e+01
    2788,   -3.200000e+01,    5.333333e+00,   -2.133333e+01
    2789,   -3.200000e+01,    5.333333e+00,   -2.488889e+01
    2790,   -3.200000e+01,    5.333333e+00,   -2.844444e+01
    2791,   -1.200000e+01,    5.333333e+00,    0.000000e+00
    2792,   -1.600000e+01,    5.333333e+00,    0.000000e+00
    2793,   -2.000000e+01,    5.333333e+00,    0.000000e+00
    2794,   -2.400000e+01,    5.333333e+00,    0.000000e+00
    2795,   -2.800000e+01,    5.333333e+00,    0.000000e+00
    2796,   -2.810168e+01,    5.333333e+00,   -2.842024e+01
    2797,   -2.817692e+01,    5.333333e+00,   -2.486734e+01
    2798,   -2.824521e+01,    5.333333e+00,   -2.133006e+01
    2799,   -2.832324e+01,    5.333333e+00,   -1.779648e+01
    2800,   -2.837608e+01,    5.333333e+00,   -1.427497e+01
    2801,   -2.835621e+01,    5.333333e+00,   -1.075696e+01
    2802,   -2.824476e+01,    5.333333e+00,   -7.218385e+00
    2803,   -2.809699e+01,    5.333333e+00,   -3.623012e+00
    2804,   -6.115298e+00,    5.333333e+00,   -1.074548e+01
    2805,   -4.971915e+00,    5.333333e+00,   -1.583653e+01
    2806,   -4.445702e+00,    5.333333e+00,   -2.009730e+01
    2807,   -4.191903e+00,    5.333333e+00,   -2.410085e+01
    2808,   -4.077926e+00,    5.333333e+00,   -2.806510e+01
    2809,   -2.415753e+01,    5.333333e+00,   -3.702511e+00
    2810,   -2.025184e+01,    5.333333e+00,   -3.836006e+00
    2811,   -1.611513e+01,    5.333333e+00,   -4.193864e+00
    2812,   -1.111514e+01,    5.333333e+00,   -5.459440e+00
    2813,   -8.141415e+00,    5.333333e+00,   -2.816118e+01
    2814,   -1.219346e+01,    5.333333e+00,   -2.827351e+01
    2815,   -1.623036e+01,    5.333333e+00,   -2.834176e+01
    2816,   -2.023601e+01,    5.333333e+00,   -2.836744e+01
    2817,   -2.417631e+01,    5.333333e+00,   -2.840096e+01
    2818,   -2.432790e+01,    5.333333e+00,   -2.483605e+01
    2819,   -2.448652e+01,    5.333333e+00,   -2.130537e+01
    2820,   -2.465907e+01,    5.333333e+00,   -1.780334e+01
    2821,   -2.478686e+01,    5.333333e+00,   -1.432356e+01
    2822,   -2.473746e+01,    5.333333e+00,   -1.084324e+01
    2823,   -2.445805e+01,    5.333333e+00,   -7.311066e+00
    2824,   -8.329470e+00,    5.333333e+00,   -2.432318e+01
    2825,   -1.242700e+01,    5.333333e+00,   -2.457638e+01
    2826,   -1.648244e+01,    5.333333e+00,   -2.471661e+01
    2827,   -2.044109e+01,    5.333333e+00,   -2.479215e+01
    2828,   -2.073794e+01,    5.333333e+00,   -7.472816e+00
    2829,   -1.701334e+01,    5.333333e+00,   -7.988912e+00
    2830,   -1.347176e+01,    5.333333e+00,   -9.289633e+00
    2831,   -1.091751e+01,    5.333333e+00,   -1.253857e+01
    2832,   -9.455376e+00,    5.333333e+00,   -1.650098e+01
    2833,   -8.771335e+00,    5.333333e+00,   -2.044300e+01
    2834,   -2.068547e+01,    5.333333e+00,   -2.126486e+01
    2835,   -2.098036e+01,    5.333333e+00,   -1.778614e+01
    2836,   -2.112516e+01,    5.333333e+00,   -1.432703e+01
    2837,   -2.112485e+01,    5.333333e+00,   -1.093143e+01
    2838,   -1.776305e+01,    5.333333e+00,   -1.107779e+01
    2839,   -1.516459e+01,    5.333333e+00,   -1.143430e+01
    2840,   -1.425895e+01,    5.333333e+00,   -1.393548e+01
    2841,   -1.345700e+01,    5.333333e+00,   -1.724809e+01
    2842,   -1.287449e+01,    5.333333e+00,   -2.085451e+01
    2843,   -1.680595e+01,    5.333333e+00,   -2.114977e+01
    2844,   -1.761916e+01,    5.333333e+00,   -1.425846e+01
    2845,   -1.722000e+01,    5.333333e+00,   -1.761839e+01
    2846,   -3.200000e+01,    1.600000e+01,    0.000000e+00
    2847,   -1.200000e+01,    1.600000e+01,    0.000000e+00
    2848,   -1.600000e+01,    1.600000e+01,    0.000000e+00
    2849,   -2.000000e+01,    1.600000e+01,    0.000000e+00
    2850,   -2.400000e+01,    1.600000e+01,    0.000000e+00
    2851,   -2.800000e+01,    1.600000e+01,    0.000000e+00
    2852,   -3.200000e+01,    1.244444e+01,    0.000000e+00
    2853,   -3.200000e+01,    8.888889e+00,    0.000000e+00
    2854,   -2.800000e+01,    8.888889e+00,    0.000000e+00
    2855,   -2.400000e+01,    8.888889e+00,    0.000000e+00
    2856,   -2.000000e+01,    8.888889e+00,    0.000000e+00
    2857,   -1.600000e+01,    8.888889e+00,    0.000000e+00
    2858,   -1.200000e+01,    8.888889e+00,    0.000000e+00
    2859,   -2.800000e+01,    1.244444e+01,    0.000000e+00
    2860,   -2.400000e+01,    1.244444e+01,    0.000000e+00
    2861,   -2.000000e+01,    1.244444e+01,    0.000000e+00
    2862,   -1.600000e+01,    1.244444e+01,    0.000000e+00
    2863,   -1.200000e+01,    1.244444e+01,    0.000000e+00
    2864,   -3.200000e+01,    1.600000e+01,   -3.200000e+01
    2865,   -3.200000e+01,    8.888889e+00,   -3.200000e+01
    2866,   -3.200000e+01,    1.244444e+01,   -3.200000e+01
    2867,   -2.800000e+01,    1.600000e+01,   -3.200000e+01
    2868,   -2.400000e+01,    1.600000e+01,   -3.200000e+01
    2869,   -2.000000e+01,    1.600000e+01,   -3.200000e+01
    2870,   -1.600000e+01,    1.600000e+01,   -3.200000e+01
    2871,   -1.200000e+01,    1.600000e+01,   -3.200000e+01
    2872,   -8.000000e+00,    1.600000e+01,   -3.200000e+01
    2873,   -4.000000e+00,    1.600000e+01,   -3.200000e+01
    2874,   -4.000000e+00,    1.244444e+01,   -3.200000e+01
    2875,   -4.000000e+00,    8.888889e+00,   -3.200000e+01
    2876,   -8.000000e+00,    1.244444e+01,   -3.200000e+01
    2877,   -8.000000e+00,    8.888889e+00,   -3.200000e+01
    2878,   -1.200000e+01,    1.244444e+01,   -3.200000e+01
    2879,   -1.200000e+01,    8.888889e+00,   -3.200000e+01
    2880,   -1.600000e+01,    1.244444e+01,   -3.200000e+01
    2881,   -1.600000e+01,    8.888889e+00,   -3.200000e+01
    2882,   -2.000000e+01,    1.244444e+01,   -3.200000e+01
    2883,   -2.000000e+01,    8.888889e+00,   -3.200000e+01
    2884,   -2.400000e+01,    1.244444e+01,   -3.200000e+01
    2885,   -2.400000e+01,    8.888889e+00,   -3.200000e+01
    2886,   -2.800000e+01,    1.244444e+01,   -3.200000e+01
    2887,   -2.800000e+01,    8.888889e+00,   -3.200000e+01
    2888,   -3.200000e+01,    1.600000e+01,   -3.555556e+00
    2889,   -3.200000e+01,    1.600000e+01,   -7.111111e+00
    2890,   -3.200000e+01,    1.600000e+01,   -1.066667e+01
    2891,   -3.200000e+01,    1.600000e+01,   -1.422222e+01
    2892,   -3.200000e+01,    1.600000e+01,   -1.777778e+01
    2893,   -3.200000e+01,    1.600000e+01,   -2.133333e+01
    2894,   -3.200000e+01,    1.600000e+01,   -2.488889e+01
    2895,   -3.200000e+01,    1.600000e+01,   -2.844444e+01
    2896,   -3.200000e+01,    8.888889e+00,   -3.555556e+00
    2897,   -3.200000e+01,    1.244444e+01,   -3.555556e+00
    2898,   -3.200000e+01,    8.888889e+00,   -7.111111e+00
    2899,   -3.200000e+01,    1.244444e+01,   -7.111111e+00
    2900,   -3.200000e+01,    8.888889e+00,   -1.066667e+01
    2901,   -3.200000e+01,    1.244444e+01,   -1.066667e+01
    2902,   -3.200000e+01,    8.888889e+00,   -1.422222e+01
    2903,   -3.200000e+01,    1.244444e+01,   -1.422222e+01
    2904,   -3.200000e+01,    8.888889e+00,   -1.777778e+01
    2905,   -3.200000e+01,    1.244444e+01,   -1.777778e+01
    2906,   -3.200000e+01,    8.888889e+00,   -2.133333e+01
    2907,   -3.200000e+01,    1.244444e+01,   -2.133333e+01
    2908,   -3.200000e+01,    8.888889e+00,   -2.488889e+01
    2909,   -3.200000e+01,    1.244444e+01,   -2.488889e+01
    2910,   -3.200000e+01,    8.888889e+00,   -2.844444e+01
    2911,   -3.200000e+01,    1.244444e+01,   -2.844444e+01
    2912,   -2.810168e+01,    8.888889e+00,   -2.842024e+01
    2913,   -2.817692e+01,    8.888889e+00,   -2.486734e+01
    2914,   -2.824521e+01,    8.888889e+00,   -2.133006e+01
    2915,   -2.832324e+01,    8.888889e+00,   -1.779648e+01
    2916,   -2.837608e+01,    8.888889e+00,   -1.427497e+01
    2917,   -2.835621e+01,    8.888889e+00,   -1.075696e+01
    2918,   -2.824476e+01,    8.888889e+00,   -7.218385e+00
    2919,   -2.809699e+01,    8.888889e+00,   -3.623012e+00
    2920,   -6.115298e+00,    8.888889e+00,   -1.074548e+01
    2921,   -4.971915e+00,    8.888889e+00,   -1.583653e+01
    2922,   -4.445702e+00,    8.888889e+00,   -2.009730e+01
    2923,   -4.191903e+00,    8.888889e+00,   -2.410085e+01
    2924,   -4.077926e+00,    8.888889e+00,   -2.806510e+01
    2925,   -2.415753e+01,    8.888889e+00,   -3.702511e+00
    2926,   -2.025184e+01,    8.888889e+00,   -3.836006e+00
    2927,   -1.611513e+01,    8.888889e+00,   -4.193864e+00
    2928,   -1.111514e+01,    8.888889e+00,   -5.459440e+00
    2929,   -8.141415e+00,    8.888889e+00,   -2.816118e+01
    2930,   -1.219346e+01,    8.888889e+00,   -2.827351e+01
    2931,   -1.623036e+01,    8.888889e+00,   -2.834176e+01
    2932,   -2.023601e+01,    8.888889e+00,   -2.836744e+01
    2933,   -2.417631e+01,    8.888889e+00,   -2.840096e+01
    2934,   -2.432790e+01,    8.888889e+00,   -2.483605e+01
    2935,   -2.448652e+01,    8.888889e+00,   -2.130537e+01
    2936,   -2.465907e+01,    8.888889e+00,   -1.780334e+01
    2937,   -2.478686e+01,    8.888889e+00,   -1.432356e+01
    2938,   -2.473746e+01,    8.888889e+00,   -1.084324e+01
    2939,   -2.445805e+01,    8.888889e+00,   -7.311066e+00
    2940,   -8.329470e+00,    8.888889e+00,   -2.432318e+01
    2941,   -1.242700e+01,    8.888889e+00,   -2.457638e+01
    2942,   -1.648244e+01,    8.888889e+00,   -2.471661e+01
    2943,   -2.044109e+01,    8.888889e+00,   -2.479215e+01
    2944,   -2.073794e+01,    8.888889e+00,   -7.472816e+00
    2945,   -1.701334e+01,    8.888889e+00,   -7.988912e+00
    2946,   -1.347176e+01,    8.888889e+00,   -9.289633e+00
    2947,   -1.091751e+01,    8.888889e+00,   -1.253857e+01
    2948,   -9.455376e+00,    8.888889e+00,   -1.650098e+01
    2949,   -8.771335e+00,    8.888889e+00,   -2.044300e+01
    2950,   -2.068547e+01,    8.888889e+00,   -2.126486e+01
    2951,   -2.098036e+01,    8.888889e+00,   -1.778614e+01
    2952,   -2.112516e+01,    8.888889e+00,   -1.432703e+01
    2953,   -2.112485e+01,    8.888889e+00,   -1.093143e+01
    2954,   -1.776305e+01,    8.888889e+00,   -1.107779e+01
    2955,   -1.516459e+01,    8.888889e+00,   -1.143430e+01
    2956,   -1.425895e+01,    8.888889e+00,   -1.393548e+01
    2957,   -1.345700e+01,    8.888889e+00,   -1.724809e+01
    2958,   -1.287449e+01,    8.888889e+00,   -2.085451e+01
    2959,   -1.680595e+01,    8.888889e+00,   -2.114977e+01
    2960,   -1.761916e+01,    8.888889e+00,   -1.425846e+01
    2961,   -1.722000e+01,    8.888889e+00,   -1.761839e+01
    2962,   -2.810168e+01,    1.244444e+01,   -2.842024e+01
    2963,   -2.817692e+01,    1.244444e+01,   -2.486734e+01
    2964,   -2.824521e+01,    1.244444e+01,   -2.133006e+01
    2965,   -2.832324e+01,    1.244444e+01,   -1.779648e+01
    2966,   -2.837608e+01,    1.244444e+01,   -1.427497e+01
    2967,   -2.835621e+01,    1.244444e+01,   -1.075696e+01
    2968,   -2.824476e+01,    1.244444e+01,   -7.218385e+00
    2969,   -2.809699e+01,    1.244444e+01,   -3.623012e+00
    2970,   -6.115298e+00,    1.244444e+01,   -1.074548e+01
    2971,   -4.971915e+00,    1.244444e+01,   -1.583653e+01
    2972,   -4.445702e+00,    1.244444e+01,   -2.009730e+01
    2973,   -4.191903e+00,    1.244444e+01,   -2.410085e+01
    2974,   -4.077926e+00,    1.244444e+01,   -2.806510e+01
    2975,   -2.415753e+01,    1.244444e+01,   -3.702511e+00
    2976,   -2.025184e+01,    1.244444e+01,   -3.836006e+00
    2977,   -1.611513e+01,    1.244444e+01,   -4.193864e+00
    2978,   -1.111514e+01,    1.244444e+01,   -5.459440e+00
    2979,   -8.141415e+00,    1.244444e+01,   -2.816118e+01
    2980,   -1.219346e+01,    1.244444e+01,   -2.827351e+01
    2981,   -1.623036e+01,    1.244444e+01,   -2.834176e+01
    2982,   -2.023601e+01,    1.244444e+01,   -2.836744e+01
    2983,   -2.417631e+01,    1.244444e+01,   -2.840096e+01
    2984,   -2.432790e+01,    1.244444e+01,   -2.483605e+01
    2985,   -2.448652e+01,    1.244444e+01,   -2.130537e+01
    2986,   -2.465907e+01,    1.244444e+01,   -1.780334e+01
    2987,   -2.478686e+01,    1.244444e+01,   -1.432356e+01
    2988,   -2.473746e+01,    1.244444e+01,   -1.084324e+01
    2989,   -2.445805e+01,    1.244444e+01,   -7.311066e+00
    2990,   -8.329470e+00,    1.244444e+01,   -2.432318e+01
    2991,   -1.242700e+01,    1.244444e+01,   -2.457638e+01
    2992,   -1.648244e+01,    1.244444e+01,   -2.471661e+01
    2993,   -2.044109e+01,    1.244444e+01,   -2.479215e+01
    2994,   -2.073794e+01,    1.244444e+01,   -7.472816e+00
    2995,   -1.701334e+01,    1.244444e+01,   -7.988912e+00
    2996,   -1.347176e+01,    1.244444e+01,   -9.289633e+00
    2997,   -1.091751e+01,    1.244444e+01,   -1.253857e+01
    2998,   -9.455376e+00,    1.244444e+01,   -1.650098e+01
    2999,   -8.771335e+00,    1.244444e+01,   -2.044300e+01
    3000,   -2.068547e+01,    1.244444e+01,   -2.126486e+01
    3001,   -2.098036e+01,    1.244444e+01,   -1.778614e+01
    3002,   -2.112516e+01,    1.244444e+01,   -1.432703e+01
    3003,   -2.112485e+01,    1.244444e+01,   -1.093143e+01
    3004,   -1.776305e+01,    1.244444e+01,   -1.107779e+01
    3005,   -1.516459e+01,    1.244444e+01,   -1.143430e+01
    3006,   -1.425895e+01,    1.244444e+01,   -1.393548e+01
    3007,   -1.345700e+01,    1.244444e+01,   -1.724809e+01
    3008,   -1.287449e+01,    1.244444e+01,   -2.085451e+01
    3009,   -1.680595e+01,    1.244444e+01,   -2.114977e+01
    3010,   -1.761916e+01,    1.244444e+01,   -1.425846e+01
    3011,   -1.722000e+01,    1.244444e+01,   -1.761839e+01
    3012,   -2.810168e+01,    1.600000e+01,   -2.842024e+01
    3013,   -2.817692e+01,    1.600000e+01,   -2.486734e+01
    3014,   -2.824521e+01,    1.600000e+01,   -2.133006e+01
    3015,   -2.832324e+01,    1.600000e+01,   -1.779648e+01
    3016,   -2.837608e+01,    1.600000e+01,   -1.427497e+01
    3017,   -2.835621e+01,    1.600000e+01,   -1.075696e+01
    3018,   -2.824476e+01,    1.600000e+01,   -7.218385e+00
    3019,   -2.809699e+01,    1.600000e+01,   -3.623012e+00
    3020,   -6.115298e+00,    1.600000e+01,   -1.074548e+01
    3021,   -4.971915e+00,    1.600000e+01,   -1.583653e+01
    3022,   -4.445702e+00,    1.600000e+01,   -2.009730e+01
    3023,   -4.191903e+00,    1.600000e+01,   -2.410085e+01
    3024,   -4.077926e+00,    1.600000e+01,   -2.806510e+01
    3025,   -2.415753e+01,    1.600000e+01,   -3.702511e+00
    3026,   -2.025184e+01,    1.600000e+01,   -3.836006e+00
    3027,   -1.611513e+01,    1.600000e+01,   -4.193864e+00
    3028,   -1.111514e+01,    1.600000e+01,   -5.459440e+00
    3029,   -8.141415e+00,    1.600000e+01,   -2.816118e+01
    3030,   -1.219346e+01,    1.600000e+01,   -2.827351e+01
    3031,   -1.623036e+01,    1.600000e+01,   -2.834176e+01
    3032,   -2.023601e+01,    1.600000e+01,   -2.836744e+01
    3033,   -2.417631e+01,    1.600000e+01,   -2.840096e+01
    3034,   -2.432790e+01,    1.600000e+01,   -2.483605e+01
    3035,   -2.448652e+01,    1.600000e+01,   -2.130537e+01
    3036,   -2.465907e+01,    1.600000e+01,   -1.780334e+01
    3037,   -2.478686e+01,    1.600000e+01,   -1.432356e+01
    3038,   -2.473746e+01,    1.600000e+01,   -1.084324e+01
    3039,   -2.445805e+01,    1.600000e+01,   -7.311066e+00
    3040,   -8.329470e+00,    1.600000e+01,   -2.432318e+01
    3041,   -1.242700e+01,    1.600000e+01,   -2.457638e+01
    3042,   -1.648244e+01,    1.600000e+01,   -2.471661e+01
    3043,   -2.044109e+01,    1.600000e+01,   -2.479215e+01
    3044,   -2.073794e+01,    1.600000e+01,   -7.472816e+00
    3045,   -1.701334e+01,    1.600000e+01,   -7.988912e+00
    3046,   -1.347176e+01,    1.600000e+01,   -9.289633e+00
    3047,   -1.091751e+01,    1.600000e+01,   -1.253857e+01
    3048,   -9.455376e+00,    1.600000e+01,   -1.650098e+01
    3049,   -8.771335e+00,    1.600000e+01,   -2.044300e+01
    3050,   -2.068547e+01,    1.600000e+01,   -2.126486e+01
    3051,   -2.098036e+01,    1.600000e+01,   -1.778614e+01
    3052,   -2.112516e+01,    1.600000e+01,   -1.432703e+01
    3053,   -2.112485e+01,    1.600000e+01,   -1.093143e+01
    3054,   -1.776305e+01,    1.600000e+01,   -1.107779e+01
    3055,   -1.516459e+01,    1.600000e+01,   -1.143430e+01
    3056,   -1.425895e+01,    1.600000e+01,   -1.393548e+01
    3057,   -1.345700e+01,    1.600000e+01,   -1.724809e+01
    3058,   -1.287449e+01,    1.600000e+01,   -2.085451e+01
    3059,   -1.680595e+01,    1.600000e+01,   -2.114977e+01
    3060,   -1.761916e+01,    1.600000e+01,   -1.425846e+01
    3061,   -1.722000e+01,    1.600000e+01,   -1.761839e+01
    3062,   -3.200000e+01,    0.000000e+00,    0.000000e+00
    3063,   -2.800000e+01,    0.000000e+00,    0.000000e+00
    3064,   -2.400000e+01,    0.000000e+00,    0.000000e+00
    3065,   -2.000000e+01,    0.000000e+00,    0.000000e+00
    3066,   -1.600000e+01,    0.000000e+00,    0.000000e+00
    3067,   -1.200000e+01,    0.000000e+00,    0.000000e+00
    3068,   -3.200000e+01,    0.000000e+00,   -3.200000e+01
    3069,   -3.200000e+01,    0.000000e+00,   -3.555556e+00
    3070,   -3.200000e+01,    0.000000e+00,   -7.111111e+00
    3071,   -3.200000e+01,    0.000000e+00,   -1.066667e+01
    3072,   -3.200000e+01,    0.000000e+00,   -1.422222e+01
    3073,   -3.200000e+01,    0.000000e+00,   -1.777778e+01
    3074,   -3.200000e+01,    0.000000e+00,   -2.133333e+01
    3075,   -3.200000e+01,    0.000000e+00,   -2.488889e+01
    3076,   -3.200000e+01,    0.000000e+00,   -2.844444e+01
    3077,   -4.000000e+00,    0.000000e+00,   -3.200000e+01
    3078,   -8.000000e+00,    0.000000e+00,   -3.200000e+01
    3079,   -1.200000e+01,    0.000000e+00,   -3.200000e+01
    3080,   -1.600000e+01,    0.000000e+00,   -3.200000e+01
    3081,   -2.000000e+01,    0.000000e+00,   -3.200000e+01
    3082,   -2.400000e+01,    0.000000e+00,   -3.200000e+01
    3083,   -2.800000e+01,    0.000000e+00,   -3.200000e+01
    3084,   -2.810168e+01,    0.000000e+00,   -2.842024e+01
    3085,   -2.817692e+01,    0.000000e+00,   -2.486734e+01
    3086,   -2.824521e+01,    0.000000e+00,   -2.133006e+01
    3087,   -2.832324e+01,    0.000000e+00,   -1.779648e+01
    3088,   -2.837608e+01,    0.000000e+00,   -1.427497e+01
    3089,   -2.835621e+01,    0.000000e+00,   -1.075696e+01
    3090,   -2.824476e+01,    0.000000e+00,   -7.218385e+00
    3091,   -2.809699e+01,    0.000000e+00,   -3.623012e+00
    3092,   -6.115298e+00,    0.000000e+00,   -1.074548e+01
    3093,   -4.971915e+00,    0.000000e+00,   -1.583653e+01
    3094,   -4.445702e+00,    0.000000e+00,   -2.009730e+01
    3095,   -4.191903e+00,    0.000000e+00,   -2.410085e+01
    3096,   -4.077926e+00,    0.000000e+00,   -2.806510e+01
    3097,   -2.415753e+01,    0.000000e+00,   -3.702511e+00
    3098,   -2.025184e+01,    0.000000e+00,   -3.836006e+00
    3099,   -1.611513e+01,    0.000000e+00,   -4.193864e+00
    3100,   -1.111514e+01,    0.000000e+00,   -5.459440e+00
    3101,   -8.141415e+00,    0.000000e+00,   -2.816118e+01
    3102,   -1.219346e+01,    0.000000e+00,   -2.827351e+01
    3103,   -1.623036e+01,    0.000000e+00,   -2.834176e+01
    3104,   -2.023601e+01,    0.000000e+00,   -2.836744e+01
    3105,   -2.417631e+01,    0.000000e+00,   -2.840096e+01
    3106,   -2.432790e+01,    0.000000e+00,   -2.483605e+01
    3107,   -2.448652e+01,    0.000000e+00,   -2.130537e+01
    3108,   -2.465907e+01,    0.000000e+00,   -1.780334e+01
    3109,   -2.478686e+01,    0.000000e+00,   -1.432356e+01
    3110,   -2.473746e+01,    0.000000e+00,   -1.084324e+01
    3111,   -2.445805e+01,    0.000000e+00,   -7.311066e+00
    3112,   -8.329470e+00,    0.000000e+00,   -2.432318e+01
    3113,   -1.242700e+01,    0.000000e+00,   -2.457638e+01
    3114,   -1.648244e+01,    0.000000e+00,   -2.471661e+01
    3115,   -2.044109e+01,    0.000000e+00,   -2.479215e+01
    3116,   -2.073794e+01,    0.000000e+00,   -7.472816e+00
    3117,   -1.701334e+01,    0.000000e+00,   -7.988912e+00
    3118,   -1.347176e+01,    0.000000e+00,   -9.289633e+00
    3119,   -1.091751e+01,    0.000000e+00,   -1.253857e+01
    3120,   -9.455376e+00,    0.000000e+00,   -1.650098e+01
    3121,   -8.771335e+00,    0.000000e+00,   -2.044300e+01
    3122,   -2.068547e+01,    0.000000e+00,   -2.126486e+01
    3123,   -2.098036e+01,    0.000000e+00,   -1.778614e+01
    3124,   -2.112516e+01,    0.000000e+00,   -1.432703e+01
    3125,   -2.112485e+01,    0.000000e+00,   -1.093143e+01
    3126,   -1.776305e+01,    0.000000e+00,   -1.107779e+01
    3127,   -1.516459e+01,    0.000000e+00,   -1.143430e+01
    3128,   -1.425895e+01,    0.000000e+00,   -1.393548e+01
    3129,   -1.345700e+01,    0.000000e+00,   -1.724809e+01
    3130,   -1.287449e+01,    0.000000e+00,   -2.085451e+01
    3131,   -1.680595e+01,    0.000000e+00,   -2.114977e+01
    3132,   -1.761916e+01,    0.000000e+00,   -1.425846e+01
    3133,   -1.722000e+01,    0.000000e+00,   -1.761839e+01
    3224,    0.000000e+00,   -5.510911e-16,   -9.000000e+00
    3225,    0.000000e+00,   -4.898587e-16,   -8.000000e+00
    3226,    0.000000e+00,   -5.000000e+01,   -9.000000e+00
    3227,    0.000000e+00,   -4.615385e+01,   -9.000000e+00
    3228,    0.000000e+00,   -4.230769e+01,   -9.000000e+00
    3229,    0.000000e+00,   -3.846154e+01,   -9.000000e+00
    3230,    0.000000e+00,   -3.461538e+01,   -9.000000e+00
    3231,    0.000000e+00,   -3.076923e+01,   -9.000000e+00
    3232,    0.000000e+00,   -2.692308e+01,   -9.000000e+00
    3233,    0.000000e+00,   -2.307692e+01,   -9.000000e+00
    3234,    0.000000e+00,   -1.923077e+01,   -9.000000e+00
    3235,    0.000000e+00,   -1.538462e+01,   -9.000000e+00
    3236,    0.000000e+00,   -1.153846e+01,   -9.000000e+00
    3237,    0.000000e+00,   -7.692308e+00,   -9.000000e+00
    3238,    0.000000e+00,   -3.846154e+00,   -9.000000e+00
    3239,    0.000000e+00,   -5.000000e+01,   -8.000000e+00
    3240,    0.000000e+00,   -3.846154e+00,   -8.000000e+00
    3241,    0.000000e+00,   -7.692308e+00,   -8.000000e+00
    3242,    0.000000e+00,   -1.153846e+01,   -8.000000e+00
    3243,    0.000000e+00,   -1.538462e+01,   -8.000000e+00
    3244,    0.000000e+00,   -1.923077e+01,   -8.000000e+00
    3245,    0.000000e+00,   -2.307692e+01,   -8.000000e+00
    3246,    0.000000e+00,   -2.692308e+01,   -8.000000e+00
    3247,    0.000000e+00,   -3.076923e+01,   -8.000000e+00
    3248,    0.000000e+00,   -3.461538e+01,   -8.000000e+00
    3249,    0.000000e+00,   -3.846154e+01,   -8.000000e+00
    3250,    0.000000e+00,   -4.230769e+01,   -8.000000e+00
    3251,    0.000000e+00,   -4.615385e+01,   -8.000000e+00
    3252,    9.000000e+00,   -5.000000e+01,    1.530808e-15
    3253,    4.500000e+00,   -5.000000e+01,   -7.794229e+00
    3254,    7.794229e+00,   -5.000000e+01,   -4.500000e+00
    3255,    8.000000e+00,   -5.000000e+01,    1.530808e-15
    3256,    6.928203e+00,   -5.000000e+01,   -4.000000e+00
    3257,    4.000000e+00,   -5.000000e+01,   -6.928203e+00
    3258,    9.000000e+00,    0.000000e+00,   -1.530808e-15
    3259,    7.794229e+00,   -2.755455e-16,   -4.500000e+00
    3260,    4.500000e+00,   -4.772589e-16,   -7.794229e+00
    3261,    9.000000e+00,   -4.615385e+01,    1.295299e-15
    3262,    9.000000e+00,   -4.230769e+01,    1.059790e-15
    3263,    9.000000e+00,   -3.846154e+01,    8.242815e-16
    3264,    9.000000e+00,   -3.461538e+01,    5.887725e-16
    3265,    9.000000e+00,   -3.076923e+01,    3.532635e-16
    3266,    9.000000e+00,   -2.692308e+01,    1.177545e-16
    3267,    9.000000e+00,   -2.307692e+01,   -1.177545e-16
    3268,    9.000000e+00,   -1.923077e+01,   -3.532635e-16
    3269,    9.000000e+00,   -1.538462e+01,   -5.887725e-16
    3270,    9.000000e+00,   -1.153846e+01,   -8.242815e-16
    3271,    9.000000e+00,   -7.692308e+00,   -1.059790e-15
    3272,    9.000000e+00,   -3.846154e+00,   -1.295299e-15
    3273,    4.500000e+00,   -4.615385e+01,   -7.794229e+00
    3274,    4.500000e+00,   -4.230769e+01,   -7.794229e+00
    3275,    4.500000e+00,   -3.846154e+01,   -7.794229e+00
    3276,    4.500000e+00,   -3.461538e+01,   -7.794229e+00
    3277,    4.500000e+00,   -3.076923e+01,   -7.794229e+00
    3278,    4.500000e+00,   -2.692308e+01,   -7.794229e+00
    3279,    4.500000e+00,   -2.307692e+01,   -7.794229e+00
    3280,    4.500000e+00,   -1.923077e+01,   -7.794229e+00
    3281,    4.500000e+00,   -1.538462e+01,   -7.794229e+00
    3282,    4.500000e+00,   -1.153846e+01,   -7.794229e+00
    3283,    4.500000e+00,   -7.692308e+00,   -7.794229e+00
    3284,    4.500000e+00,   -3.846154e+00,   -7.794229e+00
    3285,    7.794229e+00,   -4.615385e+01,   -4.500000e+00
    3286,    7.794229e+00,   -4.230769e+01,   -4.500000e+00
    3287,    7.794229e+00,   -3.846154e+01,   -4.500000e+00
    3288,    7.794229e+00,   -3.461538e+01,   -4.500000e+00
    3289,    7.794229e+00,   -3.076923e+01,   -4.500000e+00
    3290,    7.794229e+00,   -2.692308e+01,   -4.500000e+00
    3291,    7.794229e+00,   -2.307692e+01,   -4.500000e+00
    3292,    7.794229e+00,   -1.923077e+01,   -4.500000e+00
    3293,    7.794229e+00,   -1.538462e+01,   -4.500000e+00
    3294,    7.794229e+00,   -1.153846e+01,   -4.500000e+00
    3295,    7.794229e+00,   -7.692308e+00,   -4.500000e+00
    3296,    7.794229e+00,   -3.846154e+00,   -4.500000e+00
    3297,    8.000000e+00,    0.000000e+00,   -1.530808e-15
    3298,    8.000000e+00,   -3.846154e+00,   -1.295299e-15
    3299,    8.000000e+00,   -7.692308e+00,   -1.059790e-15
    3300,    8.000000e+00,   -1.153846e+01,   -8.242815e-16
    3301,    8.000000e+00,   -1.538462e+01,   -5.887725e-16
    3302,    8.000000e+00,   -1.923077e+01,   -3.532635e-16
    3303,    8.000000e+00,   -2.307692e+01,   -1.177545e-16
    3304,    8.000000e+00,   -2.692308e+01,    1.177545e-16
    3305,    8.000000e+00,   -3.076923e+01,    3.532635e-16
    3306,    8.000000e+00,   -3.461538e+01,    5.887725e-16
    3307,    8.000000e+00,   -3.846154e+01,    8.242815e-16
    3308,    8.000000e+00,   -4.230769e+01,    1.059790e-15
    3309,    8.000000e+00,   -4.615385e+01,    1.295299e-15
    3310,    4.000000e+00,   -4.242301e-16,   -6.928203e+00
    3311,    6.928203e+00,   -2.449294e-16,   -4.000000e+00
    3312,    4.000000e+00,   -3.846154e+00,   -6.928203e+00
    3313,    4.000000e+00,   -7.692308e+00,   -6.928203e+00
    3314,    4.000000e+00,   -1.153846e+01,   -6.928203e+00
    3315,    4.000000e+00,   -1.538462e+01,   -6.928203e+00
    3316,    4.000000e+00,   -1.923077e+01,   -6.928203e+00
    3317,    4.000000e+00,   -2.307692e+01,   -6.928203e+00
    3318,    4.000000e+00,   -2.692308e+01,   -6.928203e+00
    3319,    4.000000e+00,   -3.076923e+01,   -6.928203e+00
    3320,    4.000000e+00,   -3.461538e+01,   -6.928203e+00
    3321,    4.000000e+00,   -3.846154e+01,   -6.928203e+00
    3322,    4.000000e+00,   -4.230769e+01,   -6.928203e+00
    3323,    4.000000e+00,   -4.615385e+01,   -6.928203e+00
    3324,    6.928203e+00,   -3.846154e+00,   -4.000000e+00
    3325,    6.928203e+00,   -7.692308e+00,   -4.000000e+00
    3326,    6.928203e+00,   -1.153846e+01,   -4.000000e+00
    3327,    6.928203e+00,   -1.538462e+01,   -4.000000e+00
    3328,    6.928203e+00,   -1.923077e+01,   -4.000000e+00
    3329,    6.928203e+00,   -2.307692e+01,   -4.000000e+00
    3330,    6.928203e+00,   -2.692308e+01,   -4.000000e+00
    3331,    6.928203e+00,   -3.076923e+01,   -4.000000e+00
    3332,    6.928203e+00,   -3.461538e+01,   -4.000000e+00
    3333,    6.928203e+00,   -3.846154e+01,   -4.000000e+00
    3334,    6.928203e+00,   -4.230769e+01,   -4.000000e+00
    3335,    6.928203e+00,   -4.615385e+01,   -4.000000e+00
    4201,   -8.000000e+00,    9.373499e-32,    0.000000e+00
    4202,   -6.928203e+00,   -2.449294e-16,   -4.000000e+00
    4203,   -4.000000e+00,   -4.242301e-16,   -6.928203e+00
    4204,   -8.000000e+00,   -5.000000e+01,    0.000000e+00
    4205,   -8.000000e+00,   -4.615385e+01,    1.295299e-15
    4206,   -8.000000e+00,   -4.230769e+01,    1.059790e-15
    4207,   -8.000000e+00,   -3.846154e+01,    8.242815e-16
    4208,   -8.000000e+00,   -3.461538e+01,    5.887725e-16
    4209,   -8.000000e+00,   -3.076923e+01,    3.532635e-16
    4210,   -8.000000e+00,   -2.692308e+01,    1.177545e-16
    4211,   -8.000000e+00,   -2.307692e+01,   -1.177545e-16
    4212,   -8.000000e+00,   -1.923077e+01,   -3.532635e-16
    4213,   -8.000000e+00,   -1.538462e+01,   -5.887725e-16
    4214,   -8.000000e+00,   -1.153846e+01,   -8.242815e-16
    4215,   -8.000000e+00,   -7.692308e+00,   -1.059790e-15
    4216,   -8.000000e+00,   -3.846154e+00,   -1.295299e-15
    4217,   -4.000000e+00,   -5.000000e+01,   -6.928203e+00
    4218,   -6.928203e+00,   -5.000000e+01,   -4.000000e+00
    4219,   -4.000000e+00,   -4.615385e+01,   -6.928203e+00
    4220,   -4.000000e+00,   -4.230769e+01,   -6.928203e+00
    4221,   -4.000000e+00,   -3.846154e+01,   -6.928203e+00
    4222,   -4.000000e+00,   -3.461538e+01,   -6.928203e+00
    4223,   -4.000000e+00,   -3.076923e+01,   -6.928203e+00
    4224,   -4.000000e+00,   -2.692308e+01,   -6.928203e+00
    4225,   -4.000000e+00,   -2.307692e+01,   -6.928203e+00
    4226,   -4.000000e+00,   -1.923077e+01,   -6.928203e+00
    4227,   -4.000000e+00,   -1.538462e+01,   -6.928203e+00
    4228,   -4.000000e+00,   -1.153846e+01,   -6.928203e+00
    4229,   -4.000000e+00,   -7.692308e+00,   -6.928203e+00
    4230,   -4.000000e+00,   -3.846154e+00,   -6.928203e+00
    4231,   -6.928203e+00,   -4.615385e+01,   -4.000000e+00
    4232,   -6.928203e+00,   -4.230769e+01,   -4.000000e+00
    4233,   -6.928203e+00,   -3.846154e+01,   -4.000000e+00
    4234,   -6.928203e+00,   -3.461538e+01,   -4.000000e+00
    4235,   -6.928203e+00,   -3.076923e+01,   -4.000000e+00
    4236,   -6.928203e+00,   -2.692308e+01,   -4.000000e+00
    4237,   -6.928203e+00,   -2.307692e+01,   -4.000000e+00
    4238,   -6.928203e+00,   -1.923077e+01,   -4.000000e+00
    4239,   -6.928203e+00,   -1.538462e+01,   -4.000000e+00
    4240,   -6.928203e+00,   -1.153846e+01,   -4.000000e+00
    4241,   -6.928203e+00,   -7.692308e+00,   -4.000000e+00
    4242,   -6.928203e+00,   -3.846154e+00,   -4.000000e+00
    4243,   -9.000000e+00,    9.373499e-32,    0.000000e+00
    4244,   -4.500000e+00,   -4.772589e-16,   -7.794229e+00
    4245,   -7.794229e+00,   -2.755455e-16,   -4.500000e+00
    4246,   -9.000000e+00,   -5.000000e+01,    0.000000e+00
    4247,   -9.000000e+00,   -3.846154e+00,   -1.295299e-15
    4248,   -9.000000e+00,   -7.692308e+00,   -1.059790e-15
    4249,   -9.000000e+00,   -1.153846e+01,   -8.242815e-16
    4250,   -9.000000e+00,   -1.538462e+01,   -5.887725e-16
    4251,   -9.000000e+00,   -1.923077e+01,   -3.532635e-16
    4252,   -9.000000e+00,   -2.307692e+01,   -1.177545e-16
    4253,   -9.000000e+00,   -2.692308e+01,    1.177545e-16
    4254,   -9.000000e+00,   -3.076923e+01,    3.532635e-16
    4255,   -9.000000e+00,   -3.461538e+01,    5.887725e-16
    4256,   -9.000000e+00,   -3.846154e+01,    8.242815e-16
    4257,   -9.000000e+00,   -4.230769e+01,    1.059790e-15
    4258,   -9.000000e+00,   -4.615385e+01,    1.295299e-15
    4259,   -7.794229e+00,   -5.000000e+01,   -4.500000e+00
    4260,   -4.500000e+00,   -5.000000e+01,   -7.794229e+00
    4261,   -4.500000e+00,   -3.846154e+00,   -7.794229e+00
    4262,   -4.500000e+00,   -7.692308e+00,   -7.794229e+00
    4263,   -4.500000e+00,   -1.153846e+01,   -7.794229e+00
    4264,   -4.500000e+00,   -1.538462e+01,   -7.794229e+00
    4265,   -4.500000e+00,   -1.923077e+01,   -7.794229e+00
    4266,   -4.500000e+00,   -2.307692e+01,   -7.794229e+00
    4267,   -4.500000e+00,   -2.692308e+01,   -7.794229e+00
    4268,   -4.500000e+00,   -3.076923e+01,   -7.794229e+00
    4269,   -4.500000e+00,   -3.461538e+01,   -7.794229e+00
    4270,   -4.500000e+00,   -3.846154e+01,   -7.794229e+00
    4271,   -4.500000e+00,   -4.230769e+01,   -7.794229e+00
    4272,   -4.500000e+00,   -4.615385e+01,   -7.794229e+00
    4273,   -7.794229e+00,   -3.846154e+00,   -4.500000e+00
    4274,   -7.794229e+00,   -7.692308e+00,   -4.500000e+00
    4275,   -7.794229e+00,   -1.153846e+01,   -4.500000e+00
    4276,   -7.794229e+00,   -1.538462e+01,   -4.500000e+00
    4277,   -7.794229e+00,   -1.923077e+01,   -4.500000e+00
    4278,   -7.794229e+00,   -2.307692e+01,   -4.500000e+00
    4279,   -7.794229e+00,   -2.692308e+01,   -4.500000e+00
    4280,   -7.794229e+00,   -3.076923e+01,   -4.500000e+00
    4281,   -7.794229e+00,   -3.461538e+01,   -4.500000e+00
    4282,   -7.794229e+00,   -3.846154e+01,   -4.500000e+00
    4283,   -7.794229e+00,   -4.230769e+01,   -4.500000e+00
    4284,   -7.794229e+00,   -4.615385e+01,   -4.500000e+00
********************************** E L E M E N T S ****************************
*ELEMENT, TYPE=C3D8R, ELSET=steel
       1,    1158,    1044,    1048,    1175,    1032,    1031,    1034,    1036
       2,    1174,    1142,    1158,    1175,    1037,    1033,    1032,    1036
       3,    1100,    1055,    1142,    1174,    1030,    1029,    1033,    1037
       4,    1046,    1039,    1100,    1174,    1035,    1028,    1030,    1037
       5,    1048,    1046,    1174,    1175,    1034,    1035,    1037,    1036
       6,    1159,    1045,    1049,    1177,    1158,    1044,    1048,    1175
       7,    1176,    1143,    1159,    1177,    1174,    1142,    1158,    1175
       8,    1099,    1056,    1143,    1176,    1100,    1055,    1142,    1174
       9,    1047,    1040,    1099,    1176,    1046,    1039,    1100,    1174
      10,    1049,    1047,    1176,    1177,    1048,    1046,    1174,    1175
      11,    1160,    1041,    1042,    1179,    1159,    1045,    1049,    1177
      12,    1178,    1144,    1160,    1179,    1176,    1143,    1159,    1177
      13,    1098,    1057,    1144,    1178,    1099,    1056,    1143,    1176
      14,    1043,    1038,    1098,    1178,    1047,    1040,    1099,    1176
      15,    1042,    1043,    1178,    1179,    1049,    1047,    1176,    1177
      16,    1161,    1051,    1052,    1181,    1160,    1041,    1042,    1179
      17,    1180,    1145,    1161,    1181,    1178,    1144,    1160,    1179
      18,    1097,    1058,    1145,    1180,    1098,    1057,    1144,    1178
      19,    1053,    1050,    1097,    1180,    1043,    1038,    1098,    1178
      20,    1052,    1053,    1180,    1181,    1042,    1043,    1178,    1179
      21,    1162,    1113,    1117,    1183,    1161,    1051,    1052,    1181
      22,    1182,    1146,    1162,    1183,    1180,    1145,    1161,    1181
      23,    1096,    1059,    1146,    1182,    1097,    1058,    1145,    1180
      24,    1116,    1083,    1096,    1182,    1053,    1050,    1097,    1180
      25,    1117,    1116,    1182,    1183,    1052,    1053,    1180,    1181
      26,    1163,    1112,    1119,    1185,    1162,    1113,    1117,    1183
      27,    1184,    1147,    1163,    1185,    1182,    1146,    1162,    1183
      28,    1095,    1060,    1147,    1184,    1096,    1059,    1146,    1182
      29,    1118,    1082,    1095,    1184,    1116,    1083,    1096,    1182
      30,    1119,    1118,    1184,    1185,    1117,    1116,    1182,    1183
      31,    1164,    1111,    1121,    1187,    1163,    1112,    1119,    1185
      32,    1186,    1148,    1164,    1187,    1184,    1147,    1163,    1185
      33,    1094,    1061,    1148,    1186,    1095,    1060,    1147,    1184
      34,    1120,    1081,    1094,    1186,    1118,    1082,    1095,    1184
      35,    1121,    1120,    1186,    1187,    1119,    1118,    1184,    1185
      36,    1165,    1110,    1123,    1189,    1164,    1111,    1121,    1187
      37,    1188,    1149,    1165,    1189,    1186,    1148,    1164,    1187
      38,    1093,    1062,    1149,    1188,    1094,    1061,    1148,    1186
      39,    1122,    1080,    1093,    1188,    1120,    1081,    1094,    1186
      40,    1123,    1122,    1188,    1189,    1121,    1120,    1186,    1187
      41,    1166,    1109,    1125,    1191,    1165,    1110,    1123,    1189
      42,    1190,    1150,    1166,    1191,    1188,    1149,    1165,    1189
      43,    1092,    1063,    1150,    1190,    1093,    1062,    1149,    1188
      44,    1124,    1079,    1092,    1190,    1122,    1080,    1093,    1188
      45,    1125,    1124,    1190,    1191,    1123,    1122,    1188,    1189
      46,    1167,    1108,    1127,    1193,    1166,    1109,    1125,    1191
      47,    1192,    1151,    1167,    1193,    1190,    1150,    1166,    1191
      48,    1091,    1064,    1151,    1192,    1092,    1063,    1150,    1190
      49,    1126,    1078,    1091,    1192,    1124,    1079,    1092,    1190
      50,    1127,    1126,    1192,    1193,    1125,    1124,    1190,    1191
      51,    1168,    1107,    1129,    1195,    1167,    1108,    1127,    1193
      52,    1194,    1152,    1168,    1195,    1192,    1151,    1167,    1193
      53,    1090,    1065,    1152,    1194,    1091,    1064,    1151,    1192
      54,    1128,    1077,    1090,    1194,    1126,    1078,    1091,    1192
      55,    1129,    1128,    1194,    1195,    1127,    1126,    1192,    1193
      56,    1169,    1106,    1131,    1197,    1168,    1107,    1129,    1195
      57,    1196,    1153,    1169,    1197,    1194,    1152,    1168,    1195
      58,    1089,    1066,    1153,    1196,    1090,    1065,    1152,    1194
      59,    1130,    1076,    1089,    1196,    1128,    1077,    1090,    1194
      60,    1131,    1130,    1196,    1197,    1129,    1128,    1194,    1195
      61,    1170,    1105,    1133,    1199,    1169,    1106,    1131,    1197
      62,    1198,    1154,    1170,    1199,    1196,    1153,    1169,    1197
      63,    1088,    1067,    1154,    1198,    1089,    1066,    1153,    1196
      64,    1132,    1075,    1088,    1198,    1130,    1076,    1089,    1196
      65,    1133,    1132,    1198,    1199,    1131,    1130,    1196,    1197
      66,    1171,    1104,    1135,    1201,    1170,    1105,    1133,    1199
      67,    1200,    1155,    1171,    1201,    1198,    1154,    1170,    1199
      68,    1087,    1068,    1155,    1200,    1088,    1067,    1154,    1198
      69,    1134,    1074,    1087,    1200,    1132,    1075,    1088,    1198
      70,    1135,    1134,    1200,    1201,    1133,    1132,    1198,    1199
      71,    1172,    1103,    1137,    1203,    1171,    1104,    1135,    1201
      72,    1202,    1156,    1172,    1203,    1200,    1155,    1171,    1201
      73,    1086,    1069,    1156,    1202,    1087,    1068,    1155,    1200
      74,    1136,    1073,    1086,    1202,    1134,    1074,    1087,    1200
      75,    1137,    1136,    1202,    1203,    1135,    1134,    1200,    1201
      76,    1173,    1102,    1139,    1205,    1172,    1103,    1137,    1203
      77,    1204,    1157,    1173,    1205,    1202,    1156,    1172,    1203
      78,    1085,    1070,    1157,    1204,    1086,    1069,    1156,    1202
      79,    1138,    1072,    1085,    1204,    1136,    1073,    1086,    1202
      80,    1139,    1138,    1204,    1205,    1137,    1136,    1202,    1203
      81,    1141,    1101,    1115,    1207,    1173,    1102,    1139,    1205
      82,    1206,    1140,    1141,    1207,    1204,    1157,    1173,    1205
      83,    1084,    1054,    1140,    1206,    1085,    1070,    1157,    1204
      84,    1114,    1071,    1084,    1206,    1138,    1072,    1085,    1204
      85,    1115,    1114,    1206,    1207,    1139,    1138,    1204,    1205
      86,    1552,    1570,    1562,    1563,    1260,    1277,    1270,    1271
      87,    1552,    1553,    1567,    1570,    1260,    1261,    1278,    1277
      88,    1570,    1567,    1572,    1569,    1277,    1278,    1280,    1276
      89,    1568,    1569,    1572,    1571,    1275,    1276,    1280,    1279
      90,    1566,    1571,    1572,    1567,    1274,    1279,    1280,    1278
      91,    1557,    1558,    1568,    1571,    1265,    1266,    1275,    1279
      92,    1556,    1557,    1571,    1566,    1264,    1265,    1279,    1274
      93,    1561,    1562,    1570,    1569,    1269,    1270,    1277,    1276
      94,    1560,    1561,    1569,    1568,    1268,    1269,    1276,    1275
      95,    1559,    1560,    1568,    1558,    1267,    1268,    1275,    1266
      96,    1554,    1555,    1556,    1566,    1262,    1263,    1264,    1274
      97,    1553,    1554,    1566,    1567,    1261,    1262,    1274,    1278
      98,    1551,    1552,    1563,    1564,    1259,    1260,    1271,    1273
      99,    1550,    1551,    1564,    1565,    1258,    1259,    1273,    1272
     100,    1543,    1544,    1550,    1565,    1251,    1252,    1258,    1272
     101,    1542,    1543,    1565,    1564,    1250,    1251,    1272,    1273
     102,    1541,    1542,    1564,    1563,    1249,    1250,    1273,    1271
     103,    1540,    1541,    1563,    1562,    1248,    1249,    1271,    1270
     104,    1539,    1540,    1562,    1561,    1247,    1248,    1270,    1269
     105,    1538,    1539,    1561,    1560,    1246,    1247,    1269,    1268
     106,    1537,    1538,    1560,    1559,    1245,    1246,    1268,    1267
     107,    1549,    1536,    1537,    1559,    1257,    1244,    1245,    1267
     108,    1548,    1549,    1559,    1558,    1256,    1257,    1267,    1266
     109,    1547,    1548,    1558,    1557,    1255,    1256,    1266,    1265
     110,    1546,    1547,    1557,    1556,    1254,    1255,    1265,    1264
     111,    1545,    1546,    1556,    1555,    1253,    1254,    1264,    1263
     112,    1534,    1535,    1545,    1555,    1242,    1243,    1253,    1263
     113,    1533,    1534,    1555,    1554,    1241,    1242,    1263,    1262
     114,    1532,    1533,    1554,    1553,    1240,    1241,    1262,    1261
     115,    1531,    1532,    1553,    1552,    1239,    1240,    1261,    1260
     116,    1530,    1531,    1552,    1551,    1238,    1239,    1260,    1259
     117,    1529,    1530,    1551,    1550,    1237,    1238,    1259,    1258
     118,    1528,    1529,    1550,    1544,    1236,    1237,    1258,    1252
     119,    1053,    1052,    1541,    1540,    1043,    1042,    1249,    1248
     120,    1512,    1513,    1536,    1549,    1230,    1229,    1244,    1257
     121,    1511,    1512,    1549,    1548,    1231,    1230,    1257,    1256
     122,    1510,    1511,    1548,    1547,    1232,    1231,    1256,    1255
     123,    1509,    1510,    1547,    1546,    1233,    1232,    1255,    1254
     124,    1508,    1509,    1546,    1545,    1234,    1233,    1254,    1253
     125,    1507,    1508,    1545,    1535,    1235,    1234,    1253,    1243
     126,    1518,    1519,    1528,    1544,    1216,    1215,    1236,    1252
     127,    1517,    1518,    1544,    1543,    1217,    1216,    1252,    1251
     128,    1516,    1517,    1543,    1542,    1218,    1217,    1251,    1250
     129,    1515,    1516,    1542,    1541,    1219,    1218,    1250,    1249
     130,    1051,    1515,    1541,    1052,    1041,    1219,    1249,    1042
     131,    1501,    1050,    1053,    1540,    1213,    1038,    1043,    1248
     132,    1502,    1501,    1540,    1539,    1212,    1213,    1248,    1247
     133,    1503,    1502,    1539,    1538,    1211,    1212,    1247,    1246
     134,    1504,    1503,    1538,    1537,    1210,    1211,    1246,    1245
     135,    1505,    1504,    1537,    1536,    1209,    1210,    1245,    1244
     136,    1500,    1505,    1536,    1513,    1208,    1209,    1244,    1229
     137,    1527,    1506,    1507,    1535,    1221,    1220,    1235,    1243
     138,    1526,    1527,    1535,    1534,    1222,    1221,    1243,    1242
     139,    1525,    1526,    1534,    1533,    1223,    1222,    1242,    1241
     140,    1524,    1525,    1533,    1532,    1224,    1223,    1241,    1240
     141,    1523,    1524,    1532,    1531,    1225,    1224,    1240,    1239
     142,    1522,    1523,    1531,    1530,    1226,    1225,    1239,    1238
     143,    1521,    1522,    1530,    1529,    1227,    1226,    1238,    1237
     144,    1520,    1521,    1529,    1528,    1228,    1227,    1237,    1236
     145,    1514,    1520,    1528,    1519,    1214,    1228,    1236,    1215
     146,    1260,    1277,    1270,    1271,    1389,    1407,    1399,    1400
     147,    1260,    1261,    1278,    1277,    1389,    1390,    1403,    1407
     148,    1277,    1278,    1280,    1276,    1407,    1403,    1409,    1406
     149,    1275,    1276,    1280,    1279,    1405,    1406,    1409,    1408
     150,    1274,    1279,    1280,    1278,    1404,    1408,    1409,    1403
     151,    1265,    1266,    1275,    1279,    1394,    1395,    1405,    1408
     152,    1264,    1265,    1279,    1274,    1393,    1394,    1408,    1404
     153,    1269,    1270,    1277,    1276,    1398,    1399,    1407,    1406
     154,    1268,    1269,    1276,    1275,    1397,    1398,    1406,    1405
     155,    1267,    1268,    1275,    1266,    1396,    1397,    1405,    1395
     156,    1262,    1263,    1264,    1274,    1391,    1392,    1393,    1404
     157,    1261,    1262,    1274,    1278,    1390,    1391,    1404,    1403
     158,    1259,    1260,    1271,    1273,    1388,    1389,    1400,    1401
     159,    1258,    1259,    1273,    1272,    1387,    1388,    1401,    1402
     160,    1251,    1252,    1258,    1272,    1380,    1381,    1387,    1402
     161,    1250,    1251,    1272,    1273,    1379,    1380,    1402,    1401
     162,    1249,    1250,    1273,    1271,    1378,    1379,    1401,    1400
     163,    1248,    1249,    1271,    1270,    1377,    1378,    1400,    1399
     164,    1247,    1248,    1270,    1269,    1376,    1377,    1399,    1398
     165,    1246,    1247,    1269,    1268,    1375,    1376,    1398,    1397
     166,    1245,    1246,    1268,    1267,    1374,    1375,    1397,    1396
     167,    1257,    1244,    1245,    1267,    1386,    1373,    1374,    1396
     168,    1256,    1257,    1267,    1266,    1385,    1386,    1396,    1395
     169,    1255,    1256,    1266,    1265,    1384,    1385,    1395,    1394
     170,    1254,    1255,    1265,    1264,    1383,    1384,    1394,    1393
     171,    1253,    1254,    1264,    1263,    1382,    1383,    1393,    1392
     172,    1242,    1243,    1253,    1263,    1371,    1372,    1382,    1392
     173,    1241,    1242,    1263,    1262,    1370,    1371,    1392,    1391
     174,    1240,    1241,    1262,    1261,    1369,    1370,    1391,    1390
     175,    1239,    1240,    1261,    1260,    1368,    1369,    1390,    1389
     176,    1238,    1239,    1260,    1259,    1367,    1368,    1389,    1388
     177,    1237,    1238,    1259,    1258,    1366,    1367,    1388,    1387
     178,    1236,    1237,    1258,    1252,    1365,    1366,    1387,    1381
     179,    1043,    1042,    1249,    1248,    1047,    1049,    1378,    1377
     180,    1230,    1229,    1244,    1257,    1311,    1309,    1373,    1386
     181,    1231,    1230,    1257,    1256,    1313,    1311,    1386,    1385
     182,    1232,    1231,    1256,    1255,    1315,    1313,    1385,    1384
     183,    1233,    1232,    1255,    1254,    1317,    1315,    1384,    1383
     184,    1234,    1233,    1254,    1253,    1319,    1317,    1383,    1382
     185,    1235,    1234,    1253,    1243,    1321,    1319,    1382,    1372
     186,    1216,    1215,    1236,    1252,    1334,    1335,    1365,    1381
     187,    1217,    1216,    1252,    1251,    1333,    1334,    1381,    1380
     188,    1218,    1217,    1251,    1250,    1332,    1333,    1380,    1379
     189,    1219,    1218,    1250,    1249,    1331,    1332,    1379,    1378
     190,    1041,    1219,    1249,    1042,    1045,    1331,    1378,    1049
     191,    1213,    1038,    1043,    1248,    1289,    1040,    1047,    1377
     192,    1212,    1213,    1248,    1247,    1291,    1289,    1377,    1376
     193,    1211,    1212,    1247,    1246,    1293,    1291,    1376,    1375
     194,    1210,    1211,    1246,    1245,    1295,    1293,    1375,    1374
     195,    1209,    1210,    1245,    1244,    1297,    1295,    1374,    1373
     196,    1208,    1209,    1244,    1229,    1287,    1297,    1373,    1309
     197,    1221,    1220,    1235,    1243,    1364,    1308,    1321,    1372
     198,    1222,    1221,    1243,    1242,    1362,    1364,    1372,    1371
     199,    1223,    1222,    1242,    1241,    1360,    1362,    1371,    1370
     200,    1224,    1223,    1241,    1240,    1358,    1360,    1370,    1369
     201,    1225,    1224,    1240,    1239,    1356,    1358,    1369,    1368
     202,    1226,    1225,    1239,    1238,    1354,    1356,    1368,    1367
     203,    1227,    1226,    1238,    1237,    1352,    1354,    1367,    1366
     204,    1228,    1227,    1237,    1236,    1350,    1352,    1366,    1365
     205,    1214,    1228,    1236,    1215,    1324,    1350,    1365,    1335
     206,    1389,    1407,    1399,    1400,    1434,    1452,    1444,    1445
     207,    1389,    1390,    1403,    1407,    1434,    1435,    1448,    1452
     208,    1407,    1403,    1409,    1406,    1452,    1448,    1454,    1451
     209,    1405,    1406,    1409,    1408,    1450,    1451,    1454,    1453
     210,    1404,    1408,    1409,    1403,    1449,    1453,    1454,    1448
     211,    1394,    1395,    1405,    1408,    1439,    1440,    1450,    1453
     212,    1393,    1394,    1408,    1404,    1438,    1439,    1453,    1449
     213,    1398,    1399,    1407,    1406,    1443,    1444,    1452,    1451
     214,    1397,    1398,    1406,    1405,    1442,    1443,    1451,    1450
     215,    1396,    1397,    1405,    1395,    1441,    1442,    1450,    1440
     216,    1391,    1392,    1393,    1404,    1436,    1437,    1438,    1449
     217,    1390,    1391,    1404,    1403,    1435,    1436,    1449,    1448
     218,    1388,    1389,    1400,    1401,    1433,    1434,    1445,    1446
     219,    1387,    1388,    1401,    1402,    1432,    1433,    1446,    1447
     220,    1380,    1381,    1387,    1402,    1425,    1426,    1432,    1447
     221,    1379,    1380,    1402,    1401,    1424,    1425,    1447,    1446
     222,    1378,    1379,    1401,    1400,    1423,    1424,    1446,    1445
     223,    1377,    1378,    1400,    1399,    1422,    1423,    1445,    1444
     224,    1376,    1377,    1399,    1398,    1421,    1422,    1444,    1443
     225,    1375,    1376,    1398,    1397,    1420,    1421,    1443,    1442
     226,    1374,    1375,    1397,    1396,    1419,    1420,    1442,    1441
     227,    1386,    1373,    1374,    1396,    1431,    1418,    1419,    1441
     228,    1385,    1386,    1396,    1395,    1430,    1431,    1441,    1440
     229,    1384,    1385,    1395,    1394,    1429,    1430,    1440,    1439
     230,    1383,    1384,    1394,    1393,    1428,    1429,    1439,    1438
     231,    1382,    1383,    1393,    1392,    1427,    1428,    1438,    1437
     232,    1371,    1372,    1382,    1392,    1416,    1417,    1427,    1437
     233,    1370,    1371,    1392,    1391,    1415,    1416,    1437,    1436
     234,    1369,    1370,    1391,    1390,    1414,    1415,    1436,    1435
     235,    1368,    1369,    1390,    1389,    1413,    1414,    1435,    1434
     236,    1367,    1368,    1389,    1388,    1412,    1413,    1434,    1433
     237,    1366,    1367,    1388,    1387,    1411,    1412,    1433,    1432
     238,    1365,    1366,    1387,    1381,    1410,    1411,    1432,    1426
     239,    1047,    1049,    1378,    1377,    1046,    1048,    1423,    1422
     240,    1311,    1309,    1373,    1386,    1312,    1310,    1418,    1431
     241,    1313,    1311,    1386,    1385,    1314,    1312,    1431,    1430
     242,    1315,    1313,    1385,    1384,    1316,    1314,    1430,    1429
     243,    1317,    1315,    1384,    1383,    1318,    1316,    1429,    1428
     244,    1319,    1317,    1383,    1382,    1320,    1318,    1428,    1427
     245,    1321,    1319,    1382,    1372,    1322,    1320,    1427,    1417
     246,    1334,    1335,    1365,    1381,    1339,    1340,    1410,    1426
     247,    1333,    1334,    1381,    1380,    1338,    1339,    1426,    1425
     248,    1332,    1333,    1380,    1379,    1337,    1338,    1425,    1424
     249,    1331,    1332,    1379,    1378,    1336,    1337,    1424,    1423
     250,    1045,    1331,    1378,    1049,    1044,    1336,    1423,    1048
     251,    1289,    1040,    1047,    1377,    1290,    1039,    1046,    1422
     252,    1291,    1289,    1377,    1376,    1292,    1290,    1422,    1421
     253,    1293,    1291,    1376,    1375,    1294,    1292,    1421,    1420
     254,    1295,    1293,    1375,    1374,    1296,    1294,    1420,    1419
     255,    1297,    1295,    1374,    1373,    1298,    1296,    1419,    1418
     256,    1287,    1297,    1373,    1309,    1288,    1298,    1418,    1310
     257,    1364,    1308,    1321,    1372,    1363,    1307,    1322,    1417
     258,    1362,    1364,    1372,    1371,    1361,    1363,    1417,    1416
     259,    1360,    1362,    1371,    1370,    1359,    1361,    1416,    1415
     260,    1358,    1360,    1370,    1369,    1357,    1359,    1415,    1414
     261,    1356,    1358,    1369,    1368,    1355,    1357,    1414,    1413
     262,    1354,    1356,    1368,    1367,    1353,    1355,    1413,    1412
     263,    1352,    1354,    1367,    1366,    1351,    1353,    1412,    1411
     264,    1350,    1352,    1366,    1365,    1349,    1351,    1411,    1410
     265,    1324,    1350,    1365,    1335,    1325,    1349,    1410,    1340
     266,    1434,    1452,    1444,    1445,    1479,    1497,    1489,    1490
     267,    1434,    1435,    1448,    1452,    1479,    1480,    1493,    1497
     268,    1452,    1448,    1454,    1451,    1497,    1493,    1499,    1496
     269,    1450,    1451,    1454,    1453,    1495,    1496,    1499,    1498
     270,    1449,    1453,    1454,    1448,    1494,    1498,    1499,    1493
     271,    1439,    1440,    1450,    1453,    1484,    1485,    1495,    1498
     272,    1438,    1439,    1453,    1449,    1483,    1484,    1498,    1494
     273,    1443,    1444,    1452,    1451,    1488,    1489,    1497,    1496
     274,    1442,    1443,    1451,    1450,    1487,    1488,    1496,    1495
     275,    1441,    1442,    1450,    1440,    1486,    1487,    1495,    1485
     276,    1436,    1437,    1438,    1449,    1481,    1482,    1483,    1494
     277,    1435,    1436,    1449,    1448,    1480,    1481,    1494,    1493
     278,    1433,    1434,    1445,    1446,    1478,    1479,    1490,    1491
     279,    1432,    1433,    1446,    1447,    1477,    1478,    1491,    1492
     280,    1425,    1426,    1432,    1447,    1470,    1471,    1477,    1492
     281,    1424,    1425,    1447,    1446,    1469,    1470,    1492,    1491
     282,    1423,    1424,    1446,    1445,    1468,    1469,    1491,    1490
     283,    1422,    1423,    1445,    1444,    1467,    1468,    1490,    1489
     284,    1421,    1422,    1444,    1443,    1466,    1467,    1489,    1488
     285,    1420,    1421,    1443,    1442,    1465,    1466,    1488,    1487
     286,    1419,    1420,    1442,    1441,    1464,    1465,    1487,    1486
     287,    1431,    1418,    1419,    1441,    1476,    1463,    1464,    1486
     288,    1430,    1431,    1441,    1440,    1475,    1476,    1486,    1485
     289,    1429,    1430,    1440,    1439,    1474,    1475,    1485,    1484
     290,    1428,    1429,    1439,    1438,    1473,    1474,    1484,    1483
     291,    1427,    1428,    1438,    1437,    1472,    1473,    1483,    1482
     292,    1416,    1417,    1427,    1437,    1461,    1462,    1472,    1482
     293,    1415,    1416,    1437,    1436,    1460,    1461,    1482,    1481
     294,    1414,    1415,    1436,    1435,    1459,    1460,    1481,    1480
     295,    1413,    1414,    1435,    1434,    1458,    1459,    1480,    1479
     296,    1412,    1413,    1434,    1433,    1457,    1458,    1479,    1478
     297,    1411,    1412,    1433,    1432,    1456,    1457,    1478,    1477
     298,    1410,    1411,    1432,    1426,    1455,    1456,    1477,    1471
     299,    1046,    1048,    1423,    1422,    1035,    1034,    1468,    1467
     300,    1312,    1310,    1418,    1431,    1301,    1300,    1463,    1476
     301,    1314,    1312,    1431,    1430,    1302,    1301,    1476,    1475
     302,    1316,    1314,    1430,    1429,    1303,    1302,    1475,    1474
     303,    1318,    1316,    1429,    1428,    1304,    1303,    1474,    1473
     304,    1320,    1318,    1428,    1427,    1305,    1304,    1473,    1472
     305,    1322,    1320,    1427,    1417,    1306,    1305,    1472,    1462
     306,    1339,    1340,    1410,    1426,    1327,    1326,    1455,    1471
     307,    1338,    1339,    1426,    1425,    1328,    1327,    1471,    1470
     308,    1337,    1338,    1425,    1424,    1329,    1328,    1470,    1469
     309,    1336,    1337,    1424,    1423,    1330,    1329,    1469,    1468
     310,    1044,    1336,    1423,    1048,    1031,    1330,    1468,    1034
     311,    1290,    1039,    1046,    1422,    1286,    1028,    1035,    1467
     312,    1292,    1290,    1422,    1421,    1285,    1286,    1467,    1466
     313,    1294,    1292,    1421,    1420,    1284,    1285,    1466,    1465
     314,    1296,    1294,    1420,    1419,    1283,    1284,    1465,    1464
     315,    1298,    1296,    1419,    1418,    1282,    1283,    1464,    1463
     316,    1288,    1298,    1418,    1310,    1281,    1282,    1463,    1300
     317,    1363,    1307,    1322,    1417,    1348,    1299,    1306,    1462
     318,    1361,    1363,    1417,    1416,    1347,    1348,    1462,    1461
     319,    1359,    1361,    1416,    1415,    1346,    1347,    1461,    1460
     320,    1357,    1359,    1415,    1414,    1345,    1346,    1460,    1459
     321,    1355,    1357,    1414,    1413,    1344,    1345,    1459,    1458
     322,    1353,    1355,    1413,    1412,    1343,    1344,    1458,    1457
     323,    1351,    1353,    1412,    1411,    1342,    1343,    1457,    1456
     324,    1349,    1351,    1411,    1410,    1341,    1342,    1456,    1455
     325,    1325,    1349,    1410,    1340,    1323,    1341,    1455,    1326
     326,    2700,    2683,    2738,    2741,    2649,    2648,    2651,    2653
     327,    2740,    2684,    2700,    2741,    2654,    2650,    2649,    2653
     328,    1085,    1070,    2684,    2740,    1084,    1054,    2650,    2654
     329,    2739,    1072,    1085,    2740,    2652,    1071,    1084,    2654
     330,    2738,    2739,    2740,    2741,    2651,    2652,    2654,    2653
     331,    2701,    2682,    2736,    2743,    2700,    2683,    2738,    2741
     332,    2742,    2685,    2701,    2743,    2740,    2684,    2700,    2741
     333,    1086,    1069,    2685,    2742,    1085,    1070,    2684,    2740
     334,    2737,    1073,    1086,    2742,    2739,    1072,    1085,    2740
     335,    2736,    2737,    2742,    2743,    2738,    2739,    2740,    2741
     336,    2702,    2681,    2734,    2745,    2701,    2682,    2736,    2743
     337,    2744,    2686,    2702,    2745,    2742,    2685,    2701,    2743
     338,    1087,    1068,    2686,    2744,    1086,    1069,    2685,    2742
     339,    2735,    1074,    1087,    2744,    2737,    1073,    1086,    2742
     340,    2734,    2735,    2744,    2745,    2736,    2737,    2742,    2743
     341,    2703,    2680,    2732,    2747,    2702,    2681,    2734,    2745
     342,    2746,    2687,    2703,    2747,    2744,    2686,    2702,    2745
     343,    1088,    1067,    2687,    2746,    1087,    1068,    2686,    2744
     344,    2733,    1075,    1088,    2746,    2735,    1074,    1087,    2744
     345,    2732,    2733,    2746,    2747,    2734,    2735,    2744,    2745
     346,    2704,    2679,    2730,    2749,    2703,    2680,    2732,    2747
     347,    2748,    2688,    2704,    2749,    2746,    2687,    2703,    2747
     348,    1089,    1066,    2688,    2748,    1088,    1067,    2687,    2746
     349,    2731,    1076,    1089,    2748,    2733,    1075,    1088,    2746
     350,    2730,    2731,    2748,    2749,    2732,    2733,    2746,    2747
     351,    2705,    2678,    2728,    2751,    2704,    2679,    2730,    2749
     352,    2750,    2689,    2705,    2751,    2748,    2688,    2704,    2749
     353,    1090,    1065,    2689,    2750,    1089,    1066,    2688,    2748
     354,    2729,    1077,    1090,    2750,    2731,    1076,    1089,    2748
     355,    2728,    2729,    2750,    2751,    2730,    2731,    2748,    2749
     356,    2706,    2677,    2726,    2753,    2705,    2678,    2728,    2751
     357,    2752,    2690,    2706,    2753,    2750,    2689,    2705,    2751
     358,    1091,    1064,    2690,    2752,    1090,    1065,    2689,    2750
     359,    2727,    1078,    1091,    2752,    2729,    1077,    1090,    2750
     360,    2726,    2727,    2752,    2753,    2728,    2729,    2750,    2751
     361,    2707,    2676,    2724,    2755,    2706,    2677,    2726,    2753
     362,    2754,    2691,    2707,    2755,    2752,    2690,    2706,    2753
     363,    1092,    1063,    2691,    2754,    1091,    1064,    2690,    2752
     364,    2725,    1079,    1092,    2754,    2727,    1078,    1091,    2752
     365,    2724,    2725,    2754,    2755,    2726,    2727,    2752,    2753
     366,    2708,    2675,    2722,    2757,    2707,    2676,    2724,    2755
     367,    2756,    2692,    2708,    2757,    2754,    2691,    2707,    2755
     368,    1093,    1062,    2692,    2756,    1092,    1063,    2691,    2754
     369,    2723,    1080,    1093,    2756,    2725,    1079,    1092,    2754
     370,    2722,    2723,    2756,    2757,    2724,    2725,    2754,    2755
     371,    2709,    2674,    2720,    2759,    2708,    2675,    2722,    2757
     372,    2758,    2693,    2709,    2759,    2756,    2692,    2708,    2757
     373,    1094,    1061,    2693,    2758,    1093,    1062,    2692,    2756
     374,    2721,    1081,    1094,    2758,    2723,    1080,    1093,    2756
     375,    2720,    2721,    2758,    2759,    2722,    2723,    2756,    2757
     376,    2710,    2673,    2718,    2761,    2709,    2674,    2720,    2759
     377,    2760,    2694,    2710,    2761,    2758,    2693,    2709,    2759
     378,    1095,    1060,    2694,    2760,    1094,    1061,    2693,    2758
     379,    2719,    1082,    1095,    2760,    2721,    1081,    1094,    2758
     380,    2718,    2719,    2760,    2761,    2720,    2721,    2758,    2759
     381,    2711,    2672,    2716,    2763,    2710,    2673,    2718,    2761
     382,    2762,    2695,    2711,    2763,    2760,    2694,    2710,    2761
     383,    1096,    1059,    2695,    2762,    1095,    1060,    2694,    2760
     384,    2717,    1083,    1096,    2762,    2719,    1082,    1095,    2760
     385,    2716,    2717,    2762,    2763,    2718,    2719,    2760,    2761
     386,    2712,    2667,    2669,    2765,    2711,    2672,    2716,    2763
     387,    2764,    2696,    2712,    2765,    2762,    2695,    2711,    2763
     388,    1097,    1058,    2696,    2764,    1096,    1059,    2695,    2762
     389,    2668,    1050,    1097,    2764,    2717,    1083,    1096,    2762
     390,    2669,    2668,    2764,    2765,    2716,    2717,    2762,    2763
     391,    2713,    2658,    2662,    2767,    2712,    2667,    2669,    2765
     392,    2766,    2697,    2713,    2767,    2764,    2696,    2712,    2765
     393,    1098,    1057,    2697,    2766,    1097,    1058,    2696,    2764
     394,    2661,    1038,    1098,    2766,    2668,    1050,    1097,    2764
     395,    2662,    2661,    2766,    2767,    2669,    2668,    2764,    2765
     396,    2714,    2659,    2665,    2769,    2713,    2658,    2662,    2767
     397,    2768,    2698,    2714,    2769,    2766,    2697,    2713,    2767
     398,    1099,    1056,    2698,    2768,    1098,    1057,    2697,    2766
     399,    2663,    1040,    1099,    2768,    2661,    1038,    1098,    2766
     400,    2665,    2663,    2768,    2769,    2662,    2661,    2766,    2767
     401,    2715,    2660,    2666,    2771,    2714,    2659,    2665,    2769
     402,    2770,    2699,    2715,    2771,    2768,    2698,    2714,    2769
     403,    1100,    1055,    2699,    2770,    1099,    1056,    2698,    2768
     404,    2664,    1039,    1100,    2770,    2663,    1040,    1099,    2768
     405,    2666,    2664,    2770,    2771,    2665,    2663,    2768,    2769
     406,    2671,    2655,    2657,    2773,    2715,    2660,    2666,    2771
     407,    2772,    2670,    2671,    2773,    2770,    2699,    2715,    2771
     408,    1030,    1029,    2670,    2772,    1100,    1055,    2699,    2770
     409,    2656,    1028,    1030,    2772,    2664,    1039,    1100,    2770
     410,    2657,    2656,    2772,    2773,    2666,    2664,    2770,    2771
     411,    3131,    3133,    3129,    3130,    2843,    2845,    2841,    2842
     412,    3133,    3132,    3128,    3129,    2845,    2844,    2840,    2841
     413,    3123,    3124,    3132,    3133,    2835,    2836,    2844,    2845
     414,    3122,    3123,    3133,    3131,    2834,    2835,    2845,    2843
     415,    3126,    3127,    3128,    3132,    2838,    2839,    2840,    2844
     416,    3125,    3126,    3132,    3124,    2837,    2838,    2844,    2836
     417,    3114,    3115,    3122,    3131,    2826,    2827,    2834,    2843
     418,    3113,    3114,    3131,    3130,    2825,    2826,    2843,    2842
     419,    3121,    3112,    3113,    3130,    2833,    2824,    2825,    2842
     420,    3120,    3121,    3130,    3129,    2832,    2833,    2842,    2841
     421,    3119,    3120,    3129,    3128,    2831,    2832,    2841,    2840
     422,    3118,    3119,    3128,    3127,    2830,    2831,    2840,    2839
     423,    3117,    3118,    3127,    3126,    2829,    2830,    2839,    2838
     424,    3116,    3117,    3126,    3125,    2828,    2829,    2838,    2837
     425,    3110,    3111,    3116,    3125,    2822,    2823,    2828,    2837
     426,    3109,    3110,    3125,    3124,    2821,    2822,    2837,    2836
     427,    3108,    3109,    3124,    3123,    2820,    2821,    2836,    2835
     428,    3107,    3108,    3123,    3122,    2819,    2820,    2835,    2834
     429,    3106,    3107,    3122,    3115,    2818,    2819,    2834,    2827
     430,    3094,    3095,    3112,    3121,    2806,    2807,    2824,    2833
     431,    3093,    3094,    3121,    3120,    2805,    2806,    2833,    2832
     432,    3092,    3093,    3120,    3119,    2804,    2805,    2832,    2831
     433,    3100,    3092,    3119,    3118,    2812,    2804,    2831,    2830
     434,    3099,    3100,    3118,    3117,    2811,    2812,    2830,    2829
     435,    3098,    3099,    3117,    3116,    2810,    2811,    2829,    2828
     436,    3097,    3098,    3116,    3111,    2809,    2810,    2828,    2823
     437,    3104,    3105,    3106,    3115,    2816,    2817,    2818,    2827
     438,    3103,    3104,    3115,    3114,    2815,    2816,    2827,    2826
     439,    3102,    3103,    3114,    3113,    2814,    2815,    2826,    2825
     440,    3101,    3102,    3113,    3112,    2813,    2814,    2825,    2824
     441,    3096,    3101,    3112,    3095,    2808,    2813,    2824,    2807
     442,    3090,    3091,    3097,    3111,    2802,    2803,    2809,    2823
     443,    3089,    3090,    3111,    3110,    2801,    2802,    2823,    2822
     444,    3088,    3089,    3110,    3109,    2800,    2801,    2822,    2821
     445,    3087,    3088,    3109,    3108,    2799,    2800,    2821,    2820
     446,    3086,    3087,    3108,    3107,    2798,    2799,    2820,    2819
     447,    3085,    3086,    3107,    3106,    2797,    2798,    2819,    2818
     448,    3084,    3085,    3106,    3105,    2796,    2797,    2818,    2817
     449,    2669,    2668,    3092,    3100,    2662,    2661,    2804,    2812
     450,    3082,    3083,    3084,    3105,    2776,    2775,    2796,    2817
     451,    3081,    3082,    3105,    3104,    2777,    2776,    2817,    2816
     452,    3080,    3081,    3104,    3103,    2778,    2777,    2816,    2815
     453,    3079,    3080,    3103,    3102,    2779,    2778,    2815,    2814
     454,    3078,    3079,    3102,    3101,    2780,    2779,    2814,    2813
     455,    3077,    3078,    3101,    3096,    2781,    2780,    2813,    2808
     456,    3067,    2667,    2669,    3100,    2791,    2658,    2662,    2812
     457,    3066,    3067,    3100,    3099,    2792,    2791,    2812,    2811
     458,    3065,    3066,    3099,    3098,    2793,    2792,    2811,    2810
     459,    3064,    3065,    3098,    3097,    2794,    2793,    2810,    2809
     460,    3063,    3064,    3097,    3091,    2795,    2794,    2809,    2803
     461,    1505,    1500,    3077,    3096,    1209,    1208,    2781,    2808
     462,    1504,    1505,    3096,    3095,    1210,    1209,    2808,    2807
     463,    1503,    1504,    3095,    3094,    1211,    1210,    2807,    2806
     464,    1502,    1503,    3094,    3093,    1212,    1211,    2806,    2805
     465,    1501,    1502,    3093,    3092,    1213,    1212,    2805,    2804
     466,    1050,    1501,    3092,    2668,    1038,    1213,    2804,    2661
     467,    3069,    3062,    3063,    3091,    2783,    2782,    2795,    2803
     468,    3070,    3069,    3091,    3090,    2784,    2783,    2803,    2802
     469,    3071,    3070,    3090,    3089,    2785,    2784,    2802,    2801
     470,    3072,    3071,    3089,    3088,    2786,    2785,    2801,    2800
     471,    3073,    3072,    3088,    3087,    2787,    2786,    2800,    2799
     472,    3074,    3073,    3087,    3086,    2788,    2787,    2799,    2798
     473,    3075,    3074,    3086,    3085,    2789,    2788,    2798,    2797
     474,    3076,    3075,    3085,    3084,    2790,    2789,    2797,    2796
     475,    3068,    3076,    3084,    3083,    2774,    2790,    2796,    2775
     476,    2843,    2845,    2841,    2842,    2959,    2961,    2957,    2958
     477,    2845,    2844,    2840,    2841,    2961,    2960,    2956,    2957
     478,    2835,    2836,    2844,    2845,    2951,    2952,    2960,    2961
     479,    2834,    2835,    2845,    2843,    2950,    2951,    2961,    2959
     480,    2838,    2839,    2840,    2844,    2954,    2955,    2956,    2960
     481,    2837,    2838,    2844,    2836,    2953,    2954,    2960,    2952
     482,    2826,    2827,    2834,    2843,    2942,    2943,    2950,    2959
     483,    2825,    2826,    2843,    2842,    2941,    2942,    2959,    2958
     484,    2833,    2824,    2825,    2842,    2949,    2940,    2941,    2958
     485,    2832,    2833,    2842,    2841,    2948,    2949,    2958,    2957
     486,    2831,    2832,    2841,    2840,    2947,    2948,    2957,    2956
     487,    2830,    2831,    2840,    2839,    2946,    2947,    2956,    2955
     488,    2829,    2830,    2839,    2838,    2945,    2946,    2955,    2954
     489,    2828,    2829,    2838,    2837,    2944,    2945,    2954,    2953
     490,    2822,    2823,    2828,    2837,    2938,    2939,    2944,    2953
     491,    2821,    2822,    2837,    2836,    2937,    2938,    2953,    2952
     492,    2820,    2821,    2836,    2835,    2936,    2937,    2952,    2951
     493,    2819,    2820,    2835,    2834,    2935,    2936,    2951,    2950
     494,    2818,    2819,    2834,    2827,    2934,    2935,    2950,    2943
     495,    2806,    2807,    2824,    2833,    2922,    2923,    2940,    2949
     496,    2805,    2806,    2833,    2832,    2921,    2922,    2949,    2948
     497,    2804,    2805,    2832,    2831,    2920,    2921,    2948,    2947
     498,    2812,    2804,    2831,    2830,    2928,    2920,    2947,    2946
     499,    2811,    2812,    2830,    2829,    2927,    2928,    2946,    2945
     500,    2810,    2811,    2829,    2828,    2926,    2927,    2945,    2944
     501,    2809,    2810,    2828,    2823,    2925,    2926,    2944,    2939
     502,    2816,    2817,    2818,    2827,    2932,    2933,    2934,    2943
     503,    2815,    2816,    2827,    2826,    2931,    2932,    2943,    2942
     504,    2814,    2815,    2826,    2825,    2930,    2931,    2942,    2941
     505,    2813,    2814,    2825,    2824,    2929,    2930,    2941,    2940
     506,    2808,    2813,    2824,    2807,    2924,    2929,    2940,    2923
     507,    2802,    2803,    2809,    2823,    2918,    2919,    2925,    2939
     508,    2801,    2802,    2823,    2822,    2917,    2918,    2939,    2938
     509,    2800,    2801,    2822,    2821,    2916,    2917,    2938,    2937
     510,    2799,    2800,    2821,    2820,    2915,    2916,    2937,    2936
     511,    2798,    2799,    2820,    2819,    2914,    2915,    2936,    2935
     512,    2797,    2798,    2819,    2818,    2913,    2914,    2935,    2934
     513,    2796,    2797,    2818,    2817,    2912,    2913,    2934,    2933
     514,    2662,    2661,    2804,    2812,    2665,    2663,    2920,    2928
     515,    2776,    2775,    2796,    2817,    2885,    2887,    2912,    2933
     516,    2777,    2776,    2817,    2816,    2883,    2885,    2933,    2932
     517,    2778,    2777,    2816,    2815,    2881,    2883,    2932,    2931
     518,    2779,    2778,    2815,    2814,    2879,    2881,    2931,    2930
     519,    2780,    2779,    2814,    2813,    2877,    2879,    2930,    2929
     520,    2781,    2780,    2813,    2808,    2875,    2877,    2929,    2924
     521,    2791,    2658,    2662,    2812,    2858,    2659,    2665,    2928
     522,    2792,    2791,    2812,    2811,    2857,    2858,    2928,    2927
     523,    2793,    2792,    2811,    2810,    2856,    2857,    2927,    2926
     524,    2794,    2793,    2810,    2809,    2855,    2856,    2926,    2925
     525,    2795,    2794,    2809,    2803,    2854,    2855,    2925,    2919
     526,    1209,    1208,    2781,    2808,    1297,    1287,    2875,    2924
     527,    1210,    1209,    2808,    2807,    1295,    1297,    2924,    2923
     528,    1211,    1210,    2807,    2806,    1293,    1295,    2923,    2922
     529,    1212,    1211,    2806,    2805,    1291,    1293,    2922,    2921
     530,    1213,    1212,    2805,    2804,    1289,    1291,    2921,    2920
     531,    1038,    1213,    2804,    2661,    1040,    1289,    2920,    2663
     532,    2783,    2782,    2795,    2803,    2896,    2853,    2854,    2919
     533,    2784,    2783,    2803,    2802,    2898,    2896,    2919,    2918
     534,    2785,    2784,    2802,    2801,    2900,    2898,    2918,    2917
     535,    2786,    2785,    2801,    2800,    2902,    2900,    2917,    2916
     536,    2787,    2786,    2800,    2799,    2904,    2902,    2916,    2915
     537,    2788,    2787,    2799,    2798,    2906,    2904,    2915,    2914
     538,    2789,    2788,    2798,    2797,    2908,    2906,    2914,    2913
     539,    2790,    2789,    2797,    2796,    2910,    2908,    2913,    2912
     540,    2774,    2790,    2796,    2775,    2865,    2910,    2912,    2887
     541,    2959,    2961,    2957,    2958,    3009,    3011,    3007,    3008
     542,    2961,    2960,    2956,    2957,    3011,    3010,    3006,    3007
     543,    2951,    2952,    2960,    2961,    3001,    3002,    3010,    3011
     544,    2950,    2951,    2961,    2959,    3000,    3001,    3011,    3009
     545,    2954,    2955,    2956,    2960,    3004,    3005,    3006,    3010
     546,    2953,    2954,    2960,    2952,    3003,    3004,    3010,    3002
     547,    2942,    2943,    2950,    2959,    2992,    2993,    3000,    3009
     548,    2941,    2942,    2959,    2958,    2991,    2992,    3009,    3008
     549,    2949,    2940,    2941,    2958,    2999,    2990,    2991,    3008
     550,    2948,    2949,    2958,    2957,    2998,    2999,    3008,    3007
     551,    2947,    2948,    2957,    2956,    2997,    2998,    3007,    3006
     552,    2946,    2947,    2956,    2955,    2996,    2997,    3006,    3005
     553,    2945,    2946,    2955,    2954,    2995,    2996,    3005,    3004
     554,    2944,    2945,    2954,    2953,    2994,    2995,    3004,    3003
     555,    2938,    2939,    2944,    2953,    2988,    2989,    2994,    3003
     556,    2937,    2938,    2953,    2952,    2987,    2988,    3003,    3002
     557,    2936,    2937,    2952,    2951,    2986,    2987,    3002,    3001
     558,    2935,    2936,    2951,    2950,    2985,    2986,    3001,    3000
     559,    2934,    2935,    2950,    2943,    2984,    2985,    3000,    2993
     560,    2922,    2923,    2940,    2949,    2972,    2973,    2990,    2999
     561,    2921,    2922,    2949,    2948,    2971,    2972,    2999,    2998
     562,    2920,    2921,    2948,    2947,    2970,    2971,    2998,    2997
     563,    2928,    2920,    2947,    2946,    2978,    2970,    2997,    2996
     564,    2927,    2928,    2946,    2945,    2977,    2978,    2996,    2995
     565,    2926,    2927,    2945,    2944,    2976,    2977,    2995,    2994
     566,    2925,    2926,    2944,    2939,    2975,    2976,    2994,    2989
     567,    2932,    2933,    2934,    2943,    2982,    2983,    2984,    2993
     568,    2931,    2932,    2943,    2942,    2981,    2982,    2993,    2992
     569,    2930,    2931,    2942,    2941,    2980,    2981,    2992,    2991
     570,    2929,    2930,    2941,    2940,    2979,    2980,    2991,    2990
     571,    2924,    2929,    2940,    2923,    2974,    2979,    2990,    2973
     572,    2918,    2919,    2925,    2939,    2968,    2969,    2975,    2989
     573,    2917,    2918,    2939,    2938,    2967,    2968,    2989,    2988
     574,    2916,    2917,    2938,    2937,    2966,    2967,    2988,    2987
     575,    2915,    2916,    2937,    2936,    2965,    2966,    2987,    2986
     576,    2914,    2915,    2936,    2935,    2964,    2965,    2986,    2985
     577,    2913,    2914,    2935,    2934,    2963,    2964,    2985,    2984
     578,    2912,    2913,    2934,    2933,    2962,    2963,    2984,    2983
     579,    2665,    2663,    2920,    2928,    2666,    2664,    2970,    2978
     580,    2885,    2887,    2912,    2933,    2884,    2886,    2962,    2983
     581,    2883,    2885,    2933,    2932,    2882,    2884,    2983,    2982
     582,    2881,    2883,    2932,    2931,    2880,    2882,    2982,    2981
     583,    2879,    2881,    2931,    2930,    2878,    2880,    2981,    2980
     584,    2877,    2879,    2930,    2929,    2876,    2878,    2980,    2979
     585,    2875,    2877,    2929,    2924,    2874,    2876,    2979,    2974
     586,    2858,    2659,    2665,    2928,    2863,    2660,    2666,    2978
     587,    2857,    2858,    2928,    2927,    2862,    2863,    2978,    2977
     588,    2856,    2857,    2927,    2926,    2861,    2862,    2977,    2976
     589,    2855,    2856,    2926,    2925,    2860,    2861,    2976,    2975
     590,    2854,    2855,    2925,    2919,    2859,    2860,    2975,    2969
     591,    1297,    1287,    2875,    2924,    1298,    1288,    2874,    2974
     592,    1295,    1297,    2924,    2923,    1296,    1298,    2974,    2973
     593,    1293,    1295,    2923,    2922,    1294,    1296,    2973,    2972
     594,    1291,    1293,    2922,    2921,    1292,    1294,    2972,    2971
     595,    1289,    1291,    2921,    2920,    1290,    1292,    2971,    2970
     596,    1040,    1289,    2920,    2663,    1039,    1290,    2970,    2664
     597,    2896,    2853,    2854,    2919,    2897,    2852,    2859,    2969
     598,    2898,    2896,    2919,    2918,    2899,    2897,    2969,    2968
     599,    2900,    2898,    2918,    2917,    2901,    2899,    2968,    2967
     600,    2902,    2900,    2917,    2916,    2903,    2901,    2967,    2966
     601,    2904,    2902,    2916,    2915,    2905,    2903,    2966,    2965
     602,    2906,    2904,    2915,    2914,    2907,    2905,    2965,    2964
     603,    2908,    2906,    2914,    2913,    2909,    2907,    2964,    2963
     604,    2910,    2908,    2913,    2912,    2911,    2909,    2963,    2962
     605,    2865,    2910,    2912,    2887,    2866,    2911,    2962,    2886
     606,    3009,    3011,    3007,    3008,    3059,    3061,    3057,    3058
     607,    3011,    3010,    3006,    3007,    3061,    3060,    3056,    3057
     608,    3001,    3002,    3010,    3011,    3051,    3052,    3060,    3061
     609,    3000,    3001,    3011,    3009,    3050,    3051,    3061,    3059
     610,    3004,    3005,    3006,    3010,    3054,    3055,    3056,    3060
     611,    3003,    3004,    3010,    3002,    3053,    3054,    3060,    3052
     612,    2992,    2993,    3000,    3009,    3042,    3043,    3050,    3059
     613,    2991,    2992,    3009,    3008,    3041,    3042,    3059,    3058
     614,    2999,    2990,    2991,    3008,    3049,    3040,    3041,    3058
     615,    2998,    2999,    3008,    3007,    3048,    3049,    3058,    3057
     616,    2997,    2998,    3007,    3006,    3047,    3048,    3057,    3056
     617,    2996,    2997,    3006,    3005,    3046,    3047,    3056,    3055
     618,    2995,    2996,    3005,    3004,    3045,    3046,    3055,    3054
     619,    2994,    2995,    3004,    3003,    3044,    3045,    3054,    3053
     620,    2988,    2989,    2994,    3003,    3038,    3039,    3044,    3053
     621,    2987,    2988,    3003,    3002,    3037,    3038,    3053,    3052
     622,    2986,    2987,    3002,    3001,    3036,    3037,    3052,    3051
     623,    2985,    2986,    3001,    3000,    3035,    3036,    3051,    3050
     624,    2984,    2985,    3000,    2993,    3034,    3035,    3050,    3043
     625,    2972,    2973,    2990,    2999,    3022,    3023,    3040,    3049
     626,    2971,    2972,    2999,    2998,    3021,    3022,    3049,    3048
     627,    2970,    2971,    2998,    2997,    3020,    3021,    3048,    3047
     628,    2978,    2970,    2997,    2996,    3028,    3020,    3047,    3046
     629,    2977,    2978,    2996,    2995,    3027,    3028,    3046,    3045
     630,    2976,    2977,    2995,    2994,    3026,    3027,    3045,    3044
     631,    2975,    2976,    2994,    2989,    3025,    3026,    3044,    3039
     632,    2982,    2983,    2984,    2993,    3032,    3033,    3034,    3043
     633,    2981,    2982,    2993,    2992,    3031,    3032,    3043,    3042
     634,    2980,    2981,    2992,    2991,    3030,    3031,    3042,    3041
     635,    2979,    2980,    2991,    2990,    3029,    3030,    3041,    3040
     636,    2974,    2979,    2990,    2973,    3024,    3029,    3040,    3023
     637,    2968,    2969,    2975,    2989,    3018,    3019,    3025,    3039
     638,    2967,    2968,    2989,    2988,    3017,    3018,    3039,    3038
     639,    2966,    2967,    2988,    2987,    3016,    3017,    3038,    3037
     640,    2965,    2966,    2987,    2986,    3015,    3016,    3037,    3036
     641,    2964,    2965,    2986,    2985,    3014,    3015,    3036,    3035
     642,    2963,    2964,    2985,    2984,    3013,    3014,    3035,    3034
     643,    2962,    2963,    2984,    2983,    3012,    3013,    3034,    3033
     644,    2666,    2664,    2970,    2978,    2657,    2656,    3020,    3028
     645,    2884,    2886,    2962,    2983,    2868,    2867,    3012,    3033
     646,    2882,    2884,    2983,    2982,    2869,    2868,    3033,    3032
     647,    2880,    2882,    2982,    2981,    2870,    2869,    3032,    3031
     648,    2878,    2880,    2981,    2980,    2871,    2870,    3031,    3030
     649,    2876,    2878,    2980,    2979,    2872,    2871,    3030,    3029
     650,    2874,    2876,    2979,    2974,    2873,    2872,    3029,    3024
     651,    2863,    2660,    2666,    2978,    2847,    2655,    2657,    3028
     652,    2862,    2863,    2978,    2977,    2848,    2847,    3028,    3027
     653,    2861,    2862,    2977,    2976,    2849,    2848,    3027,    3026
     654,    2860,    2861,    2976,    2975,    2850,    2849,    3026,    3025
     655,    2859,    2860,    2975,    2969,    2851,    2850,    3025,    3019
     656,    1298,    1288,    2874,    2974,    1282,    1281,    2873,    3024
     657,    1296,    1298,    2974,    2973,    1283,    1282,    3024,    3023
     658,    1294,    1296,    2973,    2972,    1284,    1283,    3023,    3022
     659,    1292,    1294,    2972,    2971,    1285,    1284,    3022,    3021
     660,    1290,    1292,    2971,    2970,    1286,    1285,    3021,    3020
     661,    1039,    1290,    2970,    2664,    1028,    1286,    3020,    2656
     662,    2897,    2852,    2859,    2969,    2888,    2846,    2851,    3019
     663,    2899,    2897,    2969,    2968,    2889,    2888,    3019,    3018
     664,    2901,    2899,    2968,    2967,    2890,    2889,    3018,    3017
     665,    2903,    2901,    2967,    2966,    2891,    2890,    3017,    3016
     666,    2905,    2903,    2966,    2965,    2892,    2891,    3016,    3015
     667,    2907,    2905,    2965,    2964,    2893,    2892,    3015,    3014
     668,    2909,    2907,    2964,    2963,    2894,    2893,    3014,    3013
     669,    2911,    2909,    2963,    2962,    2895,    2894,    3013,    3012
     670,    2866,    2911,    2962,    2886,    2864,    2895,    3012,    2867
*ELEMENT, TYPE=C3D8R, ELSET=mortar
     671,    3258,    3272,    3298,    3297,    3259,    3296,    3324,    3311
     672,    3272,    3271,    3299,    3298,    3296,    3295,    3325,    3324
     673,    3271,    3270,    3300,    3299,    3295,    3294,    3326,    3325
     674,    3270,    3269,    3301,    3300,    3294,    3293,    3327,    3326
     675,    3269,    3268,    3302,    3301,    3293,    3292,    3328,    3327
     676,    3268,    3267,    3303,    3302,    3292,    3291,    3329,    3328
     677,    3267,    3266,    3304,    3303,    3291,    3290,    3330,    3329
     678,    3266,    3265,    3305,    3304,    3290,    3289,    3331,    3330
     679,    3265,    3264,    3306,    3305,    3289,    3288,    3332,    3331
     680,    3264,    3263,    3307,    3306,    3288,    3287,    3333,    3332
     681,    3263,    3262,    3308,    3307,    3287,    3286,    3334,    3333
     682,    3262,    3261,    3309,    3308,    3286,    3285,    3335,    3334
     683,    3261,    3252,    3255,    3309,    3285,    3254,    3256,    3335
     684,    3259,    3296,    3324,    3311,    3260,    3284,    3312,    3310
     685,    3296,    3295,    3325,    3324,    3284,    3283,    3313,    3312
     686,    3295,    3294,    3326,    3325,    3283,    3282,    3314,    3313
     687,    3294,    3293,    3327,    3326,    3282,    3281,    3315,    3314
     688,    3293,    3292,    3328,    3327,    3281,    3280,    3316,    3315
     689,    3292,    3291,    3329,    3328,    3280,    3279,    3317,    3316
     690,    3291,    3290,    3330,    3329,    3279,    3278,    3318,    3317
     691,    3290,    3289,    3331,    3330,    3278,    3277,    3319,    3318
     692,    3289,    3288,    3332,    3331,    3277,    3276,    3320,    3319
     693,    3288,    3287,    3333,    3332,    3276,    3275,    3321,    3320
     694,    3287,    3286,    3334,    3333,    3275,    3274,    3322,    3321
     695,    3286,    3285,    3335,    3334,    3274,    3273,    3323,    3322
     696,    3285,    3254,    3256,    3335,    3273,    3253,    3257,    3323
     697,    3260,    3284,    3312,    3310,    3224,    3238,    3240,    3225
     698,    3284,    3283,    3313,    3312,    3238,    3237,    3241,    3240
     699,    3283,    3282,    3314,    3313,    3237,    3236,    3242,    3241
     700,    3282,    3281,    3315,    3314,    3236,    3235,    3243,    3242
     701,    3281,    3280,    3316,    3315,    3235,    3234,    3244,    3243
     702,    3280,    3279,    3317,    3316,    3234,    3233,    3245,    3244
     703,    3279,    3278,    3318,    3317,    3233,    3232,    3246,    3245
     704,    3278,    3277,    3319,    3318,    3232,    3231,    3247,    3246
     705,    3277,    3276,    3320,    3319,    3231,    3230,    3248,    3247
     706,    3276,    3275,    3321,    3320,    3230,    3229,    3249,    3248
     707,    3275,    3274,    3322,    3321,    3229,    3228,    3250,    3249
     708,    3274,    3273,    3323,    3322,    3228,    3227,    3251,    3250
     709,    3273,    3253,    3257,    3323,    3227,    3226,    3239,    3251
     710,    3226,    4260,    4217,    3239,    3227,    4272,    4219,    3251
     711,    4260,    4259,    4218,    4217,    4272,    4284,    4231,    4219
     712,    4259,    4246,    4204,    4218,    4284,    4258,    4205,    4231
     713,    3227,    4272,    4219,    3251,    3228,    4271,    4220,    3250
     714,    4272,    4284,    4231,    4219,    4271,    4283,    4232,    4220
     715,    4284,    4258,    4205,    4231,    4283,    4257,    4206,    4232
     716,    3228,    4271,    4220,    3250,    3229,    4270,    4221,    3249
     717,    4271,    4283,    4232,    4220,    4270,    4282,    4233,    4221
     718,    4283,    4257,    4206,    4232,    4282,    4256,    4207,    4233
     719,    3229,    4270,    4221,    3249,    3230,    4269,    4222,    3248
     720,    4270,    4282,    4233,    4221,    4269,    4281,    4234,    4222
     721,    4282,    4256,    4207,    4233,    4281,    4255,    4208,    4234
     722,    3230,    4269,    4222,    3248,    3231,    4268,    4223,    3247
     723,    4269,    4281,    4234,    4222,    4268,    4280,    4235,    4223
     724,    4281,    4255,    4208,    4234,    4280,    4254,    4209,    4235
     725,    3231,    4268,    4223,    3247,    3232,    4267,    4224,    3246
     726,    4268,    4280,    4235,    4223,    4267,    4279,    4236,    4224
     727,    4280,    4254,    4209,    4235,    4279,    4253,    4210,    4236
     728,    3232,    4267,    4224,    3246,    3233,    4266,    4225,    3245
     729,    4267,    4279,    4236,    4224,    4266,    4278,    4237,    4225
     730,    4279,    4253,    4210,    4236,    4278,    4252,    4211,    4237
     731,    3233,    4266,    4225,    3245,    3234,    4265,    4226,    3244
     732,    4266,    4278,    4237,    4225,    4265,    4277,    4238,    4226
     733,    4278,    4252,    4211,    4237,    4277,    4251,    4212,    4238
     734,    3234,    4265,    4226,    3244,    3235,    4264,    4227,    3243
     735,    4265,    4277,    4238,    4226,    4264,    4276,    4239,    4227
     736,    4277,    4251,    4212,    4238,    4276,    4250,    4213,    4239
     737,    3235,    4264,    4227,    3243,    3236,    4263,    4228,    3242
     738,    4264,    4276,    4239,    4227,    4263,    4275,    4240,    4228
     739,    4276,    4250,    4213,    4239,    4275,    4249,    4214,    4240
     740,    3236,    4263,    4228,    3242,    3237,    4262,    4229,    3241
     741,    4263,    4275,    4240,    4228,    4262,    4274,    4241,    4229
     742,    4275,    4249,    4214,    4240,    4274,    4248,    4215,    4241
     743,    3237,    4262,    4229,    3241,    3238,    4261,    4230,    3240
     744,    4262,    4274,    4241,    4229,    4261,    4273,    4242,    4230
     745,    4274,    4248,    4215,    4241,    4273,    4247,    4216,    4242
     746,    3238,    4261,    4230,    3240,    3224,    4244,    4203,    3225
     747,    4261,    4273,    4242,    4230,    4244,    4245,    4202,    4203
     748,    4273,    4247,    4216,    4242,    4245,    4243,    4201,    4202
********************************** N O D E S E T S **********************************
*NSET, NSET=plate_bottom
    1050,    1051,    1052,    1053,    1500,    1501,
    1502,    1503,    1504,    1505,    1506,    1507,
    1508,    1509,    1510,    1511,    1512,    1513,
    1514,    1515,    1516,    1517,    1518,    1519,
    1520,    1521,    1522,    1523,    1524,    1525,
    1526,    1527,    1528,    1529,    1530,    1531,
    1532,    1533,    1534,    1535,    1536,    1537,
    1538,    1539,    1540,    1541,    1542,    1543,
    1544,    1545,    1546,    1547,    1548,    1549,
    1550,    1551,    1552,    1553,    1554,    1555,
    1556,    1557,    1558,    1559,    1560,    1561,
    1562,    1563,    1564,    1565,    1566,    1567,
    1568,    1569,    1570,    1571,    1572,    2667,
    2668,    2669,    3062,    3063,    3064,    3065,
    3066,    3067,    3068,    3069,    3070,    3071,
    3072,    3073,    3074,    3075,    3076,    3077,
    3078,    3079,    3080,    3081,    3082,    3083,
    3084,    3085,    3086,    3087,    3088,    3089,
    3090,    3091,    3092,    3093,    3094,    3095,
    3096,    3097,    3098,    3099,    3100,    3101,
    3102,    3103,    3104,    3105,    3106,    3107,
    3108,    3109,    3110,    3111,    3112,    3113,
    3114,    3115,    3116,    3117,    3118,    3119,
    3120,    3121,    3122,    3123,    3124,    3125,
    3126,    3127,    3128,    3129,    3130,    3131,
    3132,    3133,
*NSET, NSET=plate_left_loading
    2774,    2782,    2783,    2784,    2785,    2786,
    2787,    2788,    2789,    2790,
*NSET, NSET=z_symm
    1029,    1032,    1033,    1041,    1054,    1055,
    1056,    1057,    1058,    1059,    1060,    1061,
    1062,    1063,    1064,    1065,    1066,    1067,
    1068,    1069,    1070,    1140,    1141,    1142,
    1143,    1144,    1145,    1146,    1147,    1148,
    1149,    1150,    1151,    1152,    1153,    1154,
    1155,    1156,    1157,    1158,    1159,    1160,
    1161,    1162,    1163,    1164,    1165,    1166,
    1167,    1168,    1169,    1170,    1171,    1172,
    1173,    1214,    1215,    1216,    1217,    1218,
    1219,    1323,    1324,    1325,    1326,    1327,
    1328,    1329,    1330,    1331,    1332,    1333,
    1334,    1335,    1336,    1337,    1338,    1339,
    1340,    1514,    1515,    1516,    1517,    1518,
    1519,    2648,    2649,    2650,    2655,    2667,
    2670,    2671,    2684,    2685,    2686,    2687,
    2688,    2689,    2690,    2691,    2692,    2693,
    2694,    2695,    2696,    2697,    2698,    2699,
    2700,    2701,    2702,    2703,    2704,    2705,
    2706,    2707,    2708,    2709,    2710,    2711,
    2712,    2713,    2714,    2715,    2782,    2791,
    2792,    2793,    2794,    2795,    2846,    2847,
    2848,    2849,    2850,    2851,    2852,    2853,
    2854,    2855,    2856,    2857,    2858,    2859,
    2860,    2861,    2862,    2863,    3062,    3063,
    3064,    3065,    3066,    3067,    4201,    4204,
    4243,    4246,
********************************** S I D E S E T S **********************************
*ELSET, ELSET=plate_bottom_S1
      86,      87,      88,      89,      90,      91,      92,      93,      94,      95,
      96,      97,      98,      99,     100,     101,     102,     103,     104,     105,
     106,     107,     108,     109,     110,     111,     112,     113,     114,     115,
     116,     117,     118,     119,     120,     121,     122,     123,     124,     125,
     126,     127,     128,     129,     130,     131,     132,     133,     134,     135,
     136,     137,     138,     139,     140,     141,     142,     143,     144,     145,
     411,     412,     413,     414,     415,     416,     417,     418,     419,     420,
     421,     422,     423,     424,     425,     426,     427,     428,     429,     430,
     431,     432,     433,     434,     435,     436,     437,     438,     439,     440,
     441,     442,     443,     444,     445,     446,     447,     448,     449,     450,
     451,     452,     453,     454,     455,     456,     457,     458,     459,     460,
     461,     462,     463,     464,     465,     466,     467,     468,     469,     470,
     471,     472,     473,     474,     475
*SURFACE, NAME=plate_bottom
plate_bottom_S1, S1
*ELSET, ELSET=mortar_to_anchor_S5
     671,     672,     673,     674,     675,     676,     677,     678,     679,     680,
     681,     682,     683,     684,     685,     686,     687,     688,     689,     690,
     691,     692,     693,     694,     695,     696,     697,     698,     699,     700,
     701,     702,     703,     704,     705,     706,     707,     708,     709,     710,
     711,     712,     713,     714,     715,     716,     717,     718,     719,     720,
     721,     722,     723,     724,     725,     726,     727,     728,     729,     730,
     731,     732,     733,     734,     735,     736,     737,     738,     739,     740,
     741,     742,     743,     744,     745,     746,     747,     748
*SURFACE, NAME=mortar_to_anchor
mortar_to_anchor_S5, S5
*ELSET, ELSET=anchor_to_mortar_S3
      24,      25,      29,      30,      34,      35,      39,      40,      44,      45,
      49,      50,      54,      55,      59,      60,      64,      65,      69,      70,
      74,      75,      79,      80,      84,      85,     119,     179,     239,     299,
     329,     330,     334,     335,     339,     340,     344,     345,     349,     350,
     354,     355,     359,     360,     364,     365,     369,     370,     374,     375,
     379,     380,     384,     385,     389,     390,     449,     514,     579,     644
*ELSET, ELSET=anchor_to_mortar_S4
      21,      26,      31,      36,      41,      46,      51,      56,      61,      66,
      71,      76,      81,     131,     191,     251,     311,     326,     331,     336,
     341,     346,     351,     356,     361,     366,     371,     376,     381,     386,
     456,     521,     586,     651
*ELSET, ELSET=anchor_to_mortar_S6
     130,     190,     250,     310,     466,     531,     596,     661
*SURFACE, NAME=anchor_to_mortar
anchor_to_mortar_S3, S3
anchor_to_mortar_S4, S4
anchor_to_mortar_S6, S6
*ELSET, ELSET=mortar_to_concrete_S3
     671,     672,     673,     674,     675,     676,     677,     678,     679,     680,
     681,     682,     683,     684,     685,     686,     687,     688,     689,     690,
     691,     692,     693,     694,     695,     696,     697,     698,     699,     700,
     701,     702,     703,     704,     705,     706,     707,     708,     709,     710,
     711,     712,     713,     714,     715,     716,     717,     718,     719,     720,
     721,     722,     723,     724,     725,     726,     727,     728,     729,     730,
     731,     732,     733,     734,     735,     736,     737,     738,     739,     740,
     741,     742,     743,     744,     745,     746,     747,     748
*SURFACE, NAME=mortar_to_concrete
mortar_to_concrete_S3, S3
