********************************** N O D E S **********************************
*NODE, NSET=ALLNODES
    1897,    0.000000e+00,    1.600000e+01,   -8.000000e+00
    1898,    0.000000e+00,    1.600000e+01,    0.000000e+00
    1899,    0.000000e+00,    1.600000e+01,   -4.000000e+00
    1900,    8.000000e+00,    1.600000e+01,   -2.020667e-15
    1901,    5.333333e+00,    1.600000e+01,    0.000000e+00
    1902,    2.666667e+00,    1.600000e+01,    0.000000e+00
    1903,    6.928203e+00,    1.600000e+01,   -4.000000e+00
    1904,    4.000000e+00,    1.600000e+01,   -6.928203e+00
    1905,    5.026854e+00,    1.600000e+01,   -2.413361e+00
    1906,    2.829203e+00,    1.600000e+01,   -3.243589e+00
    1907,    0.000000e+00,    5.333333e+00,   -8.000000e+00
    1908,    0.000000e+00,    1.244444e+01,   -8.000000e+00
    1909,    0.000000e+00,    8.888889e+00,   -8.000000e+00
    1910,    8.000000e+00,    5.333333e+00,    0.000000e+00
    1911,    6.928203e+00,    5.333333e+00,   -4.000000e+00
    1912,    4.000000e+00,    5.333333e+00,   -6.928203e+00
    1913,    8.000000e+00,    1.244444e+01,   -2.721437e-16
    1914,    8.000000e+00,    8.888889e+00,   -5.442875e-17
    1915,    4.000000e+00,    1.244444e+01,   -6.928203e+00
    1916,    4.000000e+00,    8.888889e+00,   -6.928203e+00
    1917,    6.928203e+00,    1.244444e+01,   -4.000000e+00
    1918,    6.928203e+00,    8.888889e+00,   -4.000000e+00
    1919,    0.000000e+00,    0.000000e+00,   -8.000000e+00
    1920,    8.000000e+00,    0.000000e+00,    4.898587e-16
    1921,    6.928203e+00,    0.000000e+00,   -4.000000e+00
    1922,    4.000000e+00,    0.000000e+00,   -6.928203e+00
    1923,    0.000000e+00,   -5.000000e+01,    0.000000e+00
    1924,    0.000000e+00,    1.211765e+01,    0.000000e+00
    1925,    0.000000e+00,    8.235294e+00,    0.000000e+00
    1926,    0.000000e+00,    4.352941e+00,    0.000000e+00
    1927,    0.000000e+00,    4.705882e-01,    0.000000e+00
    1928,    0.000000e+00,   -3.411765e+00,    0.000000e+00
    1929,    0.000000e+00,   -7.294118e+00,    0.000000e+00
    1930,    0.000000e+00,   -1.117647e+01,    0.000000e+00
    1931,    0.000000e+00,   -1.505882e+01,    0.000000e+00
    1932,    0.000000e+00,   -1.894118e+01,    0.000000e+00
    1933,    0.000000e+00,   -2.282353e+01,    0.000000e+00
    1934,    0.000000e+00,   -2.670588e+01,    0.000000e+00
    1935,    0.000000e+00,   -3.058824e+01,    0.000000e+00
    1936,    0.000000e+00,   -3.447059e+01,    0.000000e+00
    1937,    0.000000e+00,   -3.835294e+01,    0.000000e+00
    1938,    0.000000e+00,   -4.223529e+01,    0.000000e+00
    1939,    0.000000e+00,   -4.611765e+01,    0.000000e+00
    1940,    0.000000e+00,   -5.000000e+01,   -8.000000e+00
    1941,    0.000000e+00,   -4.615385e+01,   -8.000000e+00
    1942,    0.000000e+00,   -4.230769e+01,   -8.000000e+00
    1943,    0.000000e+00,   -3.846154e+01,   -8.000000e+00
    1944,    0.000000e+00,   -3.461538e+01,   -8.000000e+00
    1945,    0.000000e+00,   -3.076923e+01,   -8.000000e+00
    1946,    0.000000e+00,   -2.692308e+01,   -8.000000e+00
    1947,    0.000000e+00,   -2.307692e+01,   -8.000000e+00
    1948,    0.000000e+00,   -1.923077e+01,   -8.000000e+00
    1949,    0.000000e+00,   -1.538462e+01,   -8.000000e+00
    1950,    0.000000e+00,   -1.153846e+01,   -8.000000e+00
    1951,    0.000000e+00,   -7.692308e+00,   -8.000000e+00
    1952,    0.000000e+00,   -3.846154e+00,   -8.000000e+00
    1953,    0.000000e+00,   -5.000000e+01,   -4.000000e+00
    1954,    0.000000e+00,   -4.613575e+01,   -4.000000e+00
    1955,    0.000000e+00,   -4.227149e+01,   -4.000000e+00
    1956,    0.000000e+00,   -3.840724e+01,   -4.000000e+00
    1957,    0.000000e+00,   -3.454299e+01,   -4.000000e+00
    1958,    0.000000e+00,   -3.067873e+01,   -4.000000e+00
    1959,    0.000000e+00,   -2.681448e+01,   -4.000000e+00
    1960,    0.000000e+00,   -2.295023e+01,   -4.000000e+00
    1961,    0.000000e+00,   -1.908597e+01,   -4.000000e+00
    1962,    0.000000e+00,   -1.522172e+01,   -4.000000e+00
    1963,    0.000000e+00,   -1.135747e+01,   -4.000000e+00
    1964,    0.000000e+00,   -7.493213e+00,   -4.000000e+00
    1965,    0.000000e+00,   -3.628959e+00,   -4.000000e+00
    1966,    0.000000e+00,    2.352941e-01,   -4.000000e+00
    1967,    0.000000e+00,    4.843137e+00,   -4.000000e+00
    1968,    0.000000e+00,    8.562092e+00,   -4.000000e+00
    1969,    0.000000e+00,    1.228105e+01,   -4.000000e+00
    1970,    8.000000e+00,   -5.000000e+01,    2.020667e-15
    1971,    8.000000e+00,   -4.615385e+01,    1.785158e-15
    1972,    8.000000e+00,   -4.230769e+01,    1.549649e-15
    1973,    8.000000e+00,   -3.846154e+01,    1.314140e-15
    1974,    8.000000e+00,   -3.461538e+01,    1.078631e-15
    1975,    8.000000e+00,   -3.076923e+01,    8.431222e-16
    1976,    8.000000e+00,   -2.692308e+01,    6.076132e-16
    1977,    8.000000e+00,   -2.307692e+01,    3.721042e-16
    1978,    8.000000e+00,   -1.923077e+01,    1.365952e-16
    1979,    8.000000e+00,   -1.538462e+01,   -9.891378e-17
    1980,    8.000000e+00,   -1.153846e+01,   -3.344228e-16
    1981,    8.000000e+00,   -7.692308e+00,   -5.699318e-16
    1982,    8.000000e+00,   -3.846154e+00,   -8.054408e-16
    1983,    4.000000e+00,   -5.000000e+01,   -6.928203e+00
    1984,    6.928203e+00,   -5.000000e+01,   -4.000000e+00
    1985,    4.000000e+00,   -3.846154e+00,   -6.928203e+00
    1986,    6.928203e+00,   -3.846154e+00,   -4.000000e+00
    1987,    4.000000e+00,   -7.692308e+00,   -6.928203e+00
    1988,    6.928203e+00,   -7.692308e+00,   -4.000000e+00
    1989,    4.000000e+00,   -1.153846e+01,   -6.928203e+00
    1990,    6.928203e+00,   -1.153846e+01,   -4.000000e+00
    1991,    4.000000e+00,   -1.538462e+01,   -6.928203e+00
    1992,    6.928203e+00,   -1.538462e+01,   -4.000000e+00
    1993,    4.000000e+00,   -1.923077e+01,   -6.928203e+00
    1994,    6.928203e+00,   -1.923077e+01,   -4.000000e+00
    1995,    4.000000e+00,   -2.307692e+01,   -6.928203e+00
    1996,    6.928203e+00,   -2.307692e+01,   -4.000000e+00
    1997,    4.000000e+00,   -2.692308e+01,   -6.928203e+00
    1998,    6.928203e+00,   -2.692308e+01,   -4.000000e+00
    1999,    4.000000e+00,   -3.076923e+01,   -6.928203e+00
    2000,    6.928203e+00,   -3.076923e+01,   -4.000000e+00
    2001,    4.000000e+00,   -3.461538e+01,   -6.928203e+00
    2002,    6.928203e+00,   -3.461538e+01,   -4.000000e+00
    2003,    4.000000e+00,   -3.846154e+01,   -6.928203e+00
    2004,    6.928203e+00,   -3.846154e+01,   -4.000000e+00
    2005,    4.000000e+00,   -4.230769e+01,   -6.928203e+00
    2006,    6.928203e+00,   -4.230769e+01,   -4.000000e+00
    2007,    4.000000e+00,   -4.615385e+01,   -6.928203e+00
    2008,    6.928203e+00,   -4.615385e+01,   -4.000000e+00
    2009,    2.666667e+00,   -5.000000e+01,    0.000000e+00
    2010,    5.333333e+00,   -5.000000e+01,    0.000000e+00
    2011,    2.666667e+00,    1.222658e+01,    0.000000e+00
    2012,    2.666667e+00,    8.453159e+00,    0.000000e+00
    2013,    2.666667e+00,    4.679739e+00,    0.000000e+00
    2014,    2.666667e+00,    3.137255e-01,    0.000000e+00
    2015,    2.666667e+00,   -3.556561e+00,    0.000000e+00
    2016,    2.666667e+00,   -7.426848e+00,    0.000000e+00
    2017,    2.666667e+00,   -1.129713e+01,    0.000000e+00
    2018,    2.666667e+00,   -1.516742e+01,    0.000000e+00
    2019,    2.666667e+00,   -1.903771e+01,    0.000000e+00
    2020,    2.666667e+00,   -2.290799e+01,    0.000000e+00
    2021,    2.666667e+00,   -2.677828e+01,    0.000000e+00
    2022,    2.666667e+00,   -3.064857e+01,    0.000000e+00
    2023,    2.666667e+00,   -3.451885e+01,    0.000000e+00
    2024,    2.666667e+00,   -3.838914e+01,    0.000000e+00
    2025,    2.666667e+00,   -4.225943e+01,    0.000000e+00
    2026,    2.666667e+00,   -4.612971e+01,    0.000000e+00
    2027,    5.333333e+00,    1.233551e+01,    0.000000e+00
    2028,    5.333333e+00,    8.671024e+00,    0.000000e+00
    2029,    5.333333e+00,    5.006536e+00,    0.000000e+00
    2030,    5.333333e+00,    1.568627e-01,    0.000000e+00
    2031,    5.333333e+00,   -3.701357e+00,    0.000000e+00
    2032,    5.333333e+00,   -7.559578e+00,    0.000000e+00
    2033,    5.333333e+00,   -1.141780e+01,    0.000000e+00
    2034,    5.333333e+00,   -1.527602e+01,    0.000000e+00
    2035,    5.333333e+00,   -1.913424e+01,    0.000000e+00
    2036,    5.333333e+00,   -2.299246e+01,    0.000000e+00
    2037,    5.333333e+00,   -2.685068e+01,    0.000000e+00
    2038,    5.333333e+00,   -3.070890e+01,    0.000000e+00
    2039,    5.333333e+00,   -3.456712e+01,    0.000000e+00
    2040,    5.333333e+00,   -3.842534e+01,    0.000000e+00
    2041,    5.333333e+00,   -4.228356e+01,    0.000000e+00
    2042,    5.333333e+00,   -4.614178e+01,    0.000000e+00
    2043,    2.829203e+00,    1.233717e+01,   -3.243589e+00
    2044,    5.026854e+00,    1.237978e+01,   -2.413361e+00
    2045,    2.829203e+00,    8.663715e+00,   -3.243589e+00
    2046,    5.026854e+00,    8.750145e+00,   -2.413361e+00
    2047,    2.829203e+00,    4.995572e+00,   -3.243589e+00
    2048,    5.026854e+00,    5.125218e+00,   -2.413361e+00
    2049,    2.829203e+00,    1.621253e-01,   -3.243589e+00
    2050,    5.026854e+00,    9.989524e-02,   -2.413361e+00
    2051,    2.829203e+00,   -3.703567e+00,   -3.243589e+00
    2052,    5.026854e+00,   -3.760201e+00,   -2.413361e+00
    2053,    2.829203e+00,   -7.561603e+00,   -3.243589e+00
    2054,    5.026854e+00,   -7.613518e+00,   -2.413361e+00
    2055,    2.829203e+00,   -1.141964e+01,   -3.243589e+00
    2056,    5.026854e+00,   -1.146683e+01,   -2.413361e+00
    2057,    2.829203e+00,   -1.527768e+01,   -3.243589e+00
    2058,    5.026854e+00,   -1.532015e+01,   -2.413361e+00
    2059,    2.829203e+00,   -1.913571e+01,   -3.243589e+00
    2060,    5.026854e+00,   -1.917347e+01,   -2.413361e+00
    2061,    2.829203e+00,   -2.299375e+01,   -3.243589e+00
    2062,    5.026854e+00,   -2.302678e+01,   -2.413361e+00
    2063,    2.829203e+00,   -2.685178e+01,   -3.243589e+00
    2064,    5.026854e+00,   -2.688010e+01,   -2.413361e+00
    2065,    2.829203e+00,   -3.070982e+01,   -3.243589e+00
    2066,    5.026854e+00,   -3.073342e+01,   -2.413361e+00
    2067,    2.829203e+00,   -3.456786e+01,   -3.243589e+00
    2068,    5.026854e+00,   -3.458673e+01,   -2.413361e+00
    2069,    2.829203e+00,   -3.842589e+01,   -3.243589e+00
    2070,    5.026854e+00,   -3.844005e+01,   -2.413361e+00
    2071,    2.829203e+00,   -4.228393e+01,   -3.243589e+00
    2072,    5.026854e+00,   -4.229337e+01,   -2.413361e+00
    2073,    2.829203e+00,   -4.614196e+01,   -3.243589e+00
    2074,    5.026854e+00,   -4.614668e+01,   -2.413361e+00
    2075,    2.829203e+00,   -5.000000e+01,   -3.243589e+00
    2076,    5.026854e+00,   -5.000000e+01,   -2.413361e+00
    2077,    0.000000e+00,    5.333333e+00,   -1.600000e+01
    2078,    0.000000e+00,    5.333333e+00,   -1.200000e+01
    2079,    1.600000e+01,    5.333333e+00,    0.000000e+00
    2080,    1.200000e+01,    5.333333e+00,    0.000000e+00
    2081,    1.600000e+01,    5.333333e+00,   -1.600000e+01
    2082,    1.600000e+01,    5.333333e+00,   -1.280000e+01
    2083,    1.600000e+01,    5.333333e+00,   -9.600000e+00
    2084,    1.600000e+01,    5.333333e+00,   -6.400000e+00
    2085,    1.600000e+01,    5.333333e+00,   -3.200000e+00
    2086,    4.000000e+00,    5.333333e+00,   -1.600000e+01
    2087,    8.000000e+00,    5.333333e+00,   -1.600000e+01
    2088,    1.200000e+01,    5.333333e+00,   -1.600000e+01
    2089,    1.081141e+01,    5.333333e+00,   -4.859264e+00
    2090,    1.232053e+01,    5.333333e+00,   -8.180956e+00
    2091,    1.375656e+01,    5.333333e+00,   -1.015561e+01
    2092,    1.294914e+01,    5.333333e+00,   -1.268587e+01
    2093,    5.570329e+00,    5.333333e+00,   -1.059463e+01
    2094,    9.783402e+00,    5.333333e+00,   -1.168296e+01
    2095,    0.000000e+00,    1.600000e+01,   -1.600000e+01
    2096,    0.000000e+00,    1.600000e+01,   -1.200000e+01
    2097,    0.000000e+00,    8.888889e+00,   -1.600000e+01
    2098,    0.000000e+00,    1.244444e+01,   -1.600000e+01
    2099,    0.000000e+00,    8.888889e+00,   -1.200000e+01
    2100,    0.000000e+00,    1.244444e+01,   -1.200000e+01
    2101,    1.600000e+01,    1.600000e+01,   -1.600000e+01
    2102,    4.000000e+00,    1.600000e+01,   -1.600000e+01
    2103,    8.000000e+00,    1.600000e+01,   -1.600000e+01
    2104,    1.200000e+01,    1.600000e+01,   -1.600000e+01
    2105,    1.600000e+01,    1.244444e+01,   -1.600000e+01
    2106,    1.600000e+01,    8.888889e+00,   -1.600000e+01
    2107,    4.000000e+00,    8.888889e+00,   -1.600000e+01
    2108,    4.000000e+00,    1.244444e+01,   -1.600000e+01
    2109,    8.000000e+00,    8.888889e+00,   -1.600000e+01
    2110,    8.000000e+00,    1.244444e+01,   -1.600000e+01
    2111,    1.200000e+01,    8.888889e+00,   -1.600000e+01
    2112,    1.200000e+01,    1.244444e+01,   -1.600000e+01
    2113,    1.600000e+01,    1.600000e+01,    0.000000e+00
    2114,    1.600000e+01,    8.888889e+00,    0.000000e+00
    2115,    1.600000e+01,    1.244444e+01,    0.000000e+00
    2116,    1.200000e+01,    1.600000e+01,    0.000000e+00
    2117,    1.200000e+01,    8.888889e+00,    0.000000e+00
    2118,    1.200000e+01,    1.244444e+01,    0.000000e+00
    2119,    1.600000e+01,    1.600000e+01,   -3.200000e+00
    2120,    1.600000e+01,    1.600000e+01,   -6.400000e+00
    2121,    1.600000e+01,    1.600000e+01,   -9.600000e+00
    2122,    1.600000e+01,    1.600000e+01,   -1.280000e+01
    2123,    1.600000e+01,    1.244444e+01,   -3.200000e+00
    2124,    1.600000e+01,    8.888889e+00,   -3.200000e+00
    2125,    1.600000e+01,    1.244444e+01,   -6.400000e+00
    2126,    1.600000e+01,    8.888889e+00,   -6.400000e+00
    2127,    1.600000e+01,    1.244444e+01,   -9.600000e+00
    2128,    1.600000e+01,    8.888889e+00,   -9.600000e+00
    2129,    1.600000e+01,    1.244444e+01,   -1.280000e+01
    2130,    1.600000e+01,    8.888889e+00,   -1.280000e+01
    2131,    1.081141e+01,    8.888889e+00,   -4.859264e+00
    2132,    1.232053e+01,    8.888889e+00,   -8.180956e+00
    2133,    1.375656e+01,    8.888889e+00,   -1.015561e+01
    2134,    1.294914e+01,    8.888889e+00,   -1.268587e+01
    2135,    5.570329e+00,    8.888889e+00,   -1.059463e+01
    2136,    9.783402e+00,    8.888889e+00,   -1.168296e+01
    2137,    1.081141e+01,    1.244444e+01,   -4.859264e+00
    2138,    1.232053e+01,    1.244444e+01,   -8.180956e+00
    2139,    1.375656e+01,    1.244444e+01,   -1.015561e+01
    2140,    1.294914e+01,    1.244444e+01,   -1.268587e+01
    2141,    5.570329e+00,    1.244444e+01,   -1.059463e+01
    2142,    9.783402e+00,    1.244444e+01,   -1.168296e+01
    2143,    1.081141e+01,    1.600000e+01,   -4.859264e+00
    2144,    1.232053e+01,    1.600000e+01,   -8.180956e+00
    2145,    1.375656e+01,    1.600000e+01,   -1.015561e+01
    2146,    1.294914e+01,    1.600000e+01,   -1.268587e+01
    2147,    5.570329e+00,    1.600000e+01,   -1.059463e+01
    2148,    9.783402e+00,    1.600000e+01,   -1.168296e+01
    2149,    0.000000e+00,    0.000000e+00,   -1.600000e+01
    2150,    0.000000e+00,    0.000000e+00,   -1.200000e+01
    2151,    1.600000e+01,    0.000000e+00,   -1.600000e+01
    2152,    1.200000e+01,    0.000000e+00,   -1.600000e+01
    2153,    8.000000e+00,    0.000000e+00,   -1.600000e+01
    2154,    4.000000e+00,    0.000000e+00,   -1.600000e+01
    2155,    1.600000e+01,    0.000000e+00,    0.000000e+00
    2156,    1.200000e+01,    0.000000e+00,    0.000000e+00
    2157,    1.600000e+01,    0.000000e+00,   -3.200000e+00
    2158,    1.600000e+01,    0.000000e+00,   -6.400000e+00
    2159,    1.600000e+01,    0.000000e+00,   -9.600000e+00
    2160,    1.600000e+01,    0.000000e+00,   -1.280000e+01
    2161,    1.081141e+01,    0.000000e+00,   -4.859264e+00
    2162,    1.232053e+01,    0.000000e+00,   -8.180956e+00
    2163,    1.375656e+01,    0.000000e+00,   -1.015561e+01
    2164,    1.294914e+01,    0.000000e+00,   -1.268587e+01
    2165,    5.570329e+00,    0.000000e+00,   -1.059463e+01
    2166,    9.783402e+00,    0.000000e+00,   -1.168296e+01
    4157,   -8.000000e+00,   -5.000000e+01,    0.000000e+00
    4158,   -5.333333e+00,   -5.000000e+01,    0.000000e+00
    4159,   -2.666667e+00,   -5.000000e+01,    0.000000e+00
    4160,   -6.928203e+00,   -5.000000e+01,   -4.000000e+00
    4161,   -4.000000e+00,   -5.000000e+01,   -6.928203e+00
    4162,   -5.026854e+00,   -5.000000e+01,   -2.413361e+00
    4163,   -2.829203e+00,   -5.000000e+01,   -3.243589e+00
    4164,   -8.000000e+00,    1.600000e+01,    0.000000e+00
    4165,   -4.000000e+00,    1.600000e+01,   -6.928203e+00
    4166,   -6.928203e+00,    1.600000e+01,   -4.000000e+00
    4167,   -8.000000e+00,    5.333333e+00,    1.143004e-15
    4168,   -8.000000e+00,    8.888889e+00,   -5.442875e-17
    4169,   -8.000000e+00,    1.244444e+01,   -2.721437e-16
    4170,   -4.000000e+00,    5.333333e+00,   -6.928203e+00
    4171,   -6.928203e+00,    5.333333e+00,   -4.000000e+00
    4172,   -4.000000e+00,    8.888889e+00,   -6.928203e+00
    4173,   -4.000000e+00,    1.244444e+01,   -6.928203e+00
    4174,   -6.928203e+00,    8.888889e+00,   -4.000000e+00
    4175,   -6.928203e+00,    1.244444e+01,   -4.000000e+00
    4176,   -8.000000e+00,    0.000000e+00,    0.000000e+00
    4177,   -4.000000e+00,    0.000000e+00,   -6.928203e+00
    4178,   -6.928203e+00,    0.000000e+00,   -4.000000e+00
    4179,   -2.666667e+00,    1.600000e+01,    0.000000e+00
    4180,   -5.333333e+00,    1.600000e+01,    0.000000e+00
    4181,   -8.000000e+00,   -3.846154e+00,   -8.054408e-16
    4182,   -8.000000e+00,   -7.692308e+00,   -5.699318e-16
    4183,   -8.000000e+00,   -1.153846e+01,   -3.344228e-16
    4184,   -8.000000e+00,   -1.538462e+01,   -9.891378e-17
    4185,   -8.000000e+00,   -1.923077e+01,    1.365952e-16
    4186,   -8.000000e+00,   -2.307692e+01,    3.721042e-16
    4187,   -8.000000e+00,   -2.692308e+01,    6.076132e-16
    4188,   -8.000000e+00,   -3.076923e+01,    8.431222e-16
    4189,   -8.000000e+00,   -3.461538e+01,    1.078631e-15
    4190,   -8.000000e+00,   -3.846154e+01,    1.314140e-15
    4191,   -8.000000e+00,   -4.230769e+01,    1.549649e-15
    4192,   -8.000000e+00,   -4.615385e+01,    1.785158e-15
    4193,   -2.666667e+00,   -4.612971e+01,    0.000000e+00
    4194,   -2.666667e+00,   -4.225943e+01,    0.000000e+00
    4195,   -2.666667e+00,   -3.838914e+01,    0.000000e+00
    4196,   -2.666667e+00,   -3.451885e+01,    0.000000e+00
    4197,   -2.666667e+00,   -3.064857e+01,    0.000000e+00
    4198,   -2.666667e+00,   -2.677828e+01,    0.000000e+00
    4199,   -2.666667e+00,   -2.290799e+01,    0.000000e+00
    4200,   -2.666667e+00,   -1.903771e+01,    0.000000e+00
    4201,   -2.666667e+00,   -1.516742e+01,    0.000000e+00
    4202,   -2.666667e+00,   -1.129713e+01,    0.000000e+00
    4203,   -2.666667e+00,   -7.426848e+00,    0.000000e+00
    4204,   -2.666667e+00,   -3.556561e+00,    0.000000e+00
    4205,   -2.666667e+00,    3.137255e-01,    0.000000e+00
    4206,   -2.666667e+00,    4.679739e+00,    0.000000e+00
    4207,   -2.666667e+00,    8.453159e+00,    0.000000e+00
    4208,   -2.666667e+00,    1.222658e+01,    0.000000e+00
    4209,   -5.333333e+00,   -4.614178e+01,    0.000000e+00
    4210,   -5.333333e+00,   -4.228356e+01,    0.000000e+00
    4211,   -5.333333e+00,   -3.842534e+01,    0.000000e+00
    4212,   -5.333333e+00,   -3.456712e+01,    0.000000e+00
    4213,   -5.333333e+00,   -3.070890e+01,    0.000000e+00
    4214,   -5.333333e+00,   -2.685068e+01,    0.000000e+00
    4215,   -5.333333e+00,   -2.299246e+01,    0.000000e+00
    4216,   -5.333333e+00,   -1.913424e+01,    0.000000e+00
    4217,   -5.333333e+00,   -1.527602e+01,    0.000000e+00
    4218,   -5.333333e+00,   -1.141780e+01,    0.000000e+00
    4219,   -5.333333e+00,   -7.559578e+00,    0.000000e+00
    4220,   -5.333333e+00,   -3.701357e+00,    0.000000e+00
    4221,   -5.333333e+00,    1.568627e-01,    0.000000e+00
    4222,   -5.333333e+00,    5.006536e+00,    0.000000e+00
    4223,   -5.333333e+00,    8.671024e+00,    0.000000e+00
    4224,   -5.333333e+00,    1.233551e+01,    0.000000e+00
    4225,   -6.928203e+00,   -3.846154e+00,   -4.000000e+00
    4226,   -4.000000e+00,   -3.846154e+00,   -6.928203e+00
    4227,   -6.928203e+00,   -7.692308e+00,   -4.000000e+00
    4228,   -4.000000e+00,   -7.692308e+00,   -6.928203e+00
    4229,   -6.928203e+00,   -1.153846e+01,   -4.000000e+00
    4230,   -4.000000e+00,   -1.153846e+01,   -6.928203e+00
    4231,   -6.928203e+00,   -1.538462e+01,   -4.000000e+00
    4232,   -4.000000e+00,   -1.538462e+01,   -6.928203e+00
    4233,   -6.928203e+00,   -1.923077e+01,   -4.000000e+00
    4234,   -4.000000e+00,   -1.923077e+01,   -6.928203e+00
    4235,   -6.928203e+00,   -2.307692e+01,   -4.000000e+00
    4236,   -4.000000e+00,   -2.307692e+01,   -6.928203e+00
    4237,   -6.928203e+00,   -2.692308e+01,   -4.000000e+00
    4238,   -4.000000e+00,   -2.692308e+01,   -6.928203e+00
    4239,   -6.928203e+00,   -3.076923e+01,   -4.000000e+00
    4240,   -4.000000e+00,   -3.076923e+01,   -6.928203e+00
    4241,   -6.928203e+00,   -3.461538e+01,   -4.000000e+00
    4242,   -4.000000e+00,   -3.461538e+01,   -6.928203e+00
    4243,   -6.928203e+00,   -3.846154e+01,   -4.000000e+00
    4244,   -4.000000e+00,   -3.846154e+01,   -6.928203e+00
    4245,   -6.928203e+00,   -4.230769e+01,   -4.000000e+00
    4246,   -4.000000e+00,   -4.230769e+01,   -6.928203e+00
    4247,   -6.928203e+00,   -4.615385e+01,   -4.000000e+00
    4248,   -4.000000e+00,   -4.615385e+01,   -6.928203e+00
    4249,   -2.829203e+00,   -4.614196e+01,   -3.243589e+00
    4250,   -5.026854e+00,   -4.614668e+01,   -2.413361e+00
    4251,   -2.829203e+00,   -4.228393e+01,   -3.243589e+00
    4252,   -5.026854e+00,   -4.229337e+01,   -2.413361e+00
    4253,   -2.829203e+00,   -3.842589e+01,   -3.243589e+00
    4254,   -5.026854e+00,   -3.844005e+01,   -2.413361e+00
    4255,   -2.829203e+00,   -3.456786e+01,   -3.243589e+00
    4256,   -5.026854e+00,   -3.458673e+01,   -2.413361e+00
    4257,   -2.829203e+00,   -3.070982e+01,   -3.243589e+00
    4258,   -5.026854e+00,   -3.073342e+01,   -2.413361e+00
    4259,   -2.829203e+00,   -2.685178e+01,   -3.243589e+00
    4260,   -5.026854e+00,   -2.688010e+01,   -2.413361e+00
    4261,   -2.829203e+00,   -2.299375e+01,   -3.243589e+00
    4262,   -5.026854e+00,   -2.302678e+01,   -2.413361e+00
    4263,   -2.829203e+00,   -1.913571e+01,   -3.243589e+00
    4264,   -5.026854e+00,   -1.917347e+01,   -2.413361e+00
    4265,   -2.829203e+00,   -1.527768e+01,   -3.243589e+00
    4266,   -5.026854e+00,   -1.532015e+01,   -2.413361e+00
    4267,   -2.829203e+00,   -1.141964e+01,   -3.243589e+00
    4268,   -5.026854e+00,   -1.146683e+01,   -2.413361e+00
    4269,   -2.829203e+00,   -7.561603e+00,   -3.243589e+00
    4270,   -5.026854e+00,   -7.613518e+00,   -2.413361e+00
    4271,   -2.829203e+00,   -3.703567e+00,   -3.243589e+00
    4272,   -5.026854e+00,   -3.760201e+00,   -2.413361e+00
    4273,   -2.829203e+00,    1.621253e-01,   -3.243589e+00
    4274,   -5.026854e+00,    9.989524e-02,   -2.413361e+00
    4275,   -2.829203e+00,    4.995572e+00,   -3.243589e+00
    4276,   -5.026854e+00,    5.125218e+00,   -2.413361e+00
    4277,   -2.829203e+00,    8.663715e+00,   -3.243589e+00
    4278,   -5.026854e+00,    8.750145e+00,   -2.413361e+00
    4279,   -2.829203e+00,    1.233717e+01,   -3.243589e+00
    4280,   -5.026854e+00,    1.237978e+01,   -2.413361e+00
    4281,   -2.829203e+00,    1.600000e+01,   -3.243589e+00
    4282,   -5.026854e+00,    1.600000e+01,   -2.413361e+00
    4283,   -1.600000e+01,    5.333333e+00,   -1.600000e+01
    4284,   -1.200000e+01,    5.333333e+00,   -1.600000e+01
    4285,   -8.000000e+00,    5.333333e+00,   -1.600000e+01
    4286,   -4.000000e+00,    5.333333e+00,   -1.600000e+01
    4287,   -1.600000e+01,    5.333333e+00,    0.000000e+00
    4288,   -1.600000e+01,    5.333333e+00,   -3.200000e+00
    4289,   -1.600000e+01,    5.333333e+00,   -6.400000e+00
    4290,   -1.600000e+01,    5.333333e+00,   -9.600000e+00
    4291,   -1.600000e+01,    5.333333e+00,   -1.280000e+01
    4292,   -1.200000e+01,    5.333333e+00,    0.000000e+00
    4293,   -1.295844e+01,    5.333333e+00,   -1.267414e+01
    4294,   -1.376972e+01,    5.333333e+00,   -1.019834e+01
    4295,   -1.233023e+01,    5.333333e+00,   -8.185885e+00
    4296,   -1.081059e+01,    5.333333e+00,   -4.840580e+00
    4297,   -5.569297e+00,    5.333333e+00,   -1.059053e+01
    4298,   -9.790993e+00,    5.333333e+00,   -1.168141e+01
    4299,   -1.600000e+01,    1.600000e+01,    0.000000e+00
    4300,   -1.200000e+01,    1.600000e+01,    0.000000e+00
    4301,   -1.600000e+01,    1.244444e+01,    0.000000e+00
    4302,   -1.600000e+01,    8.888889e+00,    0.000000e+00
    4303,   -1.200000e+01,    8.888889e+00,    0.000000e+00
    4304,   -1.200000e+01,    1.244444e+01,    0.000000e+00
    4305,   -1.600000e+01,    1.600000e+01,   -1.600000e+01
    4306,   -1.600000e+01,    8.888889e+00,   -1.600000e+01
    4307,   -1.600000e+01,    1.244444e+01,   -1.600000e+01
    4308,   -1.200000e+01,    1.600000e+01,   -1.600000e+01
    4309,   -8.000000e+00,    1.600000e+01,   -1.600000e+01
    4310,   -4.000000e+00,    1.600000e+01,   -1.600000e+01
    4311,   -4.000000e+00,    1.244444e+01,   -1.600000e+01
    4312,   -4.000000e+00,    8.888889e+00,   -1.600000e+01
    4313,   -8.000000e+00,    1.244444e+01,   -1.600000e+01
    4314,   -8.000000e+00,    8.888889e+00,   -1.600000e+01
    4315,   -1.200000e+01,    1.244444e+01,   -1.600000e+01
    4316,   -1.200000e+01,    8.888889e+00,   -1.600000e+01
    4317,   -1.600000e+01,    1.600000e+01,   -3.200000e+00
    4318,   -1.600000e+01,    1.600000e+01,   -6.400000e+00
    4319,   -1.600000e+01,    1.600000e+01,   -9.600000e+00
    4320,   -1.600000e+01,    1.600000e+01,   -1.280000e+01
    4321,   -1.600000e+01,    8.888889e+00,   -3.200000e+00
    4322,   -1.600000e+01,    1.244444e+01,   -3.200000e+00
    4323,   -1.600000e+01,    8.888889e+00,   -6.400000e+00
    4324,   -1.600000e+01,    1.244444e+01,   -6.400000e+00
    4325,   -1.600000e+01,    8.888889e+00,   -9.600000e+00
    4326,   -1.600000e+01,    1.244444e+01,   -9.600000e+00
    4327,   -1.600000e+01,    8.888889e+00,   -1.280000e+01
    4328,   -1.600000e+01,    1.244444e+01,   -1.280000e+01
    4329,   -1.295844e+01,    8.888889e+00,   -1.267414e+01
    4330,   -1.376972e+01,    8.888889e+00,   -1.019834e+01
    4331,   -1.233023e+01,    8.888889e+00,   -8.185885e+00
    4332,   -1.081059e+01,    8.888889e+00,   -4.840580e+00
    4333,   -5.569297e+00,    8.888889e+00,   -1.059053e+01
    4334,   -9.790993e+00,    8.888889e+00,   -1.168141e+01
    4335,   -1.295844e+01,    1.244444e+01,   -1.267414e+01
    4336,   -1.376972e+01,    1.244444e+01,   -1.019834e+01
    4337,   -1.233023e+01,    1.244444e+01,   -8.185885e+00
    4338,   -1.081059e+01,    1.244444e+01,   -4.840580e+00
    4339,   -5.569297e+00,    1.244444e+01,   -1.059053e+01
    4340,   -9.790993e+00,    1.244444e+01,   -1.168141e+01
    4341,   -1.295844e+01,    1.600000e+01,   -1.267414e+01
    4342,   -1.376972e+01,    1.600000e+01,   -1.019834e+01
    4343,   -1.233023e+01,    1.600000e+01,   -8.185885e+00
    4344,   -1.081059e+01,    1.600000e+01,   -4.840580e+00
    4345,   -5.569297e+00,    1.600000e+01,   -1.059053e+01
    4346,   -9.790993e+00,    1.600000e+01,   -1.168141e+01
    4347,   -1.600000e+01,    0.000000e+00,    0.000000e+00
    4348,   -1.200000e+01,    0.000000e+00,    0.000000e+00
    4349,   -1.600000e+01,    0.000000e+00,   -1.600000e+01
    4350,   -1.600000e+01,    0.000000e+00,   -3.200000e+00
    4351,   -1.600000e+01,    0.000000e+00,   -6.400000e+00
    4352,   -1.600000e+01,    0.000000e+00,   -9.600000e+00
    4353,   -1.600000e+01,    0.000000e+00,   -1.280000e+01
    4354,   -4.000000e+00,    0.000000e+00,   -1.600000e+01
    4355,   -8.000000e+00,    0.000000e+00,   -1.600000e+01
    4356,   -1.200000e+01,    0.000000e+00,   -1.600000e+01
    4357,   -1.295844e+01,    0.000000e+00,   -1.267414e+01
    4358,   -1.376972e+01,    0.000000e+00,   -1.019834e+01
    4359,   -1.233023e+01,    0.000000e+00,   -8.185885e+00
    4360,   -1.081059e+01,    0.000000e+00,   -4.840580e+00
    4361,   -5.569297e+00,    0.000000e+00,   -1.059053e+01
    4362,   -9.790993e+00,    0.000000e+00,   -1.168141e+01
    4533,    0.000000e+00,   -5.510911e-16,   -9.000000e+00
    4534,    0.000000e+00,   -4.898587e-16,   -8.000000e+00
    4535,    0.000000e+00,   -5.000000e+01,   -9.000000e+00
    4536,    0.000000e+00,   -4.615385e+01,   -9.000000e+00
    4537,    0.000000e+00,   -4.230769e+01,   -9.000000e+00
    4538,    0.000000e+00,   -3.846154e+01,   -9.000000e+00
    4539,    0.000000e+00,   -3.461538e+01,   -9.000000e+00
    4540,    0.000000e+00,   -3.076923e+01,   -9.000000e+00
    4541,    0.000000e+00,   -2.692308e+01,   -9.000000e+00
    4542,    0.000000e+00,   -2.307692e+01,   -9.000000e+00
    4543,    0.000000e+00,   -1.923077e+01,   -9.000000e+00
    4544,    0.000000e+00,   -1.538462e+01,   -9.000000e+00
    4545,    0.000000e+00,   -1.153846e+01,   -9.000000e+00
    4546,    0.000000e+00,   -7.692308e+00,   -9.000000e+00
    4547,    0.000000e+00,   -3.846154e+00,   -9.000000e+00
    4548,    0.000000e+00,   -5.000000e+01,   -8.000000e+00
    4549,    0.000000e+00,   -3.846154e+00,   -8.000000e+00
    4550,    0.000000e+00,   -7.692308e+00,   -8.000000e+00
    4551,    0.000000e+00,   -1.153846e+01,   -8.000000e+00
    4552,    0.000000e+00,   -1.538462e+01,   -8.000000e+00
    4553,    0.000000e+00,   -1.923077e+01,   -8.000000e+00
    4554,    0.000000e+00,   -2.307692e+01,   -8.000000e+00
    4555,    0.000000e+00,   -2.692308e+01,   -8.000000e+00
    4556,    0.000000e+00,   -3.076923e+01,   -8.000000e+00
    4557,    0.000000e+00,   -3.461538e+01,   -8.000000e+00
    4558,    0.000000e+00,   -3.846154e+01,   -8.000000e+00
    4559,    0.000000e+00,   -4.230769e+01,   -8.000000e+00
    4560,    0.000000e+00,   -4.615385e+01,   -8.000000e+00
    4561,    9.000000e+00,   -5.000000e+01,    1.530808e-15
    4562,    4.500000e+00,   -5.000000e+01,   -7.794229e+00
    4563,    7.794229e+00,   -5.000000e+01,   -4.500000e+00
    4564,    8.000000e+00,   -5.000000e+01,    1.530808e-15
    4565,    6.928203e+00,   -5.000000e+01,   -4.000000e+00
    4566,    4.000000e+00,   -5.000000e+01,   -6.928203e+00
    4567,    9.000000e+00,    0.000000e+00,   -1.530808e-15
    4568,    7.794229e+00,   -2.755455e-16,   -4.500000e+00
    4569,    4.500000e+00,   -4.772589e-16,   -7.794229e+00
    4570,    9.000000e+00,   -4.615385e+01,    1.295299e-15
    4571,    9.000000e+00,   -4.230769e+01,    1.059790e-15
    4572,    9.000000e+00,   -3.846154e+01,    8.242815e-16
    4573,    9.000000e+00,   -3.461538e+01,    5.887725e-16
    4574,    9.000000e+00,   -3.076923e+01,    3.532635e-16
    4575,    9.000000e+00,   -2.692308e+01,    1.177545e-16
    4576,    9.000000e+00,   -2.307692e+01,   -1.177545e-16
    4577,    9.000000e+00,   -1.923077e+01,   -3.532635e-16
    4578,    9.000000e+00,   -1.538462e+01,   -5.887725e-16
    4579,    9.000000e+00,   -1.153846e+01,   -8.242815e-16
    4580,    9.000000e+00,   -7.692308e+00,   -1.059790e-15
    4581,    9.000000e+00,   -3.846154e+00,   -1.295299e-15
    4582,    4.500000e+00,   -4.615385e+01,   -7.794229e+00
    4583,    4.500000e+00,   -4.230769e+01,   -7.794229e+00
    4584,    4.500000e+00,   -3.846154e+01,   -7.794229e+00
    4585,    4.500000e+00,   -3.461538e+01,   -7.794229e+00
    4586,    4.500000e+00,   -3.076923e+01,   -7.794229e+00
    4587,    4.500000e+00,   -2.692308e+01,   -7.794229e+00
    4588,    4.500000e+00,   -2.307692e+01,   -7.794229e+00
    4589,    4.500000e+00,   -1.923077e+01,   -7.794229e+00
    4590,    4.500000e+00,   -1.538462e+01,   -7.794229e+00
    4591,    4.500000e+00,   -1.153846e+01,   -7.794229e+00
    4592,    4.500000e+00,   -7.692308e+00,   -7.794229e+00
    4593,    4.500000e+00,   -3.846154e+00,   -7.794229e+00
    4594,    7.794229e+00,   -4.615385e+01,   -4.500000e+00
    4595,    7.794229e+00,   -4.230769e+01,   -4.500000e+00
    4596,    7.794229e+00,   -3.846154e+01,   -4.500000e+00
    4597,    7.794229e+00,   -3.461538e+01,   -4.500000e+00
    4598,    7.794229e+00,   -3.076923e+01,   -4.500000e+00
    4599,    7.794229e+00,   -2.692308e+01,   -4.500000e+00
    4600,    7.794229e+00,   -2.307692e+01,   -4.500000e+00
    4601,    7.794229e+00,   -1.923077e+01,   -4.500000e+00
    4602,    7.794229e+00,   -1.538462e+01,   -4.500000e+00
    4603,    7.794229e+00,   -1.153846e+01,   -4.500000e+00
    4604,    7.794229e+00,   -7.692308e+00,   -4.500000e+00
    4605,    7.794229e+00,   -3.846154e+00,   -4.500000e+00
    4606,    8.000000e+00,    0.000000e+00,   -1.530808e-15
    4607,    8.000000e+00,   -3.846154e+00,   -1.295299e-15
    4608,    8.000000e+00,   -7.692308e+00,   -1.059790e-15
    4609,    8.000000e+00,   -1.153846e+01,   -8.242815e-16
    4610,    8.000000e+00,   -1.538462e+01,   -5.887725e-16
    4611,    8.000000e+00,   -1.923077e+01,   -3.532635e-16
    4612,    8.000000e+00,   -2.307692e+01,   -1.177545e-16
    4613,    8.000000e+00,   -2.692308e+01,    1.177545e-16
    4614,    8.000000e+00,   -3.076923e+01,    3.532635e-16
    4615,    8.000000e+00,   -3.461538e+01,    5.887725e-16
    4616,    8.000000e+00,   -3.846154e+01,    8.242815e-16
    4617,    8.000000e+00,   -4.230769e+01,    1.059790e-15
    4618,    8.000000e+00,   -4.615385e+01,    1.295299e-15
    4619,    4.000000e+00,   -4.242301e-16,   -6.928203e+00
    4620,    6.928203e+00,   -2.449294e-16,   -4.000000e+00
    4621,    4.000000e+00,   -3.846154e+00,   -6.928203e+00
    4622,    4.000000e+00,   -7.692308e+00,   -6.928203e+00
    4623,    4.000000e+00,   -1.153846e+01,   -6.928203e+00
    4624,    4.000000e+00,   -1.538462e+01,   -6.928203e+00
    4625,    4.000000e+00,   -1.923077e+01,   -6.928203e+00
    4626,    4.000000e+00,   -2.307692e+01,   -6.928203e+00
    4627,    4.000000e+00,   -2.692308e+01,   -6.928203e+00
    4628,    4.000000e+00,   -3.076923e+01,   -6.928203e+00
    4629,    4.000000e+00,   -3.461538e+01,   -6.928203e+00
    4630,    4.000000e+00,   -3.846154e+01,   -6.928203e+00
    4631,    4.000000e+00,   -4.230769e+01,   -6.928203e+00
    4632,    4.000000e+00,   -4.615385e+01,   -6.928203e+00
    4633,    6.928203e+00,   -3.846154e+00,   -4.000000e+00
    4634,    6.928203e+00,   -7.692308e+00,   -4.000000e+00
    4635,    6.928203e+00,   -1.153846e+01,   -4.000000e+00
    4636,    6.928203e+00,   -1.538462e+01,   -4.000000e+00
    4637,    6.928203e+00,   -1.923077e+01,   -4.000000e+00
    4638,    6.928203e+00,   -2.307692e+01,   -4.000000e+00
    4639,    6.928203e+00,   -2.692308e+01,   -4.000000e+00
    4640,    6.928203e+00,   -3.076923e+01,   -4.000000e+00
    4641,    6.928203e+00,   -3.461538e+01,   -4.000000e+00
    4642,    6.928203e+00,   -3.846154e+01,   -4.000000e+00
    4643,    6.928203e+00,   -4.230769e+01,   -4.000000e+00
    4644,    6.928203e+00,   -4.615385e+01,   -4.000000e+00
    6240,   -8.000000e+00,    9.373499e-32,    0.000000e+00
    6241,   -6.928203e+00,   -2.449294e-16,   -4.000000e+00
    6242,   -4.000000e+00,   -4.242301e-16,   -6.928203e+00
    6243,   -8.000000e+00,   -5.000000e+01,    0.000000e+00
    6244,   -8.000000e+00,   -4.615385e+01,    1.295299e-15
    6245,   -8.000000e+00,   -4.230769e+01,    1.059790e-15
    6246,   -8.000000e+00,   -3.846154e+01,    8.242815e-16
    6247,   -8.000000e+00,   -3.461538e+01,    5.887725e-16
    6248,   -8.000000e+00,   -3.076923e+01,    3.532635e-16
    6249,   -8.000000e+00,   -2.692308e+01,    1.177545e-16
    6250,   -8.000000e+00,   -2.307692e+01,   -1.177545e-16
    6251,   -8.000000e+00,   -1.923077e+01,   -3.532635e-16
    6252,   -8.000000e+00,   -1.538462e+01,   -5.887725e-16
    6253,   -8.000000e+00,   -1.153846e+01,   -8.242815e-16
    6254,   -8.000000e+00,   -7.692308e+00,   -1.059790e-15
    6255,   -8.000000e+00,   -3.846154e+00,   -1.295299e-15
    6256,   -4.000000e+00,   -5.000000e+01,   -6.928203e+00
    6257,   -6.928203e+00,   -5.000000e+01,   -4.000000e+00
    6258,   -4.000000e+00,   -4.615385e+01,   -6.928203e+00
    6259,   -4.000000e+00,   -4.230769e+01,   -6.928203e+00
    6260,   -4.000000e+00,   -3.846154e+01,   -6.928203e+00
    6261,   -4.000000e+00,   -3.461538e+01,   -6.928203e+00
    6262,   -4.000000e+00,   -3.076923e+01,   -6.928203e+00
    6263,   -4.000000e+00,   -2.692308e+01,   -6.928203e+00
    6264,   -4.000000e+00,   -2.307692e+01,   -6.928203e+00
    6265,   -4.000000e+00,   -1.923077e+01,   -6.928203e+00
    6266,   -4.000000e+00,   -1.538462e+01,   -6.928203e+00
    6267,   -4.000000e+00,   -1.153846e+01,   -6.928203e+00
    6268,   -4.000000e+00,   -7.692308e+00,   -6.928203e+00
    6269,   -4.000000e+00,   -3.846154e+00,   -6.928203e+00
    6270,   -6.928203e+00,   -4.615385e+01,   -4.000000e+00
    6271,   -6.928203e+00,   -4.230769e+01,   -4.000000e+00
    6272,   -6.928203e+00,   -3.846154e+01,   -4.000000e+00
    6273,   -6.928203e+00,   -3.461538e+01,   -4.000000e+00
    6274,   -6.928203e+00,   -3.076923e+01,   -4.000000e+00
    6275,   -6.928203e+00,   -2.692308e+01,   -4.000000e+00
    6276,   -6.928203e+00,   -2.307692e+01,   -4.000000e+00
    6277,   -6.928203e+00,   -1.923077e+01,   -4.000000e+00
    6278,   -6.928203e+00,   -1.538462e+01,   -4.000000e+00
    6279,   -6.928203e+00,   -1.153846e+01,   -4.000000e+00
    6280,   -6.928203e+00,   -7.692308e+00,   -4.000000e+00
    6281,   -6.928203e+00,   -3.846154e+00,   -4.000000e+00
    6282,   -9.000000e+00,    9.373499e-32,    0.000000e+00
    6283,   -4.500000e+00,   -4.772589e-16,   -7.794229e+00
    6284,   -7.794229e+00,   -2.755455e-16,   -4.500000e+00
    6285,   -9.000000e+00,   -5.000000e+01,    0.000000e+00
    6286,   -9.000000e+00,   -3.846154e+00,   -1.295299e-15
    6287,   -9.000000e+00,   -7.692308e+00,   -1.059790e-15
    6288,   -9.000000e+00,   -1.153846e+01,   -8.242815e-16
    6289,   -9.000000e+00,   -1.538462e+01,   -5.887725e-16
    6290,   -9.000000e+00,   -1.923077e+01,   -3.532635e-16
    6291,   -9.000000e+00,   -2.307692e+01,   -1.177545e-16
    6292,   -9.000000e+00,   -2.692308e+01,    1.177545e-16
    6293,   -9.000000e+00,   -3.076923e+01,    3.532635e-16
    6294,   -9.000000e+00,   -3.461538e+01,    5.887725e-16
    6295,   -9.000000e+00,   -3.846154e+01,    8.242815e-16
    6296,   -9.000000e+00,   -4.230769e+01,    1.059790e-15
    6297,   -9.000000e+00,   -4.615385e+01,    1.295299e-15
    6298,   -7.794229e+00,   -5.000000e+01,   -4.500000e+00
    6299,   -4.500000e+00,   -5.000000e+01,   -7.794229e+00
    6300,   -4.500000e+00,   -3.846154e+00,   -7.794229e+00
    6301,   -4.500000e+00,   -7.692308e+00,   -7.794229e+00
    6302,   -4.500000e+00,   -1.153846e+01,   -7.794229e+00
    6303,   -4.500000e+00,   -1.538462e+01,   -7.794229e+00
    6304,   -4.500000e+00,   -1.923077e+01,   -7.794229e+00
    6305,   -4.500000e+00,   -2.307692e+01,   -7.794229e+00
    6306,   -4.500000e+00,   -2.692308e+01,   -7.794229e+00
    6307,   -4.500000e+00,   -3.076923e+01,   -7.794229e+00
    6308,   -4.500000e+00,   -3.461538e+01,   -7.794229e+00
    6309,   -4.500000e+00,   -3.846154e+01,   -7.794229e+00
    6310,   -4.500000e+00,   -4.230769e+01,   -7.794229e+00
    6311,   -4.500000e+00,   -4.615385e+01,   -7.794229e+00
    6312,   -7.794229e+00,   -3.846154e+00,   -4.500000e+00
    6313,   -7.794229e+00,   -7.692308e+00,   -4.500000e+00
    6314,   -7.794229e+00,   -1.153846e+01,   -4.500000e+00
    6315,   -7.794229e+00,   -1.538462e+01,   -4.500000e+00
    6316,   -7.794229e+00,   -1.923077e+01,   -4.500000e+00
    6317,   -7.794229e+00,   -2.307692e+01,   -4.500000e+00
    6318,   -7.794229e+00,   -2.692308e+01,   -4.500000e+00
    6319,   -7.794229e+00,   -3.076923e+01,   -4.500000e+00
    6320,   -7.794229e+00,   -3.461538e+01,   -4.500000e+00
    6321,   -7.794229e+00,   -3.846154e+01,   -4.500000e+00
    6322,   -7.794229e+00,   -4.230769e+01,   -4.500000e+00
    6323,   -7.794229e+00,   -4.615385e+01,   -4.500000e+00
********************************** E L E M E N T S ****************************
*ELEMENT, TYPE=C3D8I, ELSET=steel
       1,    2027,    1913,    1917,    2044,    1901,    1900,    1903,    1905
       2,    2043,    2011,    2027,    2044,    1906,    1902,    1901,    1905
       3,    1969,    1924,    2011,    2043,    1899,    1898,    1902,    1906
       4,    1915,    1908,    1969,    2043,    1904,    1897,    1899,    1906
       5,    1917,    1915,    2043,    2044,    1903,    1904,    1906,    1905
       6,    2028,    1914,    1918,    2046,    2027,    1913,    1917,    2044
       7,    2045,    2012,    2028,    2046,    2043,    2011,    2027,    2044
       8,    1968,    1925,    2012,    2045,    1969,    1924,    2011,    2043
       9,    1916,    1909,    1968,    2045,    1915,    1908,    1969,    2043
      10,    1918,    1916,    2045,    2046,    1917,    1915,    2043,    2044
      11,    2029,    1910,    1911,    2048,    2028,    1914,    1918,    2046
      12,    2047,    2013,    2029,    2048,    2045,    2012,    2028,    2046
      13,    1967,    1926,    2013,    2047,    1968,    1925,    2012,    2045
      14,    1912,    1907,    1967,    2047,    1916,    1909,    1968,    2045
      15,    1911,    1912,    2047,    2048,    1918,    1916,    2045,    2046
      16,    2030,    1920,    1921,    2050,    2029,    1910,    1911,    2048
      17,    2049,    2014,    2030,    2050,    2047,    2013,    2029,    2048
      18,    1966,    1927,    2014,    2049,    1967,    1926,    2013,    2047
      19,    1922,    1919,    1966,    2049,    1912,    1907,    1967,    2047
      20,    1921,    1922,    2049,    2050,    1911,    1912,    2047,    2048
      21,    2031,    1982,    1986,    2052,    2030,    1920,    1921,    2050
      22,    2051,    2015,    2031,    2052,    2049,    2014,    2030,    2050
      23,    1965,    1928,    2015,    2051,    1966,    1927,    2014,    2049
      24,    1985,    1952,    1965,    2051,    1922,    1919,    1966,    2049
      25,    1986,    1985,    2051,    2052,    1921,    1922,    2049,    2050
      26,    2032,    1981,    1988,    2054,    2031,    1982,    1986,    2052
      27,    2053,    2016,    2032,    2054,    2051,    2015,    2031,    2052
      28,    1964,    1929,    2016,    2053,    1965,    1928,    2015,    2051
      29,    1987,    1951,    1964,    2053,    1985,    1952,    1965,    2051
      30,    1988,    1987,    2053,    2054,    1986,    1985,    2051,    2052
      31,    2033,    1980,    1990,    2056,    2032,    1981,    1988,    2054
      32,    2055,    2017,    2033,    2056,    2053,    2016,    2032,    2054
      33,    1963,    1930,    2017,    2055,    1964,    1929,    2016,    2053
      34,    1989,    1950,    1963,    2055,    1987,    1951,    1964,    2053
      35,    1990,    1989,    2055,    2056,    1988,    1987,    2053,    2054
      36,    2034,    1979,    1992,    2058,    2033,    1980,    1990,    2056
      37,    2057,    2018,    2034,    2058,    2055,    2017,    2033,    2056
      38,    1962,    1931,    2018,    2057,    1963,    1930,    2017,    2055
      39,    1991,    1949,    1962,    2057,    1989,    1950,    1963,    2055
      40,    1992,    1991,    2057,    2058,    1990,    1989,    2055,    2056
      41,    2035,    1978,    1994,    2060,    2034,    1979,    1992,    2058
      42,    2059,    2019,    2035,    2060,    2057,    2018,    2034,    2058
      43,    1961,    1932,    2019,    2059,    1962,    1931,    2018,    2057
      44,    1993,    1948,    1961,    2059,    1991,    1949,    1962,    2057
      45,    1994,    1993,    2059,    2060,    1992,    1991,    2057,    2058
      46,    2036,    1977,    1996,    2062,    2035,    1978,    1994,    2060
      47,    2061,    2020,    2036,    2062,    2059,    2019,    2035,    2060
      48,    1960,    1933,    2020,    2061,    1961,    1932,    2019,    2059
      49,    1995,    1947,    1960,    2061,    1993,    1948,    1961,    2059
      50,    1996,    1995,    2061,    2062,    1994,    1993,    2059,    2060
      51,    2037,    1976,    1998,    2064,    2036,    1977,    1996,    2062
      52,    2063,    2021,    2037,    2064,    2061,    2020,    2036,    2062
      53,    1959,    1934,    2021,    2063,    1960,    1933,    2020,    2061
      54,    1997,    1946,    1959,    2063,    1995,    1947,    1960,    2061
      55,    1998,    1997,    2063,    2064,    1996,    1995,    2061,    2062
      56,    2038,    1975,    2000,    2066,    2037,    1976,    1998,    2064
      57,    2065,    2022,    2038,    2066,    2063,    2021,    2037,    2064
      58,    1958,    1935,    2022,    2065,    1959,    1934,    2021,    2063
      59,    1999,    1945,    1958,    2065,    1997,    1946,    1959,    2063
      60,    2000,    1999,    2065,    2066,    1998,    1997,    2063,    2064
      61,    2039,    1974,    2002,    2068,    2038,    1975,    2000,    2066
      62,    2067,    2023,    2039,    2068,    2065,    2022,    2038,    2066
      63,    1957,    1936,    2023,    2067,    1958,    1935,    2022,    2065
      64,    2001,    1944,    1957,    2067,    1999,    1945,    1958,    2065
      65,    2002,    2001,    2067,    2068,    2000,    1999,    2065,    2066
      66,    2040,    1973,    2004,    2070,    2039,    1974,    2002,    2068
      67,    2069,    2024,    2040,    2070,    2067,    2023,    2039,    2068
      68,    1956,    1937,    2024,    2069,    1957,    1936,    2023,    2067
      69,    2003,    1943,    1956,    2069,    2001,    1944,    1957,    2067
      70,    2004,    2003,    2069,    2070,    2002,    2001,    2067,    2068
      71,    2041,    1972,    2006,    2072,    2040,    1973,    2004,    2070
      72,    2071,    2025,    2041,    2072,    2069,    2024,    2040,    2070
      73,    1955,    1938,    2025,    2071,    1956,    1937,    2024,    2069
      74,    2005,    1942,    1955,    2071,    2003,    1943,    1956,    2069
      75,    2006,    2005,    2071,    2072,    2004,    2003,    2069,    2070
      76,    2042,    1971,    2008,    2074,    2041,    1972,    2006,    2072
      77,    2073,    2026,    2042,    2074,    2071,    2025,    2041,    2072
      78,    1954,    1939,    2026,    2073,    1955,    1938,    2025,    2071
      79,    2007,    1941,    1954,    2073,    2005,    1942,    1955,    2071
      80,    2008,    2007,    2073,    2074,    2006,    2005,    2071,    2072
      81,    2010,    1970,    1984,    2076,    2042,    1971,    2008,    2074
      82,    2075,    2009,    2010,    2076,    2073,    2026,    2042,    2074
      83,    1953,    1923,    2009,    2075,    1954,    1939,    2026,    2073
      84,    1983,    1940,    1953,    2075,    2007,    1941,    1954,    2073
      85,    1984,    1983,    2075,    2076,    2008,    2007,    2073,    2074
      86,    2162,    2163,    2164,    2166,    2090,    2091,    2092,    2094
      87,    2166,    2165,    2161,    2162,    2094,    2093,    2089,    2090
      88,    1922,    1921,    2161,    2165,    1912,    1911,    2089,    2093
      89,    2153,    2154,    2165,    2166,    2087,    2086,    2093,    2094
      90,    2152,    2153,    2166,    2164,    2088,    2087,    2094,    2092
      91,    1920,    2156,    2161,    1921,    1910,    2080,    2089,    1911
      92,    2150,    1919,    1922,    2165,    2078,    1907,    1912,    2093
      93,    2149,    2150,    2165,    2154,    2077,    2078,    2093,    2086
      94,    2160,    2151,    2152,    2164,    2082,    2081,    2088,    2092
      95,    2159,    2160,    2164,    2163,    2083,    2082,    2092,    2091
      96,    2158,    2159,    2163,    2162,    2084,    2083,    2091,    2090
      97,    2157,    2158,    2162,    2161,    2085,    2084,    2090,    2089
      98,    2155,    2157,    2161,    2156,    2079,    2085,    2089,    2080
      99,    2090,    2091,    2092,    2094,    2132,    2133,    2134,    2136
     100,    2094,    2093,    2089,    2090,    2136,    2135,    2131,    2132
     101,    1912,    1911,    2089,    2093,    1916,    1918,    2131,    2135
     102,    2087,    2086,    2093,    2094,    2109,    2107,    2135,    2136
     103,    2088,    2087,    2094,    2092,    2111,    2109,    2136,    2134
     104,    1910,    2080,    2089,    1911,    1914,    2117,    2131,    1918
     105,    2078,    1907,    1912,    2093,    2099,    1909,    1916,    2135
     106,    2077,    2078,    2093,    2086,    2097,    2099,    2135,    2107
     107,    2082,    2081,    2088,    2092,    2130,    2106,    2111,    2134
     108,    2083,    2082,    2092,    2091,    2128,    2130,    2134,    2133
     109,    2084,    2083,    2091,    2090,    2126,    2128,    2133,    2132
     110,    2085,    2084,    2090,    2089,    2124,    2126,    2132,    2131
     111,    2079,    2085,    2089,    2080,    2114,    2124,    2131,    2117
     112,    2132,    2133,    2134,    2136,    2138,    2139,    2140,    2142
     113,    2136,    2135,    2131,    2132,    2142,    2141,    2137,    2138
     114,    1916,    1918,    2131,    2135,    1915,    1917,    2137,    2141
     115,    2109,    2107,    2135,    2136,    2110,    2108,    2141,    2142
     116,    2111,    2109,    2136,    2134,    2112,    2110,    2142,    2140
     117,    1914,    2117,    2131,    1918,    1913,    2118,    2137,    1917
     118,    2099,    1909,    1916,    2135,    2100,    1908,    1915,    2141
     119,    2097,    2099,    2135,    2107,    2098,    2100,    2141,    2108
     120,    2130,    2106,    2111,    2134,    2129,    2105,    2112,    2140
     121,    2128,    2130,    2134,    2133,    2127,    2129,    2140,    2139
     122,    2126,    2128,    2133,    2132,    2125,    2127,    2139,    2138
     123,    2124,    2126,    2132,    2131,    2123,    2125,    2138,    2137
     124,    2114,    2124,    2131,    2117,    2115,    2123,    2137,    2118
     125,    2138,    2139,    2140,    2142,    2144,    2145,    2146,    2148
     126,    2142,    2141,    2137,    2138,    2148,    2147,    2143,    2144
     127,    1915,    1917,    2137,    2141,    1904,    1903,    2143,    2147
     128,    2110,    2108,    2141,    2142,    2103,    2102,    2147,    2148
     129,    2112,    2110,    2142,    2140,    2104,    2103,    2148,    2146
     130,    1913,    2118,    2137,    1917,    1900,    2116,    2143,    1903
     131,    2100,    1908,    1915,    2141,    2096,    1897,    1904,    2147
     132,    2098,    2100,    2141,    2108,    2095,    2096,    2147,    2102
     133,    2129,    2105,    2112,    2140,    2122,    2101,    2104,    2146
     134,    2127,    2129,    2140,    2139,    2121,    2122,    2146,    2145
     135,    2125,    2127,    2139,    2138,    2120,    2121,    2145,    2144
     136,    2123,    2125,    2138,    2137,    2119,    2120,    2144,    2143
     137,    2115,    2123,    2137,    2118,    2113,    2119,    2143,    2116
     138,    4209,    4192,    4247,    4250,    4158,    4157,    4160,    4162
     139,    4249,    4193,    4209,    4250,    4163,    4159,    4158,    4162
     140,    1954,    1939,    4193,    4249,    1953,    1923,    4159,    4163
     141,    4248,    1941,    1954,    4249,    4161,    1940,    1953,    4163
     142,    4247,    4248,    4249,    4250,    4160,    4161,    4163,    4162
     143,    4210,    4191,    4245,    4252,    4209,    4192,    4247,    4250
     144,    4251,    4194,    4210,    4252,    4249,    4193,    4209,    4250
     145,    1955,    1938,    4194,    4251,    1954,    1939,    4193,    4249
     146,    4246,    1942,    1955,    4251,    4248,    1941,    1954,    4249
     147,    4245,    4246,    4251,    4252,    4247,    4248,    4249,    4250
     148,    4211,    4190,    4243,    4254,    4210,    4191,    4245,    4252
     149,    4253,    4195,    4211,    4254,    4251,    4194,    4210,    4252
     150,    1956,    1937,    4195,    4253,    1955,    1938,    4194,    4251
     151,    4244,    1943,    1956,    4253,    4246,    1942,    1955,    4251
     152,    4243,    4244,    4253,    4254,    4245,    4246,    4251,    4252
     153,    4212,    4189,    4241,    4256,    4211,    4190,    4243,    4254
     154,    4255,    4196,    4212,    4256,    4253,    4195,    4211,    4254
     155,    1957,    1936,    4196,    4255,    1956,    1937,    4195,    4253
     156,    4242,    1944,    1957,    4255,    4244,    1943,    1956,    4253
     157,    4241,    4242,    4255,    4256,    4243,    4244,    4253,    4254
     158,    4213,    4188,    4239,    4258,    4212,    4189,    4241,    4256
     159,    4257,    4197,    4213,    4258,    4255,    4196,    4212,    4256
     160,    1958,    1935,    4197,    4257,    1957,    1936,    4196,    4255
     161,    4240,    1945,    1958,    4257,    4242,    1944,    1957,    4255
     162,    4239,    4240,    4257,    4258,    4241,    4242,    4255,    4256
     163,    4214,    4187,    4237,    4260,    4213,    4188,    4239,    4258
     164,    4259,    4198,    4214,    4260,    4257,    4197,    4213,    4258
     165,    1959,    1934,    4198,    4259,    1958,    1935,    4197,    4257
     166,    4238,    1946,    1959,    4259,    4240,    1945,    1958,    4257
     167,    4237,    4238,    4259,    4260,    4239,    4240,    4257,    4258
     168,    4215,    4186,    4235,    4262,    4214,    4187,    4237,    4260
     169,    4261,    4199,    4215,    4262,    4259,    4198,    4214,    4260
     170,    1960,    1933,    4199,    4261,    1959,    1934,    4198,    4259
     171,    4236,    1947,    1960,    4261,    4238,    1946,    1959,    4259
     172,    4235,    4236,    4261,    4262,    4237,    4238,    4259,    4260
     173,    4216,    4185,    4233,    4264,    4215,    4186,    4235,    4262
     174,    4263,    4200,    4216,    4264,    4261,    4199,    4215,    4262
     175,    1961,    1932,    4200,    4263,    1960,    1933,    4199,    4261
     176,    4234,    1948,    1961,    4263,    4236,    1947,    1960,    4261
     177,    4233,    4234,    4263,    4264,    4235,    4236,    4261,    4262
     178,    4217,    4184,    4231,    4266,    4216,    4185,    4233,    4264
     179,    4265,    4201,    4217,    4266,    4263,    4200,    4216,    4264
     180,    1962,    1931,    4201,    4265,    1961,    1932,    4200,    4263
     181,    4232,    1949,    1962,    4265,    4234,    1948,    1961,    4263
     182,    4231,    4232,    4265,    4266,    4233,    4234,    4263,    4264
     183,    4218,    4183,    4229,    4268,    4217,    4184,    4231,    4266
     184,    4267,    4202,    4218,    4268,    4265,    4201,    4217,    4266
     185,    1963,    1930,    4202,    4267,    1962,    1931,    4201,    4265
     186,    4230,    1950,    1963,    4267,    4232,    1949,    1962,    4265
     187,    4229,    4230,    4267,    4268,    4231,    4232,    4265,    4266
     188,    4219,    4182,    4227,    4270,    4218,    4183,    4229,    4268
     189,    4269,    4203,    4219,    4270,    4267,    4202,    4218,    4268
     190,    1964,    1929,    4203,    4269,    1963,    1930,    4202,    4267
     191,    4228,    1951,    1964,    4269,    4230,    1950,    1963,    4267
     192,    4227,    4228,    4269,    4270,    4229,    4230,    4267,    4268
     193,    4220,    4181,    4225,    4272,    4219,    4182,    4227,    4270
     194,    4271,    4204,    4220,    4272,    4269,    4203,    4219,    4270
     195,    1965,    1928,    4204,    4271,    1964,    1929,    4203,    4269
     196,    4226,    1952,    1965,    4271,    4228,    1951,    1964,    4269
     197,    4225,    4226,    4271,    4272,    4227,    4228,    4269,    4270
     198,    4221,    4176,    4178,    4274,    4220,    4181,    4225,    4272
     199,    4273,    4205,    4221,    4274,    4271,    4204,    4220,    4272
     200,    1966,    1927,    4205,    4273,    1965,    1928,    4204,    4271
     201,    4177,    1919,    1966,    4273,    4226,    1952,    1965,    4271
     202,    4178,    4177,    4273,    4274,    4225,    4226,    4271,    4272
     203,    4222,    4167,    4171,    4276,    4221,    4176,    4178,    4274
     204,    4275,    4206,    4222,    4276,    4273,    4205,    4221,    4274
     205,    1967,    1926,    4206,    4275,    1966,    1927,    4205,    4273
     206,    4170,    1907,    1967,    4275,    4177,    1919,    1966,    4273
     207,    4171,    4170,    4275,    4276,    4178,    4177,    4273,    4274
     208,    4223,    4168,    4174,    4278,    4222,    4167,    4171,    4276
     209,    4277,    4207,    4223,    4278,    4275,    4206,    4222,    4276
     210,    1968,    1925,    4207,    4277,    1967,    1926,    4206,    4275
     211,    4172,    1909,    1968,    4277,    4170,    1907,    1967,    4275
     212,    4174,    4172,    4277,    4278,    4171,    4170,    4275,    4276
     213,    4224,    4169,    4175,    4280,    4223,    4168,    4174,    4278
     214,    4279,    4208,    4224,    4280,    4277,    4207,    4223,    4278
     215,    1969,    1924,    4208,    4279,    1968,    1925,    4207,    4277
     216,    4173,    1908,    1969,    4279,    4172,    1909,    1968,    4277
     217,    4175,    4173,    4279,    4280,    4174,    4172,    4277,    4278
     218,    4180,    4164,    4166,    4282,    4224,    4169,    4175,    4280
     219,    4281,    4179,    4180,    4282,    4279,    4208,    4224,    4280
     220,    1899,    1898,    4179,    4281,    1969,    1924,    4208,    4279
     221,    4165,    1897,    1899,    4281,    4173,    1908,    1969,    4279
     222,    4166,    4165,    4281,    4282,    4175,    4173,    4279,    4280
     223,    4362,    4357,    4358,    4359,    4298,    4293,    4294,    4295
     224,    4359,    4360,    4361,    4362,    4295,    4296,    4297,    4298
     225,    4178,    4177,    4361,    4360,    4171,    4170,    4297,    4296
     226,    4355,    4356,    4357,    4362,    4285,    4284,    4293,    4298
     227,    4354,    4355,    4362,    4361,    4286,    4285,    4298,    4297
     228,    4348,    4176,    4178,    4360,    4292,    4167,    4171,    4296
     229,    2150,    2149,    4354,    4361,    2078,    2077,    4286,    4297
     230,    1919,    2150,    4361,    4177,    1907,    2078,    4297,    4170
     231,    4350,    4347,    4348,    4360,    4288,    4287,    4292,    4296
     232,    4351,    4350,    4360,    4359,    4289,    4288,    4296,    4295
     233,    4352,    4351,    4359,    4358,    4290,    4289,    4295,    4294
     234,    4353,    4352,    4358,    4357,    4291,    4290,    4294,    4293
     235,    4349,    4353,    4357,    4356,    4283,    4291,    4293,    4284
     236,    4298,    4293,    4294,    4295,    4334,    4329,    4330,    4331
     237,    4295,    4296,    4297,    4298,    4331,    4332,    4333,    4334
     238,    4171,    4170,    4297,    4296,    4174,    4172,    4333,    4332
     239,    4285,    4284,    4293,    4298,    4314,    4316,    4329,    4334
     240,    4286,    4285,    4298,    4297,    4312,    4314,    4334,    4333
     241,    4292,    4167,    4171,    4296,    4303,    4168,    4174,    4332
     242,    2078,    2077,    4286,    4297,    2099,    2097,    4312,    4333
     243,    1907,    2078,    4297,    4170,    1909,    2099,    4333,    4172
     244,    4288,    4287,    4292,    4296,    4321,    4302,    4303,    4332
     245,    4289,    4288,    4296,    4295,    4323,    4321,    4332,    4331
     246,    4290,    4289,    4295,    4294,    4325,    4323,    4331,    4330
     247,    4291,    4290,    4294,    4293,    4327,    4325,    4330,    4329
     248,    4283,    4291,    4293,    4284,    4306,    4327,    4329,    4316
     249,    4334,    4329,    4330,    4331,    4340,    4335,    4336,    4337
     250,    4331,    4332,    4333,    4334,    4337,    4338,    4339,    4340
     251,    4174,    4172,    4333,    4332,    4175,    4173,    4339,    4338
     252,    4314,    4316,    4329,    4334,    4313,    4315,    4335,    4340
     253,    4312,    4314,    4334,    4333,    4311,    4313,    4340,    4339
     254,    4303,    4168,    4174,    4332,    4304,    4169,    4175,    4338
     255,    2099,    2097,    4312,    4333,    2100,    2098,    4311,    4339
     256,    1909,    2099,    4333,    4172,    1908,    2100,    4339,    4173
     257,    4321,    4302,    4303,    4332,    4322,    4301,    4304,    4338
     258,    4323,    4321,    4332,    4331,    4324,    4322,    4338,    4337
     259,    4325,    4323,    4331,    4330,    4326,    4324,    4337,    4336
     260,    4327,    4325,    4330,    4329,    4328,    4326,    4336,    4335
     261,    4306,    4327,    4329,    4316,    4307,    4328,    4335,    4315
     262,    4340,    4335,    4336,    4337,    4346,    4341,    4342,    4343
     263,    4337,    4338,    4339,    4340,    4343,    4344,    4345,    4346
     264,    4175,    4173,    4339,    4338,    4166,    4165,    4345,    4344
     265,    4313,    4315,    4335,    4340,    4309,    4308,    4341,    4346
     266,    4311,    4313,    4340,    4339,    4310,    4309,    4346,    4345
     267,    4304,    4169,    4175,    4338,    4300,    4164,    4166,    4344
     268,    2100,    2098,    4311,    4339,    2096,    2095,    4310,    4345
     269,    1908,    2100,    4339,    4173,    1897,    2096,    4345,    4165
     270,    4322,    4301,    4304,    4338,    4317,    4299,    4300,    4344
     271,    4324,    4322,    4338,    4337,    4318,    4317,    4344,    4343
     272,    4326,    4324,    4337,    4336,    4319,    4318,    4343,    4342
     273,    4328,    4326,    4336,    4335,    4320,    4319,    4342,    4341
     274,    4307,    4328,    4335,    4315,    4305,    4320,    4341,    4308
*ELEMENT, TYPE=COH3D8, ELSET=mortar
     275,    4567,    4581,    4607,    4606,    4568,    4605,    4633,    4620
     276,    4581,    4580,    4608,    4607,    4605,    4604,    4634,    4633
     277,    4580,    4579,    4609,    4608,    4604,    4603,    4635,    4634
     278,    4579,    4578,    4610,    4609,    4603,    4602,    4636,    4635
     279,    4578,    4577,    4611,    4610,    4602,    4601,    4637,    4636
     280,    4577,    4576,    4612,    4611,    4601,    4600,    4638,    4637
     281,    4576,    4575,    4613,    4612,    4600,    4599,    4639,    4638
     282,    4575,    4574,    4614,    4613,    4599,    4598,    4640,    4639
     283,    4574,    4573,    4615,    4614,    4598,    4597,    4641,    4640
     284,    4573,    4572,    4616,    4615,    4597,    4596,    4642,    4641
     285,    4572,    4571,    4617,    4616,    4596,    4595,    4643,    4642
     286,    4571,    4570,    4618,    4617,    4595,    4594,    4644,    4643
     287,    4570,    4561,    4564,    4618,    4594,    4563,    4565,    4644
     288,    4568,    4605,    4633,    4620,    4569,    4593,    4621,    4619
     289,    4605,    4604,    4634,    4633,    4593,    4592,    4622,    4621
     290,    4604,    4603,    4635,    4634,    4592,    4591,    4623,    4622
     291,    4603,    4602,    4636,    4635,    4591,    4590,    4624,    4623
     292,    4602,    4601,    4637,    4636,    4590,    4589,    4625,    4624
     293,    4601,    4600,    4638,    4637,    4589,    4588,    4626,    4625
     294,    4600,    4599,    4639,    4638,    4588,    4587,    4627,    4626
     295,    4599,    4598,    4640,    4639,    4587,    4586,    4628,    4627
     296,    4598,    4597,    4641,    4640,    4586,    4585,    4629,    4628
     297,    4597,    4596,    4642,    4641,    4585,    4584,    4630,    4629
     298,    4596,    4595,    4643,    4642,    4584,    4583,    4631,    4630
     299,    4595,    4594,    4644,    4643,    4583,    4582,    4632,    4631
     300,    4594,    4563,    4565,    4644,    4582,    4562,    4566,    4632
     301,    4569,    4593,    4621,    4619,    4533,    4547,    4549,    4534
     302,    4593,    4592,    4622,    4621,    4547,    4546,    4550,    4549
     303,    4592,    4591,    4623,    4622,    4546,    4545,    4551,    4550
     304,    4591,    4590,    4624,    4623,    4545,    4544,    4552,    4551
     305,    4590,    4589,    4625,    4624,    4544,    4543,    4553,    4552
     306,    4589,    4588,    4626,    4625,    4543,    4542,    4554,    4553
     307,    4588,    4587,    4627,    4626,    4542,    4541,    4555,    4554
     308,    4587,    4586,    4628,    4627,    4541,    4540,    4556,    4555
     309,    4586,    4585,    4629,    4628,    4540,    4539,    4557,    4556
     310,    4585,    4584,    4630,    4629,    4539,    4538,    4558,    4557
     311,    4584,    4583,    4631,    4630,    4538,    4537,    4559,    4558
     312,    4583,    4582,    4632,    4631,    4537,    4536,    4560,    4559
     313,    4582,    4562,    4566,    4632,    4536,    4535,    4548,    4560
     314,    4535,    6299,    6256,    4548,    4536,    6311,    6258,    4560
     315,    6299,    6298,    6257,    6256,    6311,    6323,    6270,    6258
     316,    6298,    6285,    6243,    6257,    6323,    6297,    6244,    6270
     317,    4536,    6311,    6258,    4560,    4537,    6310,    6259,    4559
     318,    6311,    6323,    6270,    6258,    6310,    6322,    6271,    6259
     319,    6323,    6297,    6244,    6270,    6322,    6296,    6245,    6271
     320,    4537,    6310,    6259,    4559,    4538,    6309,    6260,    4558
     321,    6310,    6322,    6271,    6259,    6309,    6321,    6272,    6260
     322,    6322,    6296,    6245,    6271,    6321,    6295,    6246,    6272
     323,    4538,    6309,    6260,    4558,    4539,    6308,    6261,    4557
     324,    6309,    6321,    6272,    6260,    6308,    6320,    6273,    6261
     325,    6321,    6295,    6246,    6272,    6320,    6294,    6247,    6273
     326,    4539,    6308,    6261,    4557,    4540,    6307,    6262,    4556
     327,    6308,    6320,    6273,    6261,    6307,    6319,    6274,    6262
     328,    6320,    6294,    6247,    6273,    6319,    6293,    6248,    6274
     329,    4540,    6307,    6262,    4556,    4541,    6306,    6263,    4555
     330,    6307,    6319,    6274,    6262,    6306,    6318,    6275,    6263
     331,    6319,    6293,    6248,    6274,    6318,    6292,    6249,    6275
     332,    4541,    6306,    6263,    4555,    4542,    6305,    6264,    4554
     333,    6306,    6318,    6275,    6263,    6305,    6317,    6276,    6264
     334,    6318,    6292,    6249,    6275,    6317,    6291,    6250,    6276
     335,    4542,    6305,    6264,    4554,    4543,    6304,    6265,    4553
     336,    6305,    6317,    6276,    6264,    6304,    6316,    6277,    6265
     337,    6317,    6291,    6250,    6276,    6316,    6290,    6251,    6277
     338,    4543,    6304,    6265,    4553,    4544,    6303,    6266,    4552
     339,    6304,    6316,    6277,    6265,    6303,    6315,    6278,    6266
     340,    6316,    6290,    6251,    6277,    6315,    6289,    6252,    6278
     341,    4544,    6303,    6266,    4552,    4545,    6302,    6267,    4551
     342,    6303,    6315,    6278,    6266,    6302,    6314,    6279,    6267
     343,    6315,    6289,    6252,    6278,    6314,    6288,    6253,    6279
     344,    4545,    6302,    6267,    4551,    4546,    6301,    6268,    4550
     345,    6302,    6314,    6279,    6267,    6301,    6313,    6280,    6268
     346,    6314,    6288,    6253,    6279,    6313,    6287,    6254,    6280
     347,    4546,    6301,    6268,    4550,    4547,    6300,    6269,    4549
     348,    6301,    6313,    6280,    6268,    6300,    6312,    6281,    6269
     349,    6313,    6287,    6254,    6280,    6312,    6286,    6255,    6281
     350,    4547,    6300,    6269,    4549,    4533,    6283,    6242,    4534
     351,    6300,    6312,    6281,    6269,    6283,    6284,    6241,    6242
     352,    6312,    6286,    6255,    6281,    6284,    6282,    6240,    6241
********************************** N O D E S E T S **********************************
*NSET, NSET=plate_bottom
    1919,    1920,    1921,    1922,    2149,    2150,
    2151,    2152,    2153,    2154,    2155,    2156,
    2157,    2158,    2159,    2160,    2161,    2162,
    2163,    2164,    2165,    2166,    4176,    4177,
    4178,    4347,    4348,    4349,    4350,    4351,
    4352,    4353,    4354,    4355,    4356,    4357,
    4358,    4359,    4360,    4361,    4362,
*NSET, NSET=plate_left_loading
    4283,    4287,    4288,    4289,    4290,    4291,
*NSET, NSET=z_symm
    1898,    1901,    1902,    1910,    1923,    1924,
    1925,    1926,    1927,    1928,    1929,    1930,
    1931,    1932,    1933,    1934,    1935,    1936,
    1937,    1938,    1939,    2009,    2010,    2011,
    2012,    2013,    2014,    2015,    2016,    2017,
    2018,    2019,    2020,    2021,    2022,    2023,
    2024,    2025,    2026,    2027,    2028,    2029,
    2030,    2031,    2032,    2033,    2034,    2035,
    2036,    2037,    2038,    2039,    2040,    2041,
    2042,    2079,    2080,    2113,    2114,    2115,
    2116,    2117,    2118,    2155,    2156,    4157,
    4158,    4159,    4164,    4176,    4179,    4180,
    4193,    4194,    4195,    4196,    4197,    4198,
    4199,    4200,    4201,    4202,    4203,    4204,
    4205,    4206,    4207,    4208,    4209,    4210,
    4211,    4212,    4213,    4214,    4215,    4216,
    4217,    4218,    4219,    4220,    4221,    4222,
    4223,    4224,    4287,    4292,    4299,    4300,
    4301,    4302,    4303,    4304,    4347,    4348,
    6240,    6243,    6282,    6285,
********************************** S I D E S E T S **********************************
*ELSET, ELSET=plate_bottom_S1
      86,      87,      88,      89,      90,      91,      92,      93,      94,      95,
      96,      97,      98,     223,     224,     225,     226,     227,     228,     229,
     230,     231,     232,     233,     234,     235
*SURFACE, NAME=plate_bottom
plate_bottom_S1, S1
*ELSET, ELSET=mortar_to_anchor_S5
     275,     276,     277,     278,     279,     280,     281,     282,     283,     284,
     285,     286,     287,     288,     289,     290,     291,     292,     293,     294,
     295,     296,     297,     298,     299,     300,     301,     302,     303,     304,
     305,     306,     307,     308,     309,     310,     311,     312,     313,     314,
     315,     316,     317,     318,     319,     320,     321,     322,     323,     324,
     325,     326,     327,     328,     329,     330,     331,     332,     333,     334,
     335,     336,     337,     338,     339,     340,     341,     342,     343,     344,
     345,     346,     347,     348,     349,     350,     351,     352
*SURFACE, NAME=mortar_to_anchor
mortar_to_anchor_S5, S5
*ELSET, ELSET=anchor_to_mortar_S3
      24,      25,      29,      30,      34,      35,      39,      40,      44,      45,
      49,      50,      54,      55,      59,      60,      64,      65,      69,      70,
      74,      75,      79,      80,      84,      85,      88,     101,     114,     127,
     141,     142,     146,     147,     151,     152,     156,     157,     161,     162,
     166,     167,     171,     172,     176,     177,     181,     182,     186,     187,
     191,     192,     196,     197,     201,     202,     225,     238,     251,     264
*ELSET, ELSET=anchor_to_mortar_S4
      21,      26,      31,      36,      41,      46,      51,      56,      61,      66,
      71,      76,      81,      92,     105,     118,     131,     138,     143,     148,
     153,     158,     163,     168,     173,     178,     183,     188,     193,     198,
     228,     241,     254,     267
*ELSET, ELSET=anchor_to_mortar_S6
      91,     104,     117,     130,     230,     243,     256,     269
*SURFACE, NAME=anchor_to_mortar
anchor_to_mortar_S3, S3
anchor_to_mortar_S4, S4
anchor_to_mortar_S6, S6
*ELSET, ELSET=mortar_to_concrete_S3
     275,     276,     277,     278,     279,     280,     281,     282,     283,     284,
     285,     286,     287,     288,     289,     290,     291,     292,     293,     294,
     295,     296,     297,     298,     299,     300,     301,     302,     303,     304,
     305,     306,     307,     308,     309,     310,     311,     312,     313,     314,
     315,     316,     317,     318,     319,     320,     321,     322,     323,     324,
     325,     326,     327,     328,     329,     330,     331,     332,     333,     334,
     335,     336,     337,     338,     339,     340,     341,     342,     343,     344,
     345,     346,     347,     348,     349,     350,     351,     352
*SURFACE, NAME=mortar_to_concrete
mortar_to_concrete_S3, S3
