********************************** N O D E S **********************************
*NODE, NSET=ALLNODES
    7333,   -8.000000e+00,   -1.000000e+02,    0.000000e+00
    7334,    8.000000e+00,   -1.000000e+02,    3.673940e-15
    7335,   -4.000000e+00,   -1.000000e+02,    0.000000e+00
    7336,    0.000000e+00,   -1.000000e+02,    0.000000e+00
    7337,    4.000000e+00,   -1.000000e+02,    0.000000e+00
    7338,   -6.928203e+00,   -1.000000e+02,   -4.000000e+00
    7339,   -4.000000e+00,   -1.000000e+02,   -6.928203e+00
    7340,   -1.469576e-15,   -1.000000e+02,   -8.000000e+00
    7341,    4.000000e+00,   -1.000000e+02,   -6.928203e+00
    7342,    6.928203e+00,   -1.000000e+02,   -4.000000e+00
    7343,   -1.654799e+00,   -1.000000e+02,   -3.423652e+00
    7344,   -4.166067e+00,   -1.000000e+02,   -2.494552e+00
    7345,    3.366241e+00,   -1.000000e+02,   -4.575300e+00
    7346,    1.222426e+00,   -1.000000e+02,   -3.926771e+00
    7347,    4.764815e+00,   -1.000000e+02,   -2.858433e+00
    7348,   -8.000000e+00,    6.666667e+00,    1.183825e-15
    7349,   -8.000000e+00,    2.000000e+01,    0.000000e+00
    7350,   -8.000000e+00,    1.111111e+01,   -6.803593e-17
    7351,   -8.000000e+00,    1.555556e+01,   -3.401797e-16
    7352,    8.000000e+00,    6.666667e+00,    0.000000e+00
    7353,    6.928203e+00,    6.666667e+00,   -4.000000e+00
    7354,    4.000000e+00,    6.666667e+00,   -6.928203e+00
    7355,    4.898587e-16,    6.666667e+00,   -8.000000e+00
    7356,   -4.000000e+00,    6.666667e+00,   -6.928203e+00
    7357,   -6.928203e+00,    6.666667e+00,   -4.000000e+00
    7358,    8.000000e+00,    2.000000e+01,   -3.673940e-15
    7359,    8.000000e+00,    1.555556e+01,   -3.401797e-16
    7360,    8.000000e+00,    1.111111e+01,   -6.803593e-17
    7361,    6.928203e+00,    2.000000e+01,   -4.000000e+00
    7362,    4.000000e+00,    2.000000e+01,   -6.928203e+00
    7363,   -3.062855e-15,    2.000000e+01,   -8.000000e+00
    7364,   -4.000000e+00,    2.000000e+01,   -6.928203e+00
    7365,   -6.928203e+00,    2.000000e+01,   -4.000000e+00
    7366,   -6.928203e+00,    1.555556e+01,   -4.000000e+00
    7367,   -6.928203e+00,    1.111111e+01,   -4.000000e+00
    7368,   -4.000000e+00,    1.555556e+01,   -6.928203e+00
    7369,   -4.000000e+00,    1.111111e+01,   -6.928203e+00
    7370,   -3.062855e-15,    1.555556e+01,   -8.000000e+00
    7371,   -3.062855e-15,    1.111111e+01,   -8.000000e+00
    7372,    4.000000e+00,    1.555556e+01,   -6.928203e+00
    7373,    4.000000e+00,    1.111111e+01,   -6.928203e+00
    7374,    6.928203e+00,    1.555556e+01,   -4.000000e+00
    7375,    6.928203e+00,    1.111111e+01,   -4.000000e+00
    7376,    8.000000e+00,    0.000000e+00,    6.123234e-16
    7377,    8.000000e+00,    3.333333e+00,    2.719262e-32
    7378,   -8.000000e+00,    0.000000e+00,    0.000000e+00
    7379,   -8.000000e+00,    3.333333e+00,    2.719262e-32
    7380,    6.928203e+00,    0.000000e+00,   -4.000000e+00
    7381,    4.000000e+00,    0.000000e+00,   -6.928203e+00
    7382,    4.898587e-16,    0.000000e+00,   -8.000000e+00
    7383,   -4.000000e+00,    0.000000e+00,   -6.928203e+00
    7384,   -6.928203e+00,    0.000000e+00,   -4.000000e+00
    7385,    6.928203e+00,    3.333333e+00,   -4.000000e+00
    7386,    4.000000e+00,    3.333333e+00,   -6.928203e+00
    7387,    2.266216e-15,    3.333333e+00,   -8.000000e+00
    7388,   -4.000000e+00,    3.333333e+00,   -6.928203e+00
    7389,   -6.928203e+00,    3.333333e+00,   -4.000000e+00
    7390,   -8.000000e+00,   -4.000000e+00,   -2.204364e-15
    7391,   -8.000000e+00,   -8.000000e+00,   -1.959435e-15
    7392,   -8.000000e+00,   -1.200000e+01,   -1.714506e-15
    7393,   -8.000000e+00,   -1.600000e+01,   -1.469576e-15
    7394,   -8.000000e+00,   -2.000000e+01,   -1.224647e-15
    7395,   -8.000000e+00,   -2.400000e+01,   -9.797174e-16
    7396,   -8.000000e+00,   -2.800000e+01,   -7.347881e-16
    7397,   -8.000000e+00,   -3.200000e+01,   -4.898587e-16
    7398,   -8.000000e+00,   -3.600000e+01,   -2.449294e-16
    7399,   -8.000000e+00,   -4.000000e+01,    0.000000e+00
    7400,   -8.000000e+00,   -4.400000e+01,    2.449294e-16
    7401,   -8.000000e+00,   -4.800000e+01,    4.898587e-16
    7402,   -8.000000e+00,   -5.200000e+01,    7.347881e-16
    7403,   -8.000000e+00,   -5.600000e+01,    9.797174e-16
    7404,   -8.000000e+00,   -6.000000e+01,    1.224647e-15
    7405,   -8.000000e+00,   -6.400000e+01,    1.469576e-15
    7406,   -8.000000e+00,   -6.800000e+01,    1.714506e-15
    7407,   -8.000000e+00,   -7.200000e+01,    1.959435e-15
    7408,   -8.000000e+00,   -7.600000e+01,    2.204364e-15
    7409,   -8.000000e+00,   -8.000000e+01,    2.449294e-15
    7410,   -8.000000e+00,   -8.400000e+01,    2.694223e-15
    7411,   -8.000000e+00,   -8.800000e+01,    2.939152e-15
    7412,   -8.000000e+00,   -9.200000e+01,    3.184082e-15
    7413,   -8.000000e+00,   -9.600000e+01,    3.429011e-15
    7414,    8.000000e+00,   -9.600000e+01,    3.429011e-15
    7415,    8.000000e+00,   -9.200000e+01,    3.184082e-15
    7416,    8.000000e+00,   -8.800000e+01,    2.939152e-15
    7417,    8.000000e+00,   -8.400000e+01,    2.694223e-15
    7418,    8.000000e+00,   -8.000000e+01,    2.449294e-15
    7419,    8.000000e+00,   -7.600000e+01,    2.204364e-15
    7420,    8.000000e+00,   -7.200000e+01,    1.959435e-15
    7421,    8.000000e+00,   -6.800000e+01,    1.714506e-15
    7422,    8.000000e+00,   -6.400000e+01,    1.469576e-15
    7423,    8.000000e+00,   -6.000000e+01,    1.224647e-15
    7424,    8.000000e+00,   -5.600000e+01,    9.797174e-16
    7425,    8.000000e+00,   -5.200000e+01,    7.347881e-16
    7426,    8.000000e+00,   -4.800000e+01,    4.898587e-16
    7427,    8.000000e+00,   -4.400000e+01,    2.449294e-16
    7428,    8.000000e+00,   -4.000000e+01,    0.000000e+00
    7429,    8.000000e+00,   -3.600000e+01,   -2.449294e-16
    7430,    8.000000e+00,   -3.200000e+01,   -4.898587e-16
    7431,    8.000000e+00,   -2.800000e+01,   -7.347881e-16
    7432,    8.000000e+00,   -2.400000e+01,   -9.797174e-16
    7433,    8.000000e+00,   -2.000000e+01,   -1.224647e-15
    7434,    8.000000e+00,   -1.600000e+01,   -1.469576e-15
    7435,    8.000000e+00,   -1.200000e+01,   -1.714506e-15
    7436,    8.000000e+00,   -8.000000e+00,   -1.959435e-15
    7437,    8.000000e+00,   -4.000000e+00,   -2.204364e-15
    7438,    4.000000e+00,    2.000000e+01,    0.000000e+00
    7439,    0.000000e+00,    2.000000e+01,    0.000000e+00
    7440,   -4.000000e+00,    2.000000e+01,    0.000000e+00
    7441,   -4.000000e+00,    1.555556e+01,    0.000000e+00
    7442,   -4.000000e+00,    1.111111e+01,    0.000000e+00
    7443,   -4.000000e+00,    6.666667e+00,    0.000000e+00
    7444,   -4.000000e+00,    3.333333e+00,    0.000000e+00
    7445,   -4.000000e+00,   -1.776357e-15,    0.000000e+00
    7446,   -4.000000e+00,   -4.000000e+00,    0.000000e+00
    7447,   -4.000000e+00,   -8.000000e+00,    0.000000e+00
    7448,   -4.000000e+00,   -1.200000e+01,    0.000000e+00
    7449,   -4.000000e+00,   -1.600000e+01,    0.000000e+00
    7450,   -4.000000e+00,   -2.000000e+01,    0.000000e+00
    7451,   -4.000000e+00,   -2.400000e+01,    0.000000e+00
    7452,   -4.000000e+00,   -2.800000e+01,    0.000000e+00
    7453,   -4.000000e+00,   -3.200000e+01,    0.000000e+00
    7454,   -4.000000e+00,   -3.600000e+01,    0.000000e+00
    7455,   -4.000000e+00,   -4.000000e+01,    0.000000e+00
    7456,   -4.000000e+00,   -4.400000e+01,    0.000000e+00
    7457,   -4.000000e+00,   -4.800000e+01,    0.000000e+00
    7458,   -4.000000e+00,   -5.200000e+01,    0.000000e+00
    7459,   -4.000000e+00,   -5.600000e+01,    0.000000e+00
    7460,   -4.000000e+00,   -6.000000e+01,    0.000000e+00
    7461,   -4.000000e+00,   -6.400000e+01,    0.000000e+00
    7462,   -4.000000e+00,   -6.800000e+01,    0.000000e+00
    7463,   -4.000000e+00,   -7.200000e+01,    0.000000e+00
    7464,   -4.000000e+00,   -7.600000e+01,    0.000000e+00
    7465,   -4.000000e+00,   -8.000000e+01,    0.000000e+00
    7466,   -4.000000e+00,   -8.400000e+01,    0.000000e+00
    7467,   -4.000000e+00,   -8.800000e+01,    0.000000e+00
    7468,   -4.000000e+00,   -9.200000e+01,    0.000000e+00
    7469,   -4.000000e+00,   -9.600000e+01,    0.000000e+00
    7470,    2.220446e-16,    1.555556e+01,    0.000000e+00
    7471,   -4.440892e-16,    1.111111e+01,    0.000000e+00
    7472,   -4.440892e-16,    6.666667e+00,    0.000000e+00
    7473,    4.440892e-16,    3.333333e+00,    0.000000e+00
    7474,    4.440892e-16,    0.000000e+00,    0.000000e+00
    7475,    6.661338e-16,   -4.000000e+00,    0.000000e+00
    7476,    6.661338e-16,   -8.000000e+00,    0.000000e+00
    7477,   -6.661338e-16,   -1.200000e+01,    0.000000e+00
    7478,   -4.440892e-16,   -1.600000e+01,    0.000000e+00
    7479,   -2.220446e-16,   -2.000000e+01,    0.000000e+00
    7480,    2.220446e-16,   -2.400000e+01,    0.000000e+00
    7481,   -2.220446e-16,   -2.800000e+01,    0.000000e+00
    7482,    0.000000e+00,   -3.200000e+01,    0.000000e+00
    7483,    0.000000e+00,   -3.600000e+01,    0.000000e+00
    7484,    0.000000e+00,   -4.000000e+01,    0.000000e+00
    7485,    0.000000e+00,   -4.400000e+01,    0.000000e+00
    7486,    0.000000e+00,   -4.800000e+01,    0.000000e+00
    7487,    0.000000e+00,   -5.200000e+01,    0.000000e+00
    7488,    0.000000e+00,   -5.600000e+01,    0.000000e+00
    7489,   -4.440892e-16,   -6.000000e+01,    0.000000e+00
    7490,    4.440892e-16,   -6.400000e+01,    0.000000e+00
    7491,    4.440892e-16,   -6.800000e+01,    0.000000e+00
    7492,    0.000000e+00,   -7.200000e+01,    0.000000e+00
    7493,   -4.440892e-16,   -7.600000e+01,    0.000000e+00
    7494,    0.000000e+00,   -8.000000e+01,    0.000000e+00
    7495,    0.000000e+00,   -8.400000e+01,    0.000000e+00
    7496,    0.000000e+00,   -8.800000e+01,    0.000000e+00
    7497,    0.000000e+00,   -9.200000e+01,    0.000000e+00
    7498,    0.000000e+00,   -9.600000e+01,    0.000000e+00
    7499,    4.000000e+00,    1.555556e+01,    0.000000e+00
    7500,    4.000000e+00,    1.111111e+01,    0.000000e+00
    7501,    4.000000e+00,    6.666667e+00,    0.000000e+00
    7502,    4.000000e+00,    3.333333e+00,    0.000000e+00
    7503,    4.000000e+00,    1.776357e-15,    0.000000e+00
    7504,    4.000000e+00,   -4.000000e+00,    0.000000e+00
    7505,    4.000000e+00,   -8.000000e+00,    0.000000e+00
    7506,    4.000000e+00,   -1.200000e+01,    0.000000e+00
    7507,    4.000000e+00,   -1.600000e+01,    0.000000e+00
    7508,    4.000000e+00,   -2.000000e+01,    0.000000e+00
    7509,    4.000000e+00,   -2.400000e+01,    0.000000e+00
    7510,    4.000000e+00,   -2.800000e+01,    0.000000e+00
    7511,    4.000000e+00,   -3.200000e+01,    0.000000e+00
    7512,    4.000000e+00,   -3.600000e+01,    0.000000e+00
    7513,    4.000000e+00,   -4.000000e+01,    0.000000e+00
    7514,    4.000000e+00,   -4.400000e+01,    0.000000e+00
    7515,    4.000000e+00,   -4.800000e+01,    0.000000e+00
    7516,    4.000000e+00,   -5.200000e+01,    0.000000e+00
    7517,    4.000000e+00,   -5.600000e+01,    0.000000e+00
    7518,    4.000000e+00,   -6.000000e+01,    0.000000e+00
    7519,    4.000000e+00,   -6.400000e+01,    0.000000e+00
    7520,    4.000000e+00,   -6.800000e+01,    0.000000e+00
    7521,    4.000000e+00,   -7.200000e+01,    0.000000e+00
    7522,    4.000000e+00,   -7.600000e+01,    0.000000e+00
    7523,    4.000000e+00,   -8.000000e+01,    0.000000e+00
    7524,    4.000000e+00,   -8.400000e+01,    0.000000e+00
    7525,    4.000000e+00,   -8.800000e+01,    0.000000e+00
    7526,    4.000000e+00,   -9.200000e+01,    0.000000e+00
    7527,    4.000000e+00,   -9.600000e+01,    0.000000e+00
    7528,   -6.928203e+00,   -4.000000e+00,   -4.000000e+00
    7529,   -4.000000e+00,   -4.000000e+00,   -6.928203e+00
    7530,   -1.286498e-15,   -4.000000e+00,   -8.000000e+00
    7531,    4.000000e+00,   -4.000000e+00,   -6.928203e+00
    7532,    6.928203e+00,   -4.000000e+00,   -4.000000e+00
    7533,   -6.928203e+00,   -8.000000e+00,   -4.000000e+00
    7534,   -4.000000e+00,   -8.000000e+00,   -6.928203e+00
    7535,   -1.286498e-15,   -8.000000e+00,   -8.000000e+00
    7536,    4.000000e+00,   -8.000000e+00,   -6.928203e+00
    7537,    6.928203e+00,   -8.000000e+00,   -4.000000e+00
    7538,   -6.928203e+00,   -1.200000e+01,   -4.000000e+00
    7539,   -4.000000e+00,   -1.200000e+01,   -6.928203e+00
    7540,   -1.286498e-15,   -1.200000e+01,   -8.000000e+00
    7541,    4.000000e+00,   -1.200000e+01,   -6.928203e+00
    7542,    6.928203e+00,   -1.200000e+01,   -4.000000e+00
    7543,   -6.928203e+00,   -1.600000e+01,   -4.000000e+00
    7544,   -4.000000e+00,   -1.600000e+01,   -6.928203e+00
    7545,   -3.062855e-15,   -1.600000e+01,   -8.000000e+00
    7546,    4.000000e+00,   -1.600000e+01,   -6.928203e+00
    7547,    6.928203e+00,   -1.600000e+01,   -4.000000e+00
    7548,   -6.928203e+00,   -2.000000e+01,   -4.000000e+00
    7549,   -4.000000e+00,   -2.000000e+01,   -6.928203e+00
    7550,   -1.286498e-15,   -2.000000e+01,   -8.000000e+00
    7551,    4.000000e+00,   -2.000000e+01,   -6.928203e+00
    7552,    6.928203e+00,   -2.000000e+01,   -4.000000e+00
    7553,   -6.928203e+00,   -2.400000e+01,   -4.000000e+00
    7554,   -4.000000e+00,   -2.400000e+01,   -6.928203e+00
    7555,   -3.062855e-15,   -2.400000e+01,   -8.000000e+00
    7556,    4.000000e+00,   -2.400000e+01,   -6.928203e+00
    7557,    6.928203e+00,   -2.400000e+01,   -4.000000e+00
    7558,   -6.928203e+00,   -2.800000e+01,   -4.000000e+00
    7559,   -4.000000e+00,   -2.800000e+01,   -6.928203e+00
    7560,   -3.062855e-15,   -2.800000e+01,   -8.000000e+00
    7561,    4.000000e+00,   -2.800000e+01,   -6.928203e+00
    7562,    6.928203e+00,   -2.800000e+01,   -4.000000e+00
    7563,   -6.928203e+00,   -3.200000e+01,   -4.000000e+00
    7564,   -4.000000e+00,   -3.200000e+01,   -6.928203e+00
    7565,   -4.839212e-15,   -3.200000e+01,   -8.000000e+00
    7566,    4.000000e+00,   -3.200000e+01,   -6.928203e+00
    7567,    6.928203e+00,   -3.200000e+01,   -4.000000e+00
    7568,   -6.928203e+00,   -3.600000e+01,   -4.000000e+00
    7569,   -4.000000e+00,   -3.600000e+01,   -6.928203e+00
    7570,   -4.839212e-15,   -3.600000e+01,   -8.000000e+00
    7571,    4.000000e+00,   -3.600000e+01,   -6.928203e+00
    7572,    6.928203e+00,   -3.600000e+01,   -4.000000e+00
    7573,   -6.928203e+00,   -4.000000e+01,   -4.000000e+00
    7574,   -4.000000e+00,   -4.000000e+01,   -6.928203e+00
    7575,   -4.839212e-15,   -4.000000e+01,   -8.000000e+00
    7576,    4.000000e+00,   -4.000000e+01,   -6.928203e+00
    7577,    6.928203e+00,   -4.000000e+01,   -4.000000e+00
    7578,   -6.928203e+00,   -4.400000e+01,   -4.000000e+00
    7579,   -4.000000e+00,   -4.400000e+01,   -6.928203e+00
    7580,    4.898587e-16,   -4.400000e+01,   -8.000000e+00
    7581,    4.000000e+00,   -4.400000e+01,   -6.928203e+00
    7582,    6.928203e+00,   -4.400000e+01,   -4.000000e+00
    7583,   -6.928203e+00,   -4.800000e+01,   -4.000000e+00
    7584,   -4.000000e+00,   -4.800000e+01,   -6.928203e+00
    7585,   -1.286498e-15,   -4.800000e+01,   -8.000000e+00
    7586,    4.000000e+00,   -4.800000e+01,   -6.928203e+00
    7587,    6.928203e+00,   -4.800000e+01,   -4.000000e+00
    7588,   -6.928203e+00,   -5.200000e+01,   -4.000000e+00
    7589,   -4.000000e+00,   -5.200000e+01,   -6.928203e+00
    7590,   -3.062855e-15,   -5.200000e+01,   -8.000000e+00
    7591,    4.000000e+00,   -5.200000e+01,   -6.928203e+00
    7592,    6.928203e+00,   -5.200000e+01,   -4.000000e+00
    7593,   -6.928203e+00,   -5.600000e+01,   -4.000000e+00
    7594,   -4.000000e+00,   -5.600000e+01,   -6.928203e+00
    7595,   -3.062855e-15,   -5.600000e+01,   -8.000000e+00
    7596,    4.000000e+00,   -5.600000e+01,   -6.928203e+00
    7597,    6.928203e+00,   -5.600000e+01,   -4.000000e+00
    7598,   -6.928203e+00,   -6.000000e+01,   -4.000000e+00
    7599,   -4.000000e+00,   -6.000000e+01,   -6.928203e+00
    7600,    4.898587e-16,   -6.000000e+01,   -8.000000e+00
    7601,    4.000000e+00,   -6.000000e+01,   -6.928203e+00
    7602,    6.928203e+00,   -6.000000e+01,   -4.000000e+00
    7603,   -6.928203e+00,   -6.400000e+01,   -4.000000e+00
    7604,   -4.000000e+00,   -6.400000e+01,   -6.928203e+00
    7605,   -4.839212e-15,   -6.400000e+01,   -8.000000e+00
    7606,    4.000000e+00,   -6.400000e+01,   -6.928203e+00
    7607,    6.928203e+00,   -6.400000e+01,   -4.000000e+00
    7608,   -6.928203e+00,   -6.800000e+01,   -4.000000e+00
    7609,   -4.000000e+00,   -6.800000e+01,   -6.928203e+00
    7610,   -1.286498e-15,   -6.800000e+01,   -8.000000e+00
    7611,    4.000000e+00,   -6.800000e+01,   -6.928203e+00
    7612,    6.928203e+00,   -6.800000e+01,   -4.000000e+00
    7613,   -6.928203e+00,   -7.200000e+01,   -4.000000e+00
    7614,   -4.000000e+00,   -7.200000e+01,   -6.928203e+00
    7615,   -3.062855e-15,   -7.200000e+01,   -8.000000e+00
    7616,    4.000000e+00,   -7.200000e+01,   -6.928203e+00
    7617,    6.928203e+00,   -7.200000e+01,   -4.000000e+00
    7618,   -6.928203e+00,   -7.600000e+01,   -4.000000e+00
    7619,   -4.000000e+00,   -7.600000e+01,   -6.928203e+00
    7620,   -4.839212e-15,   -7.600000e+01,   -8.000000e+00
    7621,    4.000000e+00,   -7.600000e+01,   -6.928203e+00
    7622,    6.928203e+00,   -7.600000e+01,   -4.000000e+00
    7623,   -6.928203e+00,   -8.000000e+01,   -4.000000e+00
    7624,   -4.000000e+00,   -8.000000e+01,   -6.928203e+00
    7625,   -4.839212e-15,   -8.000000e+01,   -8.000000e+00
    7626,    4.000000e+00,   -8.000000e+01,   -6.928203e+00
    7627,    6.928203e+00,   -8.000000e+01,   -4.000000e+00
    7628,   -6.928203e+00,   -8.400000e+01,   -4.000000e+00
    7629,   -4.000000e+00,   -8.400000e+01,   -6.928203e+00
    7630,   -3.062855e-15,   -8.400000e+01,   -8.000000e+00
    7631,    4.000000e+00,   -8.400000e+01,   -6.928203e+00
    7632,    6.928203e+00,   -8.400000e+01,   -4.000000e+00
    7633,   -6.928203e+00,   -8.800000e+01,   -4.000000e+00
    7634,   -4.000000e+00,   -8.800000e+01,   -6.928203e+00
    7635,   -1.286498e-15,   -8.800000e+01,   -8.000000e+00
    7636,    4.000000e+00,   -8.800000e+01,   -6.928203e+00
    7637,    6.928203e+00,   -8.800000e+01,   -4.000000e+00
    7638,   -6.928203e+00,   -9.200000e+01,   -4.000000e+00
    7639,   -4.000000e+00,   -9.200000e+01,   -6.928203e+00
    7640,   -3.062855e-15,   -9.200000e+01,   -8.000000e+00
    7641,    4.000000e+00,   -9.200000e+01,   -6.928203e+00
    7642,    6.928203e+00,   -9.200000e+01,   -4.000000e+00
    7643,   -6.928203e+00,   -9.600000e+01,   -4.000000e+00
    7644,   -4.000000e+00,   -9.600000e+01,   -6.928203e+00
    7645,   -4.839212e-15,   -9.600000e+01,   -8.000000e+00
    7646,    4.000000e+00,   -9.600000e+01,   -6.928203e+00
    7647,    6.928203e+00,   -9.600000e+01,   -4.000000e+00
    7648,   -1.654799e+00,   -9.600000e+01,   -3.423652e+00
    7649,    1.222426e+00,   -9.600000e+01,   -3.926771e+00
    7650,   -4.166067e+00,   -9.600000e+01,   -2.494552e+00
    7651,    3.366241e+00,   -9.600000e+01,   -4.575300e+00
    7652,    4.764815e+00,   -9.600000e+01,   -2.858433e+00
    7653,   -1.654799e+00,   -9.200000e+01,   -3.423652e+00
    7654,    1.222426e+00,   -9.200000e+01,   -3.926771e+00
    7655,   -4.166067e+00,   -9.200000e+01,   -2.494552e+00
    7656,    3.366241e+00,   -9.200000e+01,   -4.575300e+00
    7657,    4.764815e+00,   -9.200000e+01,   -2.858433e+00
    7658,   -1.654799e+00,   -8.800000e+01,   -3.423652e+00
    7659,    1.222426e+00,   -8.800000e+01,   -3.926771e+00
    7660,   -4.166067e+00,   -8.800000e+01,   -2.494552e+00
    7661,    3.366241e+00,   -8.800000e+01,   -4.575300e+00
    7662,    4.764815e+00,   -8.800000e+01,   -2.858433e+00
    7663,   -1.654799e+00,   -8.400000e+01,   -3.423652e+00
    7664,    1.222426e+00,   -8.400000e+01,   -3.926771e+00
    7665,   -4.166067e+00,   -8.400000e+01,   -2.494552e+00
    7666,    3.366241e+00,   -8.400000e+01,   -4.575300e+00
    7667,    4.764815e+00,   -8.400000e+01,   -2.858433e+00
    7668,   -1.654799e+00,   -8.000000e+01,   -3.423652e+00
    7669,    1.222426e+00,   -8.000000e+01,   -3.926771e+00
    7670,   -4.166067e+00,   -8.000000e+01,   -2.494552e+00
    7671,    3.366241e+00,   -8.000000e+01,   -4.575300e+00
    7672,    4.764815e+00,   -8.000000e+01,   -2.858433e+00
    7673,   -1.654799e+00,   -7.600000e+01,   -3.423652e+00
    7674,    1.222426e+00,   -7.600000e+01,   -3.926771e+00
    7675,   -4.166067e+00,   -7.600000e+01,   -2.494552e+00
    7676,    3.366241e+00,   -7.600000e+01,   -4.575300e+00
    7677,    4.764815e+00,   -7.600000e+01,   -2.858433e+00
    7678,   -1.654799e+00,   -7.200000e+01,   -3.423652e+00
    7679,    1.222426e+00,   -7.200000e+01,   -3.926771e+00
    7680,   -4.166067e+00,   -7.200000e+01,   -2.494552e+00
    7681,    3.366241e+00,   -7.200000e+01,   -4.575300e+00
    7682,    4.764815e+00,   -7.200000e+01,   -2.858433e+00
    7683,   -1.654799e+00,   -6.800000e+01,   -3.423652e+00
    7684,    1.222426e+00,   -6.800000e+01,   -3.926771e+00
    7685,   -4.166067e+00,   -6.800000e+01,   -2.494552e+00
    7686,    3.366241e+00,   -6.800000e+01,   -4.575300e+00
    7687,    4.764815e+00,   -6.800000e+01,   -2.858433e+00
    7688,   -1.654799e+00,   -6.400000e+01,   -3.423652e+00
    7689,    1.222426e+00,   -6.400000e+01,   -3.926771e+00
    7690,   -4.166067e+00,   -6.400000e+01,   -2.494552e+00
    7691,    3.366241e+00,   -6.400000e+01,   -4.575300e+00
    7692,    4.764815e+00,   -6.400000e+01,   -2.858433e+00
    7693,   -1.654799e+00,   -6.000000e+01,   -3.423652e+00
    7694,    1.222426e+00,   -6.000000e+01,   -3.926771e+00
    7695,   -4.166067e+00,   -6.000000e+01,   -2.494552e+00
    7696,    3.366241e+00,   -6.000000e+01,   -4.575300e+00
    7697,    4.764815e+00,   -6.000000e+01,   -2.858433e+00
    7698,   -1.654799e+00,   -5.600000e+01,   -3.423652e+00
    7699,    1.222426e+00,   -5.600000e+01,   -3.926771e+00
    7700,   -4.166067e+00,   -5.600000e+01,   -2.494552e+00
    7701,    3.366241e+00,   -5.600000e+01,   -4.575300e+00
    7702,    4.764815e+00,   -5.600000e+01,   -2.858433e+00
    7703,   -1.654799e+00,   -5.200000e+01,   -3.423652e+00
    7704,    1.222426e+00,   -5.200000e+01,   -3.926771e+00
    7705,   -4.166067e+00,   -5.200000e+01,   -2.494552e+00
    7706,    3.366241e+00,   -5.200000e+01,   -4.575300e+00
    7707,    4.764815e+00,   -5.200000e+01,   -2.858433e+00
    7708,   -1.654799e+00,   -4.800000e+01,   -3.423652e+00
    7709,    1.222426e+00,   -4.800000e+01,   -3.926771e+00
    7710,   -4.166067e+00,   -4.800000e+01,   -2.494552e+00
    7711,    3.366241e+00,   -4.800000e+01,   -4.575300e+00
    7712,    4.764815e+00,   -4.800000e+01,   -2.858433e+00
    7713,   -1.654799e+00,   -4.400000e+01,   -3.423652e+00
    7714,    1.222426e+00,   -4.400000e+01,   -3.926771e+00
    7715,   -4.166067e+00,   -4.400000e+01,   -2.494552e+00
    7716,    3.366241e+00,   -4.400000e+01,   -4.575300e+00
    7717,    4.764815e+00,   -4.400000e+01,   -2.858433e+00
    7718,   -1.654799e+00,   -4.000000e+01,   -3.423652e+00
    7719,    1.222426e+00,   -4.000000e+01,   -3.926771e+00
    7720,   -4.166067e+00,   -4.000000e+01,   -2.494552e+00
    7721,    3.366241e+00,   -4.000000e+01,   -4.575300e+00
    7722,    4.764815e+00,   -4.000000e+01,   -2.858433e+00
    7723,   -1.654799e+00,   -3.600000e+01,   -3.423652e+00
    7724,    1.222426e+00,   -3.600000e+01,   -3.926771e+00
    7725,   -4.166067e+00,   -3.600000e+01,   -2.494552e+00
    7726,    3.366241e+00,   -3.600000e+01,   -4.575300e+00
    7727,    4.764815e+00,   -3.600000e+01,   -2.858433e+00
    7728,   -1.654799e+00,   -3.200000e+01,   -3.423652e+00
    7729,    1.222426e+00,   -3.200000e+01,   -3.926771e+00
    7730,   -4.166067e+00,   -3.200000e+01,   -2.494552e+00
    7731,    3.366241e+00,   -3.200000e+01,   -4.575300e+00
    7732,    4.764815e+00,   -3.200000e+01,   -2.858433e+00
    7733,   -1.654799e+00,   -2.800000e+01,   -3.423652e+00
    7734,    1.222426e+00,   -2.800000e+01,   -3.926771e+00
    7735,   -4.166067e+00,   -2.800000e+01,   -2.494552e+00
    7736,    3.366241e+00,   -2.800000e+01,   -4.575300e+00
    7737,    4.764815e+00,   -2.800000e+01,   -2.858433e+00
    7738,   -1.654799e+00,   -2.400000e+01,   -3.423652e+00
    7739,    1.222426e+00,   -2.400000e+01,   -3.926771e+00
    7740,   -4.166067e+00,   -2.400000e+01,   -2.494552e+00
    7741,    3.366241e+00,   -2.400000e+01,   -4.575300e+00
    7742,    4.764815e+00,   -2.400000e+01,   -2.858433e+00
    7743,   -1.654799e+00,   -2.000000e+01,   -3.423652e+00
    7744,    1.222426e+00,   -2.000000e+01,   -3.926771e+00
    7745,   -4.166067e+00,   -2.000000e+01,   -2.494552e+00
    7746,    3.366241e+00,   -2.000000e+01,   -4.575300e+00
    7747,    4.764815e+00,   -2.000000e+01,   -2.858433e+00
    7748,   -1.654799e+00,   -1.600000e+01,   -3.423652e+00
    7749,    1.222426e+00,   -1.600000e+01,   -3.926771e+00
    7750,   -4.166067e+00,   -1.600000e+01,   -2.494552e+00
    7751,    3.366241e+00,   -1.600000e+01,   -4.575300e+00
    7752,    4.764815e+00,   -1.600000e+01,   -2.858433e+00
    7753,   -1.654799e+00,   -1.200000e+01,   -3.423652e+00
    7754,    1.222426e+00,   -1.200000e+01,   -3.926771e+00
    7755,   -4.166067e+00,   -1.200000e+01,   -2.494552e+00
    7756,    3.366241e+00,   -1.200000e+01,   -4.575300e+00
    7757,    4.764815e+00,   -1.200000e+01,   -2.858433e+00
    7758,   -1.654799e+00,   -8.000000e+00,   -3.423652e+00
    7759,    1.222426e+00,   -8.000000e+00,   -3.926771e+00
    7760,   -4.166067e+00,   -8.000000e+00,   -2.494552e+00
    7761,    3.366241e+00,   -8.000000e+00,   -4.575300e+00
    7762,    4.764815e+00,   -8.000000e+00,   -2.858433e+00
    7763,   -1.654799e+00,   -4.000000e+00,   -3.423652e+00
    7764,    1.222426e+00,   -4.000000e+00,   -3.926771e+00
    7765,   -4.166067e+00,   -4.000000e+00,   -2.494552e+00
    7766,    3.366241e+00,   -4.000000e+00,   -4.575300e+00
    7767,    4.764815e+00,   -4.000000e+00,   -2.858433e+00
    7768,   -1.654799e+00,   -8.165316e-17,   -3.423652e+00
    7769,    1.222426e+00,    6.031845e-17,   -3.926771e+00
    7770,   -4.166067e+00,   -2.055673e-16,   -2.494552e+00
    7771,    3.366241e+00,    1.661013e-16,   -4.575300e+00
    7772,    4.764815e+00,    2.351114e-16,   -2.858433e+00
    7773,   -1.654799e+00,    3.333333e+00,   -3.423652e+00
    7774,    1.222426e+00,    3.333333e+00,   -3.926771e+00
    7775,   -4.166067e+00,    3.333333e+00,   -2.494552e+00
    7776,    3.366241e+00,    3.333333e+00,   -4.575300e+00
    7777,    4.764815e+00,    3.333333e+00,   -2.858433e+00
    7778,   -1.654799e+00,    6.666667e+00,   -3.423652e+00
    7779,    1.222426e+00,    6.666667e+00,   -3.926771e+00
    7780,   -4.166067e+00,    6.666667e+00,   -2.494552e+00
    7781,    3.366241e+00,    6.666667e+00,   -4.575300e+00
    7782,    4.764815e+00,    6.666667e+00,   -2.858433e+00
    7783,   -1.654799e+00,    1.111111e+01,   -3.423652e+00
    7784,    1.222426e+00,    1.111111e+01,   -3.926771e+00
    7785,   -4.166067e+00,    1.111111e+01,   -2.494552e+00
    7786,    3.366241e+00,    1.111111e+01,   -4.575300e+00
    7787,    4.764815e+00,    1.111111e+01,   -2.858433e+00
    7788,   -1.654799e+00,    1.555556e+01,   -3.423652e+00
    7789,    1.222426e+00,    1.555556e+01,   -3.926771e+00
    7790,   -4.166067e+00,    1.555556e+01,   -2.494552e+00
    7791,    3.366241e+00,    1.555556e+01,   -4.575300e+00
    7792,    4.764815e+00,    1.555556e+01,   -2.858433e+00
    7793,   -1.654799e+00,    2.000000e+01,   -3.423652e+00
    7794,    1.222426e+00,    2.000000e+01,   -3.926771e+00
    7795,   -4.166067e+00,    2.000000e+01,   -2.494552e+00
    7796,    3.366241e+00,    2.000000e+01,   -4.575300e+00
    7797,    4.764815e+00,    2.000000e+01,   -2.858433e+00
    7798,    4.000000e+01,    6.666667e+00,    0.000000e+00
    7799,    3.600000e+01,    6.666667e+00,    0.000000e+00
    7800,    3.200000e+01,    6.666667e+00,    0.000000e+00
    7801,    2.800000e+01,    6.666667e+00,    0.000000e+00
    7802,    2.400000e+01,    6.666667e+00,    0.000000e+00
    7803,    2.000000e+01,    6.666667e+00,    0.000000e+00
    7804,    1.600000e+01,    6.666667e+00,    0.000000e+00
    7805,    1.200000e+01,    6.666667e+00,    0.000000e+00
    7806,    4.000000e+01,    6.666667e+00,   -4.000000e+01
    7807,    4.000000e+01,    6.666667e+00,   -3.600000e+01
    7808,    4.000000e+01,    6.666667e+00,   -3.200000e+01
    7809,    4.000000e+01,    6.666667e+00,   -2.800000e+01
    7810,    4.000000e+01,    6.666667e+00,   -2.400000e+01
    7811,    4.000000e+01,    6.666667e+00,   -2.000000e+01
    7812,    4.000000e+01,    6.666667e+00,   -1.600000e+01
    7813,    4.000000e+01,    6.666667e+00,   -1.200000e+01
    7814,    4.000000e+01,    6.666667e+00,   -8.000000e+00
    7815,    4.000000e+01,    6.666667e+00,   -4.000000e+00
    7816,   -4.000000e+01,    6.666667e+00,   -4.000000e+01
    7817,   -3.600000e+01,    6.666667e+00,   -4.000000e+01
    7818,   -3.200000e+01,    6.666667e+00,   -4.000000e+01
    7819,   -2.800000e+01,    6.666667e+00,   -4.000000e+01
    7820,   -2.400000e+01,    6.666667e+00,   -4.000000e+01
    7821,   -2.000000e+01,    6.666667e+00,   -4.000000e+01
    7822,   -1.600000e+01,    6.666667e+00,   -4.000000e+01
    7823,   -1.200000e+01,    6.666667e+00,   -4.000000e+01
    7824,   -8.000000e+00,    6.666667e+00,   -4.000000e+01
    7825,   -4.000000e+00,    6.666667e+00,   -4.000000e+01
    7826,    0.000000e+00,    6.666667e+00,   -4.000000e+01
    7827,    4.000000e+00,    6.666667e+00,   -4.000000e+01
    7828,    8.000000e+00,    6.666667e+00,   -4.000000e+01
    7829,    1.200000e+01,    6.666667e+00,   -4.000000e+01
    7830,    1.600000e+01,    6.666667e+00,   -4.000000e+01
    7831,    2.000000e+01,    6.666667e+00,   -4.000000e+01
    7832,    2.400000e+01,    6.666667e+00,   -4.000000e+01
    7833,    2.800000e+01,    6.666667e+00,   -4.000000e+01
    7834,    3.200000e+01,    6.666667e+00,   -4.000000e+01
    7835,    3.600000e+01,    6.666667e+00,   -4.000000e+01
    7836,   -4.000000e+01,    6.666667e+00,    0.000000e+00
    7837,   -4.000000e+01,    6.666667e+00,   -4.000000e+00
    7838,   -4.000000e+01,    6.666667e+00,   -8.000000e+00
    7839,   -4.000000e+01,    6.666667e+00,   -1.200000e+01
    7840,   -4.000000e+01,    6.666667e+00,   -1.600000e+01
    7841,   -4.000000e+01,    6.666667e+00,   -2.000000e+01
    7842,   -4.000000e+01,    6.666667e+00,   -2.400000e+01
    7843,   -4.000000e+01,    6.666667e+00,   -2.800000e+01
    7844,   -4.000000e+01,    6.666667e+00,   -3.200000e+01
    7845,   -4.000000e+01,    6.666667e+00,   -3.600000e+01
    7846,   -1.200000e+01,    6.666667e+00,    0.000000e+00
    7847,   -1.600000e+01,    6.666667e+00,    0.000000e+00
    7848,   -2.000000e+01,    6.666667e+00,    0.000000e+00
    7849,   -2.400000e+01,    6.666667e+00,    0.000000e+00
    7850,   -2.800000e+01,    6.666667e+00,    0.000000e+00
    7851,   -3.200000e+01,    6.666667e+00,    0.000000e+00
    7852,   -3.600000e+01,    6.666667e+00,    0.000000e+00
    7853,    1.035338e+01,    6.666667e+00,   -6.239661e+00
    7854,    1.543794e+01,    6.666667e+00,   -5.296863e+00
    7855,    1.979447e+01,    6.666667e+00,   -4.729876e+00
    7856,    2.393743e+01,    6.666667e+00,   -4.403914e+00
    7857,    2.799402e+01,    6.666667e+00,   -4.214100e+00
    7858,    3.201046e+01,    6.666667e+00,   -4.106555e+00
    7859,    3.600822e+01,    6.666667e+00,   -4.043703e+00
    7860,    3.603363e+01,    6.666667e+00,   -3.599565e+01
    7861,    3.206636e+01,    6.666667e+00,   -3.598076e+01
    7862,    2.809964e+01,    6.666667e+00,   -3.593847e+01
    7863,    2.412620e+01,    6.666667e+00,   -3.584023e+01
    7864,    2.014125e+01,    6.666667e+00,   -3.567464e+01
    7865,    1.614008e+01,    6.666667e+00,   -3.550916e+01
    7866,    1.210931e+01,    6.666667e+00,   -3.549320e+01
    7867,    8.067386e+00,    6.666667e+00,   -3.557565e+01
    7868,    4.018314e+00,    6.666667e+00,   -3.569426e+01
    7869,   -2.185552e-02,    6.666667e+00,   -3.581454e+01
    7870,   -4.049930e+00,    6.666667e+00,   -3.591278e+01
    7871,   -8.066805e+00,    6.666667e+00,   -3.598319e+01
    7872,   -1.207464e+01,    6.666667e+00,   -3.602514e+01
    7873,   -1.607607e+01,    6.666667e+00,   -3.603932e+01
    7874,   -2.007116e+01,    6.666667e+00,   -3.603858e+01
    7875,   -2.406112e+01,    6.666667e+00,   -3.603122e+01
    7876,   -2.804734e+01,    6.666667e+00,   -3.602356e+01
    7877,   -3.203121e+01,    6.666667e+00,   -3.601527e+01
    7878,   -3.601473e+01,    6.666667e+00,   -3.600728e+01
    7879,   -3.602582e+01,    6.666667e+00,   -4.010657e+00
    7880,   -3.204930e+01,    6.666667e+00,   -4.024200e+00
    7881,   -2.806748e+01,    6.666667e+00,   -4.042642e+00
    7882,   -2.406696e+01,    6.666667e+00,   -4.073720e+00
    7883,   -2.003270e+01,    6.666667e+00,   -4.147645e+00
    7884,   -1.591408e+01,    6.666667e+00,   -4.346095e+00
    7885,   -1.102871e+01,    6.666667e+00,   -5.208622e+00
    7886,    3.602988e+01,    6.666667e+00,   -8.076038e+00
    7887,    3.607704e+01,    6.666667e+00,   -1.209229e+01
    7888,    3.613444e+01,    6.666667e+00,   -1.608596e+01
    7889,    3.617567e+01,    6.666667e+00,   -2.005981e+01
    7890,    3.615918e+01,    6.666667e+00,   -2.402974e+01
    7891,    3.611786e+01,    6.666667e+00,   -2.800854e+01
    7892,    3.607315e+01,    6.666667e+00,   -3.199625e+01
    7893,   -3.603153e+01,    6.666667e+00,   -3.201490e+01
    7894,   -3.605004e+01,    6.666667e+00,   -2.802104e+01
    7895,   -3.606525e+01,    6.666667e+00,   -2.402789e+01
    7896,   -3.607824e+01,    6.666667e+00,   -2.003086e+01
    7897,   -3.608145e+01,    6.666667e+00,   -1.602970e+01
    7898,   -3.607165e+01,    6.666667e+00,   -1.202596e+01
    7899,   -3.605270e+01,    6.666667e+00,   -8.019129e+00
    7900,   -7.676420e+00,    6.666667e+00,   -8.483598e+00
    7901,   -6.292756e+00,    6.666667e+00,   -1.204892e+01
    7902,   -2.585946e+00,    6.666667e+00,   -1.130823e+01
    7903,    1.359922e+00,    6.666667e+00,   -1.094810e+01
    7904,    5.527334e+00,    6.666667e+00,   -9.659845e+00
    7905,   -3.210361e+01,    6.666667e+00,   -8.042339e+00
    7906,   -2.815510e+01,    6.666667e+00,   -8.071414e+00
    7907,   -2.421217e+01,    6.666667e+00,   -8.119311e+00
    7908,   -2.029000e+01,    6.666667e+00,   -8.213446e+00
    7909,   -1.639400e+01,    6.666667e+00,   -8.526873e+00
    7910,   -1.270903e+01,    6.666667e+00,   -9.124861e+00
    7911,   -1.001863e+01,    6.666667e+00,   -1.010961e+01
    7912,   -9.622448e+00,    6.666667e+00,   -1.280972e+01
    7913,   -9.151827e+00,    6.666667e+00,   -1.628220e+01
    7914,   -5.396329e+00,    6.666667e+00,   -1.578446e+01
    7915,   -1.447074e+00,    6.666667e+00,   -1.514390e+01
    7916,    2.476808e+00,    6.666667e+00,   -1.449494e+01
    7917,    6.692977e+00,    6.666667e+00,   -1.336327e+01
    7918,    1.116349e+01,    6.666667e+00,   -1.165195e+01
    7919,    1.565638e+01,    6.666667e+00,   -1.038855e+01
    7920,    1.991511e+01,    6.666667e+00,   -9.379810e+00
    7921,    2.403449e+01,    6.666667e+00,   -8.746451e+00
    7922,    2.807243e+01,    6.666667e+00,   -8.389235e+00
    7923,    3.206505e+01,    6.666667e+00,   -8.195069e+00
    7924,   -3.206475e+01,    6.666667e+00,   -3.203047e+01
    7925,   -3.209886e+01,    6.666667e+00,   -2.804457e+01
    7926,   -3.213310e+01,    6.666667e+00,   -2.405446e+01
    7927,   -3.215742e+01,    6.666667e+00,   -2.005855e+01
    7928,   -3.216365e+01,    6.666667e+00,   -1.605701e+01
    7929,   -3.214263e+01,    6.666667e+00,   -1.205265e+01
    7930,    3.216217e+01,    6.666667e+00,   -1.222571e+01
    7931,    3.229260e+01,    6.666667e+00,   -1.620179e+01
    7932,    3.238709e+01,    6.666667e+00,   -2.013122e+01
    7933,    3.233972e+01,    6.666667e+00,   -2.405016e+01
    7934,    3.224253e+01,    6.666667e+00,   -2.799413e+01
    7935,    3.214827e+01,    6.666667e+00,   -3.197185e+01
    7936,    2.822197e+01,    6.666667e+00,   -3.189704e+01
    7937,    2.428602e+01,    6.666667e+00,   -3.170823e+01
    7938,    2.033196e+01,    6.666667e+00,   -3.134567e+01
    7939,    1.633846e+01,    6.666667e+00,   -3.104956e+01
    7940,    1.224031e+01,    6.666667e+00,   -3.094010e+01
    7941,    8.123892e+00,    6.666667e+00,   -3.112419e+01
    7942,    4.018007e+00,    6.666667e+00,   -3.138206e+01
    7943,   -6.542876e-02,    6.666667e+00,   -3.162889e+01
    7944,   -4.124216e+00,    6.666667e+00,   -3.183011e+01
    7945,   -8.155029e+00,    6.666667e+00,   -3.197181e+01
    7946,   -1.216891e+01,    6.666667e+00,   -3.205153e+01
    7947,   -1.616803e+01,    6.666667e+00,   -3.207971e+01
    7948,   -2.015168e+01,    6.666667e+00,   -3.207489e+01
    7949,   -2.412672e+01,    6.666667e+00,   -3.206050e+01
    7950,   -2.809696e+01,    6.666667e+00,   -3.204531e+01
    7951,   -2.822439e+01,    6.666667e+00,   -1.208660e+01
    7952,   -2.432462e+01,    6.666667e+00,   -1.213923e+01
    7953,   -2.045791e+01,    6.666667e+00,   -1.222285e+01
    7954,   -1.666024e+01,    6.666667e+00,   -1.238090e+01
    7955,   -1.297778e+01,    6.666667e+00,   -1.267569e+01
    7956,   -1.287965e+01,    6.666667e+00,   -1.636961e+01
    7957,   -1.266446e+01,    6.666667e+00,   -2.022277e+01
    7958,   -8.769277e+00,    6.666667e+00,   -2.006644e+01
    7959,   -4.834281e+00,    6.666667e+00,   -1.968643e+01
    7960,   -7.972943e-01,    6.666667e+00,   -1.915056e+01
    7961,    3.342716e+00,    6.666667e+00,   -1.846399e+01
    7962,    7.486011e+00,    6.666667e+00,   -1.760938e+01
    7963,    1.186113e+01,    6.666667e+00,   -1.650747e+01
    7964,    1.625990e+01,    6.666667e+00,   -1.527754e+01
    7965,    2.040732e+01,    6.666667e+00,   -1.381863e+01
    7966,    2.431061e+01,    6.666667e+00,   -1.293101e+01
    7967,    2.825242e+01,    6.666667e+00,   -1.248018e+01
    7968,   -2.815075e+01,    6.666667e+00,   -2.806490e+01
    7969,   -2.820490e+01,    6.666667e+00,   -2.408056e+01
    7970,   -2.824369e+01,    6.666667e+00,   -2.008837e+01
    7971,   -2.825184e+01,    6.666667e+00,   -1.609231e+01
    7972,    2.848942e+01,    6.666667e+00,   -1.641873e+01
    7973,    2.868685e+01,    6.666667e+00,   -2.022711e+01
    7974,    2.855625e+01,    6.666667e+00,   -2.401984e+01
    7975,    2.837726e+01,    6.666667e+00,   -2.790630e+01
    7976,    2.451634e+01,    6.666667e+00,   -2.765203e+01
    7977,    2.069141e+01,    6.666667e+00,   -2.713403e+01
    7978,    1.667189e+01,    6.666667e+00,   -2.635339e+01
    7979,    1.238312e+01,    6.666667e+00,   -2.636243e+01
    7980,    8.154765e+00,    6.666667e+00,   -2.664113e+01
    7981,    3.967979e+00,    6.666667e+00,   -2.706137e+01
    7982,   -1.673856e-01,    6.666667e+00,   -2.744351e+01
    7983,   -4.249289e+00,    6.666667e+00,   -2.775387e+01
    7984,   -8.287866e+00,    6.666667e+00,   -2.796880e+01
    7985,   -1.229746e+01,    6.666667e+00,   -2.808248e+01
    7986,   -1.628430e+01,    6.666667e+00,   -2.811640e+01
    7987,   -2.025078e+01,    6.666667e+00,   -2.810617e+01
    7988,   -2.420374e+01,    6.666667e+00,   -2.808623e+01
    7989,   -1.666216e+01,    6.666667e+00,   -1.629514e+01
    7990,   -1.655734e+01,    6.666667e+00,   -2.022217e+01
    7991,   -1.641626e+01,    6.666667e+00,   -2.416168e+01
    7992,   -1.246127e+01,    6.666667e+00,   -2.412491e+01
    7993,   -8.489061e+00,    6.666667e+00,   -2.397315e+01
    7994,   -4.478439e+00,    6.666667e+00,   -2.367560e+01
    7995,   -3.990548e-01,    6.666667e+00,   -2.325239e+01
    7996,    3.758583e+00,    6.666667e+00,   -2.270783e+01
    7997,    2.122412e+01,    6.666667e+00,   -1.781483e+01
    7998,    2.479457e+01,    6.666667e+00,   -1.689246e+01
    7999,   -2.436292e+01,    6.666667e+00,   -1.613900e+01
    8000,   -2.048923e+01,    6.666667e+00,   -1.621063e+01
    8001,    2.528646e+01,    6.666667e+00,   -2.034120e+01
    8002,    2.490981e+01,    6.666667e+00,   -2.378897e+01
    8003,   -2.428118e+01,    6.666667e+00,   -2.410971e+01
    8004,   -2.433997e+01,    6.666667e+00,   -2.013038e+01
    8005,    2.137323e+01,    6.666667e+00,   -2.315172e+01
    8006,    1.749845e+01,    6.666667e+00,   -2.077788e+01
    8007,    1.249406e+01,    6.666667e+00,   -2.140399e+01
    8008,    7.994831e+00,    6.666667e+00,   -2.208453e+01
    8009,    2.257048e+01,    6.666667e+00,   -2.043818e+01
    8010,   -2.035498e+01,    6.666667e+00,   -2.414043e+01
    8011,   -2.043622e+01,    6.666667e+00,   -2.017628e+01
    8012,    4.000000e+01,    2.000000e+01,    0.000000e+00
    8013,    4.000000e+01,    1.111111e+01,    0.000000e+00
    8014,    4.000000e+01,    1.555556e+01,    0.000000e+00
    8015,    3.600000e+01,    2.000000e+01,    0.000000e+00
    8016,    3.200000e+01,    2.000000e+01,    0.000000e+00
    8017,    2.800000e+01,    2.000000e+01,    0.000000e+00
    8018,    2.400000e+01,    2.000000e+01,    0.000000e+00
    8019,    2.000000e+01,    2.000000e+01,    0.000000e+00
    8020,    1.600000e+01,    2.000000e+01,    0.000000e+00
    8021,    1.200000e+01,    2.000000e+01,    0.000000e+00
    8022,    1.200000e+01,    1.111111e+01,    0.000000e+00
    8023,    1.600000e+01,    1.111111e+01,    0.000000e+00
    8024,    2.000000e+01,    1.111111e+01,    0.000000e+00
    8025,    2.400000e+01,    1.111111e+01,    0.000000e+00
    8026,    2.800000e+01,    1.111111e+01,    0.000000e+00
    8027,    3.200000e+01,    1.111111e+01,    0.000000e+00
    8028,    3.600000e+01,    1.111111e+01,    0.000000e+00
    8029,    1.200000e+01,    1.555556e+01,    0.000000e+00
    8030,    1.600000e+01,    1.555556e+01,    0.000000e+00
    8031,    2.000000e+01,    1.555556e+01,    0.000000e+00
    8032,    2.400000e+01,    1.555556e+01,    0.000000e+00
    8033,    2.800000e+01,    1.555556e+01,    0.000000e+00
    8034,    3.200000e+01,    1.555556e+01,    0.000000e+00
    8035,    3.600000e+01,    1.555556e+01,    0.000000e+00
    8036,   -4.000000e+01,    2.000000e+01,    0.000000e+00
    8037,   -1.200000e+01,    2.000000e+01,    0.000000e+00
    8038,   -1.600000e+01,    2.000000e+01,    0.000000e+00
    8039,   -2.000000e+01,    2.000000e+01,    0.000000e+00
    8040,   -2.400000e+01,    2.000000e+01,    0.000000e+00
    8041,   -2.800000e+01,    2.000000e+01,    0.000000e+00
    8042,   -3.200000e+01,    2.000000e+01,    0.000000e+00
    8043,   -3.600000e+01,    2.000000e+01,    0.000000e+00
    8044,   -4.000000e+01,    1.555556e+01,    0.000000e+00
    8045,   -4.000000e+01,    1.111111e+01,    0.000000e+00
    8046,   -3.600000e+01,    1.111111e+01,    0.000000e+00
    8047,   -3.200000e+01,    1.111111e+01,    0.000000e+00
    8048,   -2.800000e+01,    1.111111e+01,    0.000000e+00
    8049,   -2.400000e+01,    1.111111e+01,    0.000000e+00
    8050,   -2.000000e+01,    1.111111e+01,    0.000000e+00
    8051,   -1.600000e+01,    1.111111e+01,    0.000000e+00
    8052,   -1.200000e+01,    1.111111e+01,    0.000000e+00
    8053,   -3.600000e+01,    1.555556e+01,    0.000000e+00
    8054,   -3.200000e+01,    1.555556e+01,    0.000000e+00
    8055,   -2.800000e+01,    1.555556e+01,    0.000000e+00
    8056,   -2.400000e+01,    1.555556e+01,    0.000000e+00
    8057,   -2.000000e+01,    1.555556e+01,    0.000000e+00
    8058,   -1.600000e+01,    1.555556e+01,    0.000000e+00
    8059,   -1.200000e+01,    1.555556e+01,    0.000000e+00
    8060,    4.000000e+01,    2.000000e+01,   -4.000000e+01
    8061,    4.000000e+01,    1.555556e+01,   -4.000000e+01
    8062,    4.000000e+01,    1.111111e+01,   -4.000000e+01
    8063,    4.000000e+01,    2.000000e+01,   -4.000000e+00
    8064,    4.000000e+01,    2.000000e+01,   -8.000000e+00
    8065,    4.000000e+01,    2.000000e+01,   -1.200000e+01
    8066,    4.000000e+01,    2.000000e+01,   -1.600000e+01
    8067,    4.000000e+01,    2.000000e+01,   -2.000000e+01
    8068,    4.000000e+01,    2.000000e+01,   -2.400000e+01
    8069,    4.000000e+01,    2.000000e+01,   -2.800000e+01
    8070,    4.000000e+01,    2.000000e+01,   -3.200000e+01
    8071,    4.000000e+01,    2.000000e+01,   -3.600000e+01
    8072,    4.000000e+01,    1.555556e+01,   -4.000000e+00
    8073,    4.000000e+01,    1.111111e+01,   -4.000000e+00
    8074,    4.000000e+01,    1.555556e+01,   -8.000000e+00
    8075,    4.000000e+01,    1.111111e+01,   -8.000000e+00
    8076,    4.000000e+01,    1.555556e+01,   -1.200000e+01
    8077,    4.000000e+01,    1.111111e+01,   -1.200000e+01
    8078,    4.000000e+01,    1.555556e+01,   -1.600000e+01
    8079,    4.000000e+01,    1.111111e+01,   -1.600000e+01
    8080,    4.000000e+01,    1.555556e+01,   -2.000000e+01
    8081,    4.000000e+01,    1.111111e+01,   -2.000000e+01
    8082,    4.000000e+01,    1.555556e+01,   -2.400000e+01
    8083,    4.000000e+01,    1.111111e+01,   -2.400000e+01
    8084,    4.000000e+01,    1.555556e+01,   -2.800000e+01
    8085,    4.000000e+01,    1.111111e+01,   -2.800000e+01
    8086,    4.000000e+01,    1.555556e+01,   -3.200000e+01
    8087,    4.000000e+01,    1.111111e+01,   -3.200000e+01
    8088,    4.000000e+01,    1.555556e+01,   -3.600000e+01
    8089,    4.000000e+01,    1.111111e+01,   -3.600000e+01
    8090,   -4.000000e+01,    2.000000e+01,   -4.000000e+01
    8091,   -4.000000e+01,    1.111111e+01,   -4.000000e+01
    8092,   -4.000000e+01,    1.555556e+01,   -4.000000e+01
    8093,   -3.600000e+01,    2.000000e+01,   -4.000000e+01
    8094,   -3.200000e+01,    2.000000e+01,   -4.000000e+01
    8095,   -2.800000e+01,    2.000000e+01,   -4.000000e+01
    8096,   -2.400000e+01,    2.000000e+01,   -4.000000e+01
    8097,   -2.000000e+01,    2.000000e+01,   -4.000000e+01
    8098,   -1.600000e+01,    2.000000e+01,   -4.000000e+01
    8099,   -1.200000e+01,    2.000000e+01,   -4.000000e+01
    8100,   -8.000000e+00,    2.000000e+01,   -4.000000e+01
    8101,   -4.000000e+00,    2.000000e+01,   -4.000000e+01
    8102,    0.000000e+00,    2.000000e+01,   -4.000000e+01
    8103,    4.000000e+00,    2.000000e+01,   -4.000000e+01
    8104,    8.000000e+00,    2.000000e+01,   -4.000000e+01
    8105,    1.200000e+01,    2.000000e+01,   -4.000000e+01
    8106,    1.600000e+01,    2.000000e+01,   -4.000000e+01
    8107,    2.000000e+01,    2.000000e+01,   -4.000000e+01
    8108,    2.400000e+01,    2.000000e+01,   -4.000000e+01
    8109,    2.800000e+01,    2.000000e+01,   -4.000000e+01
    8110,    3.200000e+01,    2.000000e+01,   -4.000000e+01
    8111,    3.600000e+01,    2.000000e+01,   -4.000000e+01
    8112,    3.600000e+01,    1.111111e+01,   -4.000000e+01
    8113,    3.200000e+01,    1.111111e+01,   -4.000000e+01
    8114,    2.800000e+01,    1.111111e+01,   -4.000000e+01
    8115,    2.400000e+01,    1.111111e+01,   -4.000000e+01
    8116,    2.000000e+01,    1.111111e+01,   -4.000000e+01
    8117,    1.600000e+01,    1.111111e+01,   -4.000000e+01
    8118,    1.200000e+01,    1.111111e+01,   -4.000000e+01
    8119,    8.000000e+00,    1.111111e+01,   -4.000000e+01
    8120,    4.000000e+00,    1.111111e+01,   -4.000000e+01
    8121,    0.000000e+00,    1.111111e+01,   -4.000000e+01
    8122,   -4.000000e+00,    1.111111e+01,   -4.000000e+01
    8123,   -8.000000e+00,    1.111111e+01,   -4.000000e+01
    8124,   -1.200000e+01,    1.111111e+01,   -4.000000e+01
    8125,   -1.600000e+01,    1.111111e+01,   -4.000000e+01
    8126,   -2.000000e+01,    1.111111e+01,   -4.000000e+01
    8127,   -2.400000e+01,    1.111111e+01,   -4.000000e+01
    8128,   -2.800000e+01,    1.111111e+01,   -4.000000e+01
    8129,   -3.200000e+01,    1.111111e+01,   -4.000000e+01
    8130,   -3.600000e+01,    1.111111e+01,   -4.000000e+01
    8131,    3.600000e+01,    1.555556e+01,   -4.000000e+01
    8132,    3.200000e+01,    1.555556e+01,   -4.000000e+01
    8133,    2.800000e+01,    1.555556e+01,   -4.000000e+01
    8134,    2.400000e+01,    1.555556e+01,   -4.000000e+01
    8135,    2.000000e+01,    1.555556e+01,   -4.000000e+01
    8136,    1.600000e+01,    1.555556e+01,   -4.000000e+01
    8137,    1.200000e+01,    1.555556e+01,   -4.000000e+01
    8138,    8.000000e+00,    1.555556e+01,   -4.000000e+01
    8139,    4.000000e+00,    1.555556e+01,   -4.000000e+01
    8140,    0.000000e+00,    1.555556e+01,   -4.000000e+01
    8141,   -4.000000e+00,    1.555556e+01,   -4.000000e+01
    8142,   -8.000000e+00,    1.555556e+01,   -4.000000e+01
    8143,   -1.200000e+01,    1.555556e+01,   -4.000000e+01
    8144,   -1.600000e+01,    1.555556e+01,   -4.000000e+01
    8145,   -2.000000e+01,    1.555556e+01,   -4.000000e+01
    8146,   -2.400000e+01,    1.555556e+01,   -4.000000e+01
    8147,   -2.800000e+01,    1.555556e+01,   -4.000000e+01
    8148,   -3.200000e+01,    1.555556e+01,   -4.000000e+01
    8149,   -3.600000e+01,    1.555556e+01,   -4.000000e+01
    8150,   -4.000000e+01,    2.000000e+01,   -4.000000e+00
    8151,   -4.000000e+01,    2.000000e+01,   -8.000000e+00
    8152,   -4.000000e+01,    2.000000e+01,   -1.200000e+01
    8153,   -4.000000e+01,    2.000000e+01,   -1.600000e+01
    8154,   -4.000000e+01,    2.000000e+01,   -2.000000e+01
    8155,   -4.000000e+01,    2.000000e+01,   -2.400000e+01
    8156,   -4.000000e+01,    2.000000e+01,   -2.800000e+01
    8157,   -4.000000e+01,    2.000000e+01,   -3.200000e+01
    8158,   -4.000000e+01,    2.000000e+01,   -3.600000e+01
    8159,   -4.000000e+01,    1.111111e+01,   -4.000000e+00
    8160,   -4.000000e+01,    1.555556e+01,   -4.000000e+00
    8161,   -4.000000e+01,    1.111111e+01,   -8.000000e+00
    8162,   -4.000000e+01,    1.555556e+01,   -8.000000e+00
    8163,   -4.000000e+01,    1.111111e+01,   -1.200000e+01
    8164,   -4.000000e+01,    1.555556e+01,   -1.200000e+01
    8165,   -4.000000e+01,    1.111111e+01,   -1.600000e+01
    8166,   -4.000000e+01,    1.555556e+01,   -1.600000e+01
    8167,   -4.000000e+01,    1.111111e+01,   -2.000000e+01
    8168,   -4.000000e+01,    1.555556e+01,   -2.000000e+01
    8169,   -4.000000e+01,    1.111111e+01,   -2.400000e+01
    8170,   -4.000000e+01,    1.555556e+01,   -2.400000e+01
    8171,   -4.000000e+01,    1.111111e+01,   -2.800000e+01
    8172,   -4.000000e+01,    1.555556e+01,   -2.800000e+01
    8173,   -4.000000e+01,    1.111111e+01,   -3.200000e+01
    8174,   -4.000000e+01,    1.555556e+01,   -3.200000e+01
    8175,   -4.000000e+01,    1.111111e+01,   -3.600000e+01
    8176,   -4.000000e+01,    1.555556e+01,   -3.600000e+01
    8177,    1.035338e+01,    1.111111e+01,   -6.239661e+00
    8178,    1.543794e+01,    1.111111e+01,   -5.296863e+00
    8179,    1.979447e+01,    1.111111e+01,   -4.729876e+00
    8180,    2.393743e+01,    1.111111e+01,   -4.403914e+00
    8181,    2.799402e+01,    1.111111e+01,   -4.214100e+00
    8182,    3.201046e+01,    1.111111e+01,   -4.106555e+00
    8183,    3.600822e+01,    1.111111e+01,   -4.043703e+00
    8184,    3.603363e+01,    1.111111e+01,   -3.599565e+01
    8185,    3.206636e+01,    1.111111e+01,   -3.598076e+01
    8186,    2.809964e+01,    1.111111e+01,   -3.593847e+01
    8187,    2.412620e+01,    1.111111e+01,   -3.584023e+01
    8188,    2.014125e+01,    1.111111e+01,   -3.567464e+01
    8189,    1.614008e+01,    1.111111e+01,   -3.550916e+01
    8190,    1.210931e+01,    1.111111e+01,   -3.549320e+01
    8191,    8.067386e+00,    1.111111e+01,   -3.557565e+01
    8192,    4.018314e+00,    1.111111e+01,   -3.569426e+01
    8193,   -2.185552e-02,    1.111111e+01,   -3.581454e+01
    8194,   -4.049930e+00,    1.111111e+01,   -3.591278e+01
    8195,   -8.066805e+00,    1.111111e+01,   -3.598319e+01
    8196,   -1.207464e+01,    1.111111e+01,   -3.602514e+01
    8197,   -1.607607e+01,    1.111111e+01,   -3.603932e+01
    8198,   -2.007116e+01,    1.111111e+01,   -3.603858e+01
    8199,   -2.406112e+01,    1.111111e+01,   -3.603122e+01
    8200,   -2.804734e+01,    1.111111e+01,   -3.602356e+01
    8201,   -3.203121e+01,    1.111111e+01,   -3.601527e+01
    8202,   -3.601473e+01,    1.111111e+01,   -3.600728e+01
    8203,   -3.602582e+01,    1.111111e+01,   -4.010657e+00
    8204,   -3.204930e+01,    1.111111e+01,   -4.024200e+00
    8205,   -2.806748e+01,    1.111111e+01,   -4.042642e+00
    8206,   -2.406696e+01,    1.111111e+01,   -4.073720e+00
    8207,   -2.003270e+01,    1.111111e+01,   -4.147645e+00
    8208,   -1.591408e+01,    1.111111e+01,   -4.346095e+00
    8209,   -1.102871e+01,    1.111111e+01,   -5.208622e+00
    8210,    3.602988e+01,    1.111111e+01,   -8.076038e+00
    8211,    3.607704e+01,    1.111111e+01,   -1.209229e+01
    8212,    3.613444e+01,    1.111111e+01,   -1.608596e+01
    8213,    3.617567e+01,    1.111111e+01,   -2.005981e+01
    8214,    3.615918e+01,    1.111111e+01,   -2.402974e+01
    8215,    3.611786e+01,    1.111111e+01,   -2.800854e+01
    8216,    3.607315e+01,    1.111111e+01,   -3.199625e+01
    8217,   -3.603153e+01,    1.111111e+01,   -3.201490e+01
    8218,   -3.605004e+01,    1.111111e+01,   -2.802104e+01
    8219,   -3.606525e+01,    1.111111e+01,   -2.402789e+01
    8220,   -3.607824e+01,    1.111111e+01,   -2.003086e+01
    8221,   -3.608145e+01,    1.111111e+01,   -1.602970e+01
    8222,   -3.607165e+01,    1.111111e+01,   -1.202596e+01
    8223,   -3.605270e+01,    1.111111e+01,   -8.019129e+00
    8224,   -7.676420e+00,    1.111111e+01,   -8.483598e+00
    8225,   -6.292756e+00,    1.111111e+01,   -1.204892e+01
    8226,   -2.585946e+00,    1.111111e+01,   -1.130823e+01
    8227,    1.359922e+00,    1.111111e+01,   -1.094810e+01
    8228,    5.527334e+00,    1.111111e+01,   -9.659845e+00
    8229,   -3.210361e+01,    1.111111e+01,   -8.042339e+00
    8230,   -2.815510e+01,    1.111111e+01,   -8.071414e+00
    8231,   -2.421217e+01,    1.111111e+01,   -8.119311e+00
    8232,   -2.029000e+01,    1.111111e+01,   -8.213446e+00
    8233,   -1.639400e+01,    1.111111e+01,   -8.526873e+00
    8234,   -1.270903e+01,    1.111111e+01,   -9.124861e+00
    8235,   -1.001863e+01,    1.111111e+01,   -1.010961e+01
    8236,   -9.622448e+00,    1.111111e+01,   -1.280972e+01
    8237,   -9.151827e+00,    1.111111e+01,   -1.628220e+01
    8238,   -5.396329e+00,    1.111111e+01,   -1.578446e+01
    8239,   -1.447074e+00,    1.111111e+01,   -1.514390e+01
    8240,    2.476808e+00,    1.111111e+01,   -1.449494e+01
    8241,    6.692977e+00,    1.111111e+01,   -1.336327e+01
    8242,    1.116349e+01,    1.111111e+01,   -1.165195e+01
    8243,    1.565638e+01,    1.111111e+01,   -1.038855e+01
    8244,    1.991511e+01,    1.111111e+01,   -9.379810e+00
    8245,    2.403449e+01,    1.111111e+01,   -8.746451e+00
    8246,    2.807243e+01,    1.111111e+01,   -8.389235e+00
    8247,    3.206505e+01,    1.111111e+01,   -8.195069e+00
    8248,   -3.206475e+01,    1.111111e+01,   -3.203047e+01
    8249,   -3.209886e+01,    1.111111e+01,   -2.804457e+01
    8250,   -3.213310e+01,    1.111111e+01,   -2.405446e+01
    8251,   -3.215742e+01,    1.111111e+01,   -2.005855e+01
    8252,   -3.216365e+01,    1.111111e+01,   -1.605701e+01
    8253,   -3.214263e+01,    1.111111e+01,   -1.205265e+01
    8254,    3.216217e+01,    1.111111e+01,   -1.222571e+01
    8255,    3.229260e+01,    1.111111e+01,   -1.620179e+01
    8256,    3.238709e+01,    1.111111e+01,   -2.013122e+01
    8257,    3.233972e+01,    1.111111e+01,   -2.405016e+01
    8258,    3.224253e+01,    1.111111e+01,   -2.799413e+01
    8259,    3.214827e+01,    1.111111e+01,   -3.197185e+01
    8260,    2.822197e+01,    1.111111e+01,   -3.189704e+01
    8261,    2.428602e+01,    1.111111e+01,   -3.170823e+01
    8262,    2.033196e+01,    1.111111e+01,   -3.134567e+01
    8263,    1.633846e+01,    1.111111e+01,   -3.104956e+01
    8264,    1.224031e+01,    1.111111e+01,   -3.094010e+01
    8265,    8.123892e+00,    1.111111e+01,   -3.112419e+01
    8266,    4.018007e+00,    1.111111e+01,   -3.138206e+01
    8267,   -6.542876e-02,    1.111111e+01,   -3.162889e+01
    8268,   -4.124216e+00,    1.111111e+01,   -3.183011e+01
    8269,   -8.155029e+00,    1.111111e+01,   -3.197181e+01
    8270,   -1.216891e+01,    1.111111e+01,   -3.205153e+01
    8271,   -1.616803e+01,    1.111111e+01,   -3.207971e+01
    8272,   -2.015168e+01,    1.111111e+01,   -3.207489e+01
    8273,   -2.412672e+01,    1.111111e+01,   -3.206050e+01
    8274,   -2.809696e+01,    1.111111e+01,   -3.204531e+01
    8275,   -2.822439e+01,    1.111111e+01,   -1.208660e+01
    8276,   -2.432462e+01,    1.111111e+01,   -1.213923e+01
    8277,   -2.045791e+01,    1.111111e+01,   -1.222285e+01
    8278,   -1.666024e+01,    1.111111e+01,   -1.238090e+01
    8279,   -1.297778e+01,    1.111111e+01,   -1.267569e+01
    8280,   -1.287965e+01,    1.111111e+01,   -1.636961e+01
    8281,   -1.266446e+01,    1.111111e+01,   -2.022277e+01
    8282,   -8.769277e+00,    1.111111e+01,   -2.006644e+01
    8283,   -4.834281e+00,    1.111111e+01,   -1.968643e+01
    8284,   -7.972943e-01,    1.111111e+01,   -1.915056e+01
    8285,    3.342716e+00,    1.111111e+01,   -1.846399e+01
    8286,    7.486011e+00,    1.111111e+01,   -1.760938e+01
    8287,    1.186113e+01,    1.111111e+01,   -1.650747e+01
    8288,    1.625990e+01,    1.111111e+01,   -1.527754e+01
    8289,    2.040732e+01,    1.111111e+01,   -1.381863e+01
    8290,    2.431061e+01,    1.111111e+01,   -1.293101e+01
    8291,    2.825242e+01,    1.111111e+01,   -1.248018e+01
    8292,   -2.815075e+01,    1.111111e+01,   -2.806490e+01
    8293,   -2.820490e+01,    1.111111e+01,   -2.408056e+01
    8294,   -2.824369e+01,    1.111111e+01,   -2.008837e+01
    8295,   -2.825184e+01,    1.111111e+01,   -1.609231e+01
    8296,    2.848942e+01,    1.111111e+01,   -1.641873e+01
    8297,    2.868685e+01,    1.111111e+01,   -2.022711e+01
    8298,    2.855625e+01,    1.111111e+01,   -2.401984e+01
    8299,    2.837726e+01,    1.111111e+01,   -2.790630e+01
    8300,    2.451634e+01,    1.111111e+01,   -2.765203e+01
    8301,    2.069141e+01,    1.111111e+01,   -2.713403e+01
    8302,    1.667189e+01,    1.111111e+01,   -2.635339e+01
    8303,    1.238312e+01,    1.111111e+01,   -2.636243e+01
    8304,    8.154765e+00,    1.111111e+01,   -2.664113e+01
    8305,    3.967979e+00,    1.111111e+01,   -2.706137e+01
    8306,   -1.673856e-01,    1.111111e+01,   -2.744351e+01
    8307,   -4.249289e+00,    1.111111e+01,   -2.775387e+01
    8308,   -8.287866e+00,    1.111111e+01,   -2.796880e+01
    8309,   -1.229746e+01,    1.111111e+01,   -2.808248e+01
    8310,   -1.628430e+01,    1.111111e+01,   -2.811640e+01
    8311,   -2.025078e+01,    1.111111e+01,   -2.810617e+01
    8312,   -2.420374e+01,    1.111111e+01,   -2.808623e+01
    8313,   -1.666216e+01,    1.111111e+01,   -1.629514e+01
    8314,   -1.655734e+01,    1.111111e+01,   -2.022217e+01
    8315,   -1.641626e+01,    1.111111e+01,   -2.416168e+01
    8316,   -1.246127e+01,    1.111111e+01,   -2.412491e+01
    8317,   -8.489061e+00,    1.111111e+01,   -2.397315e+01
    8318,   -4.478439e+00,    1.111111e+01,   -2.367560e+01
    8319,   -3.990548e-01,    1.111111e+01,   -2.325239e+01
    8320,    3.758583e+00,    1.111111e+01,   -2.270783e+01
    8321,    7.994831e+00,    1.111111e+01,   -2.208453e+01
    8322,    1.249406e+01,    1.111111e+01,   -2.140399e+01
    8323,    1.749845e+01,    1.111111e+01,   -2.077788e+01
    8324,    2.122412e+01,    1.111111e+01,   -1.781483e+01
    8325,    2.479457e+01,    1.111111e+01,   -1.689246e+01
    8326,   -2.436292e+01,    1.111111e+01,   -1.613900e+01
    8327,   -2.048923e+01,    1.111111e+01,   -1.621063e+01
    8328,    2.528646e+01,    1.111111e+01,   -2.034120e+01
    8329,    2.490981e+01,    1.111111e+01,   -2.378897e+01
    8330,   -2.428118e+01,    1.111111e+01,   -2.410971e+01
    8331,   -2.433997e+01,    1.111111e+01,   -2.013038e+01
    8332,    2.137323e+01,    1.111111e+01,   -2.315172e+01
    8333,    2.257048e+01,    1.111111e+01,   -2.043818e+01
    8334,   -2.035498e+01,    1.111111e+01,   -2.414043e+01
    8335,   -2.043622e+01,    1.111111e+01,   -2.017628e+01
    8336,    1.035338e+01,    1.555556e+01,   -6.239661e+00
    8337,    1.543794e+01,    1.555556e+01,   -5.296863e+00
    8338,    1.979447e+01,    1.555556e+01,   -4.729876e+00
    8339,    2.393743e+01,    1.555556e+01,   -4.403914e+00
    8340,    2.799402e+01,    1.555556e+01,   -4.214100e+00
    8341,    3.201046e+01,    1.555556e+01,   -4.106555e+00
    8342,    3.600822e+01,    1.555556e+01,   -4.043703e+00
    8343,    3.603363e+01,    1.555556e+01,   -3.599565e+01
    8344,    3.206636e+01,    1.555556e+01,   -3.598076e+01
    8345,    2.809964e+01,    1.555556e+01,   -3.593847e+01
    8346,    2.412620e+01,    1.555556e+01,   -3.584023e+01
    8347,    2.014125e+01,    1.555556e+01,   -3.567464e+01
    8348,    1.614008e+01,    1.555556e+01,   -3.550916e+01
    8349,    1.210931e+01,    1.555556e+01,   -3.549320e+01
    8350,    8.067386e+00,    1.555556e+01,   -3.557565e+01
    8351,    4.018314e+00,    1.555556e+01,   -3.569426e+01
    8352,   -2.185552e-02,    1.555556e+01,   -3.581454e+01
    8353,   -4.049930e+00,    1.555556e+01,   -3.591278e+01
    8354,   -8.066805e+00,    1.555556e+01,   -3.598319e+01
    8355,   -1.207464e+01,    1.555556e+01,   -3.602514e+01
    8356,   -1.607607e+01,    1.555556e+01,   -3.603932e+01
    8357,   -2.007116e+01,    1.555556e+01,   -3.603858e+01
    8358,   -2.406112e+01,    1.555556e+01,   -3.603122e+01
    8359,   -2.804734e+01,    1.555556e+01,   -3.602356e+01
    8360,   -3.203121e+01,    1.555556e+01,   -3.601527e+01
    8361,   -3.601473e+01,    1.555556e+01,   -3.600728e+01
    8362,   -3.602582e+01,    1.555556e+01,   -4.010657e+00
    8363,   -3.204930e+01,    1.555556e+01,   -4.024200e+00
    8364,   -2.806748e+01,    1.555556e+01,   -4.042642e+00
    8365,   -2.406696e+01,    1.555556e+01,   -4.073720e+00
    8366,   -2.003270e+01,    1.555556e+01,   -4.147645e+00
    8367,   -1.591408e+01,    1.555556e+01,   -4.346095e+00
    8368,   -1.102871e+01,    1.555556e+01,   -5.208622e+00
    8369,    3.602988e+01,    1.555556e+01,   -8.076038e+00
    8370,    3.607704e+01,    1.555556e+01,   -1.209229e+01
    8371,    3.613444e+01,    1.555556e+01,   -1.608596e+01
    8372,    3.617567e+01,    1.555556e+01,   -2.005981e+01
    8373,    3.615918e+01,    1.555556e+01,   -2.402974e+01
    8374,    3.611786e+01,    1.555556e+01,   -2.800854e+01
    8375,    3.607315e+01,    1.555556e+01,   -3.199625e+01
    8376,   -3.603153e+01,    1.555556e+01,   -3.201490e+01
    8377,   -3.605004e+01,    1.555556e+01,   -2.802104e+01
    8378,   -3.606525e+01,    1.555556e+01,   -2.402789e+01
    8379,   -3.607824e+01,    1.555556e+01,   -2.003086e+01
    8380,   -3.608145e+01,    1.555556e+01,   -1.602970e+01
    8381,   -3.607165e+01,    1.555556e+01,   -1.202596e+01
    8382,   -3.605270e+01,    1.555556e+01,   -8.019129e+00
    8383,   -7.676420e+00,    1.555556e+01,   -8.483598e+00
    8384,   -6.292756e+00,    1.555556e+01,   -1.204892e+01
    8385,   -2.585946e+00,    1.555556e+01,   -1.130823e+01
    8386,    1.359922e+00,    1.555556e+01,   -1.094810e+01
    8387,    5.527334e+00,    1.555556e+01,   -9.659845e+00
    8388,   -3.210361e+01,    1.555556e+01,   -8.042339e+00
    8389,   -2.815510e+01,    1.555556e+01,   -8.071414e+00
    8390,   -2.421217e+01,    1.555556e+01,   -8.119311e+00
    8391,   -2.029000e+01,    1.555556e+01,   -8.213446e+00
    8392,   -1.639400e+01,    1.555556e+01,   -8.526873e+00
    8393,   -1.270903e+01,    1.555556e+01,   -9.124861e+00
    8394,   -1.001863e+01,    1.555556e+01,   -1.010961e+01
    8395,   -9.622448e+00,    1.555556e+01,   -1.280972e+01
    8396,   -9.151827e+00,    1.555556e+01,   -1.628220e+01
    8397,   -5.396329e+00,    1.555556e+01,   -1.578446e+01
    8398,   -1.447074e+00,    1.555556e+01,   -1.514390e+01
    8399,    2.476808e+00,    1.555556e+01,   -1.449494e+01
    8400,    6.692977e+00,    1.555556e+01,   -1.336327e+01
    8401,    1.116349e+01,    1.555556e+01,   -1.165195e+01
    8402,    1.565638e+01,    1.555556e+01,   -1.038855e+01
    8403,    1.991511e+01,    1.555556e+01,   -9.379810e+00
    8404,    2.403449e+01,    1.555556e+01,   -8.746451e+00
    8405,    2.807243e+01,    1.555556e+01,   -8.389235e+00
    8406,    3.206505e+01,    1.555556e+01,   -8.195069e+00
    8407,   -3.206475e+01,    1.555556e+01,   -3.203047e+01
    8408,   -3.209886e+01,    1.555556e+01,   -2.804457e+01
    8409,   -3.213310e+01,    1.555556e+01,   -2.405446e+01
    8410,   -3.215742e+01,    1.555556e+01,   -2.005855e+01
    8411,   -3.216365e+01,    1.555556e+01,   -1.605701e+01
    8412,   -3.214263e+01,    1.555556e+01,   -1.205265e+01
    8413,    3.216217e+01,    1.555556e+01,   -1.222571e+01
    8414,    3.229260e+01,    1.555556e+01,   -1.620179e+01
    8415,    3.238709e+01,    1.555556e+01,   -2.013122e+01
    8416,    3.233972e+01,    1.555556e+01,   -2.405016e+01
    8417,    3.224253e+01,    1.555556e+01,   -2.799413e+01
    8418,    3.214827e+01,    1.555556e+01,   -3.197185e+01
    8419,    2.822197e+01,    1.555556e+01,   -3.189704e+01
    8420,    2.428602e+01,    1.555556e+01,   -3.170823e+01
    8421,    2.033196e+01,    1.555556e+01,   -3.134567e+01
    8422,    1.633846e+01,    1.555556e+01,   -3.104956e+01
    8423,    1.224031e+01,    1.555556e+01,   -3.094010e+01
    8424,    8.123892e+00,    1.555556e+01,   -3.112419e+01
    8425,    4.018007e+00,    1.555556e+01,   -3.138206e+01
    8426,   -6.542876e-02,    1.555556e+01,   -3.162889e+01
    8427,   -4.124216e+00,    1.555556e+01,   -3.183011e+01
    8428,   -8.155029e+00,    1.555556e+01,   -3.197181e+01
    8429,   -1.216891e+01,    1.555556e+01,   -3.205153e+01
    8430,   -1.616803e+01,    1.555556e+01,   -3.207971e+01
    8431,   -2.015168e+01,    1.555556e+01,   -3.207489e+01
    8432,   -2.412672e+01,    1.555556e+01,   -3.206050e+01
    8433,   -2.809696e+01,    1.555556e+01,   -3.204531e+01
    8434,   -2.822439e+01,    1.555556e+01,   -1.208660e+01
    8435,   -2.432462e+01,    1.555556e+01,   -1.213923e+01
    8436,   -2.045791e+01,    1.555556e+01,   -1.222285e+01
    8437,   -1.666024e+01,    1.555556e+01,   -1.238090e+01
    8438,   -1.297778e+01,    1.555556e+01,   -1.267569e+01
    8439,   -1.287965e+01,    1.555556e+01,   -1.636961e+01
    8440,   -1.266446e+01,    1.555556e+01,   -2.022277e+01
    8441,   -8.769277e+00,    1.555556e+01,   -2.006644e+01
    8442,   -4.834281e+00,    1.555556e+01,   -1.968643e+01
    8443,   -7.972943e-01,    1.555556e+01,   -1.915056e+01
    8444,    3.342716e+00,    1.555556e+01,   -1.846399e+01
    8445,    7.486011e+00,    1.555556e+01,   -1.760938e+01
    8446,    1.186113e+01,    1.555556e+01,   -1.650747e+01
    8447,    1.625990e+01,    1.555556e+01,   -1.527754e+01
    8448,    2.040732e+01,    1.555556e+01,   -1.381863e+01
    8449,    2.431061e+01,    1.555556e+01,   -1.293101e+01
    8450,    2.825242e+01,    1.555556e+01,   -1.248018e+01
    8451,   -2.815075e+01,    1.555556e+01,   -2.806490e+01
    8452,   -2.820490e+01,    1.555556e+01,   -2.408056e+01
    8453,   -2.824369e+01,    1.555556e+01,   -2.008837e+01
    8454,   -2.825184e+01,    1.555556e+01,   -1.609231e+01
    8455,    2.848942e+01,    1.555556e+01,   -1.641873e+01
    8456,    2.868685e+01,    1.555556e+01,   -2.022711e+01
    8457,    2.855625e+01,    1.555556e+01,   -2.401984e+01
    8458,    2.837726e+01,    1.555556e+01,   -2.790630e+01
    8459,    2.451634e+01,    1.555556e+01,   -2.765203e+01
    8460,    2.069141e+01,    1.555556e+01,   -2.713403e+01
    8461,    1.667189e+01,    1.555556e+01,   -2.635339e+01
    8462,    1.238312e+01,    1.555556e+01,   -2.636243e+01
    8463,    8.154765e+00,    1.555556e+01,   -2.664113e+01
    8464,    3.967979e+00,    1.555556e+01,   -2.706137e+01
    8465,   -1.673856e-01,    1.555556e+01,   -2.744351e+01
    8466,   -4.249289e+00,    1.555556e+01,   -2.775387e+01
    8467,   -8.287866e+00,    1.555556e+01,   -2.796880e+01
    8468,   -1.229746e+01,    1.555556e+01,   -2.808248e+01
    8469,   -1.628430e+01,    1.555556e+01,   -2.811640e+01
    8470,   -2.025078e+01,    1.555556e+01,   -2.810617e+01
    8471,   -2.420374e+01,    1.555556e+01,   -2.808623e+01
    8472,   -1.666216e+01,    1.555556e+01,   -1.629514e+01
    8473,   -1.655734e+01,    1.555556e+01,   -2.022217e+01
    8474,   -1.641626e+01,    1.555556e+01,   -2.416168e+01
    8475,   -1.246127e+01,    1.555556e+01,   -2.412491e+01
    8476,   -8.489061e+00,    1.555556e+01,   -2.397315e+01
    8477,   -4.478439e+00,    1.555556e+01,   -2.367560e+01
    8478,   -3.990548e-01,    1.555556e+01,   -2.325239e+01
    8479,    3.758583e+00,    1.555556e+01,   -2.270783e+01
    8480,    7.994831e+00,    1.555556e+01,   -2.208453e+01
    8481,    1.249406e+01,    1.555556e+01,   -2.140399e+01
    8482,    1.749845e+01,    1.555556e+01,   -2.077788e+01
    8483,    2.122412e+01,    1.555556e+01,   -1.781483e+01
    8484,    2.479457e+01,    1.555556e+01,   -1.689246e+01
    8485,   -2.436292e+01,    1.555556e+01,   -1.613900e+01
    8486,   -2.048923e+01,    1.555556e+01,   -1.621063e+01
    8487,    2.528646e+01,    1.555556e+01,   -2.034120e+01
    8488,    2.490981e+01,    1.555556e+01,   -2.378897e+01
    8489,   -2.428118e+01,    1.555556e+01,   -2.410971e+01
    8490,   -2.433997e+01,    1.555556e+01,   -2.013038e+01
    8491,    2.137323e+01,    1.555556e+01,   -2.315172e+01
    8492,    2.257048e+01,    1.555556e+01,   -2.043818e+01
    8493,   -2.035498e+01,    1.555556e+01,   -2.414043e+01
    8494,   -2.043622e+01,    1.555556e+01,   -2.017628e+01
    8495,    1.035338e+01,    2.000000e+01,   -6.239661e+00
    8496,    1.543794e+01,    2.000000e+01,   -5.296863e+00
    8497,    1.979447e+01,    2.000000e+01,   -4.729876e+00
    8498,    2.393743e+01,    2.000000e+01,   -4.403914e+00
    8499,    2.799402e+01,    2.000000e+01,   -4.214100e+00
    8500,    3.201046e+01,    2.000000e+01,   -4.106555e+00
    8501,    3.600822e+01,    2.000000e+01,   -4.043703e+00
    8502,    3.603363e+01,    2.000000e+01,   -3.599565e+01
    8503,    3.206636e+01,    2.000000e+01,   -3.598076e+01
    8504,    2.809964e+01,    2.000000e+01,   -3.593847e+01
    8505,    2.412620e+01,    2.000000e+01,   -3.584023e+01
    8506,    2.014125e+01,    2.000000e+01,   -3.567464e+01
    8507,    1.614008e+01,    2.000000e+01,   -3.550916e+01
    8508,    1.210931e+01,    2.000000e+01,   -3.549320e+01
    8509,    8.067386e+00,    2.000000e+01,   -3.557565e+01
    8510,    4.018314e+00,    2.000000e+01,   -3.569426e+01
    8511,   -2.185552e-02,    2.000000e+01,   -3.581454e+01
    8512,   -4.049930e+00,    2.000000e+01,   -3.591278e+01
    8513,   -8.066805e+00,    2.000000e+01,   -3.598319e+01
    8514,   -1.207464e+01,    2.000000e+01,   -3.602514e+01
    8515,   -1.607607e+01,    2.000000e+01,   -3.603932e+01
    8516,   -2.007116e+01,    2.000000e+01,   -3.603858e+01
    8517,   -2.406112e+01,    2.000000e+01,   -3.603122e+01
    8518,   -2.804734e+01,    2.000000e+01,   -3.602356e+01
    8519,   -3.203121e+01,    2.000000e+01,   -3.601527e+01
    8520,   -3.601473e+01,    2.000000e+01,   -3.600728e+01
    8521,   -3.602582e+01,    2.000000e+01,   -4.010657e+00
    8522,   -3.204930e+01,    2.000000e+01,   -4.024200e+00
    8523,   -2.806748e+01,    2.000000e+01,   -4.042642e+00
    8524,   -2.406696e+01,    2.000000e+01,   -4.073720e+00
    8525,   -2.003270e+01,    2.000000e+01,   -4.147645e+00
    8526,   -1.591408e+01,    2.000000e+01,   -4.346095e+00
    8527,   -1.102871e+01,    2.000000e+01,   -5.208622e+00
    8528,    3.602988e+01,    2.000000e+01,   -8.076038e+00
    8529,    3.607704e+01,    2.000000e+01,   -1.209229e+01
    8530,    3.613444e+01,    2.000000e+01,   -1.608596e+01
    8531,    3.617567e+01,    2.000000e+01,   -2.005981e+01
    8532,    3.615918e+01,    2.000000e+01,   -2.402974e+01
    8533,    3.611786e+01,    2.000000e+01,   -2.800854e+01
    8534,    3.607315e+01,    2.000000e+01,   -3.199625e+01
    8535,   -3.603153e+01,    2.000000e+01,   -3.201490e+01
    8536,   -3.605004e+01,    2.000000e+01,   -2.802104e+01
    8537,   -3.606525e+01,    2.000000e+01,   -2.402789e+01
    8538,   -3.607824e+01,    2.000000e+01,   -2.003086e+01
    8539,   -3.608145e+01,    2.000000e+01,   -1.602970e+01
    8540,   -3.607165e+01,    2.000000e+01,   -1.202596e+01
    8541,   -3.605270e+01,    2.000000e+01,   -8.019129e+00
    8542,   -7.676420e+00,    2.000000e+01,   -8.483598e+00
    8543,   -6.292756e+00,    2.000000e+01,   -1.204892e+01
    8544,   -2.585946e+00,    2.000000e+01,   -1.130823e+01
    8545,    1.359922e+00,    2.000000e+01,   -1.094810e+01
    8546,    5.527334e+00,    2.000000e+01,   -9.659845e+00
    8547,   -3.210361e+01,    2.000000e+01,   -8.042339e+00
    8548,   -2.815510e+01,    2.000000e+01,   -8.071414e+00
    8549,   -2.421217e+01,    2.000000e+01,   -8.119311e+00
    8550,   -2.029000e+01,    2.000000e+01,   -8.213446e+00
    8551,   -1.639400e+01,    2.000000e+01,   -8.526873e+00
    8552,   -1.270903e+01,    2.000000e+01,   -9.124861e+00
    8553,   -1.001863e+01,    2.000000e+01,   -1.010961e+01
    8554,   -9.622448e+00,    2.000000e+01,   -1.280972e+01
    8555,   -9.151827e+00,    2.000000e+01,   -1.628220e+01
    8556,   -5.396329e+00,    2.000000e+01,   -1.578446e+01
    8557,   -1.447074e+00,    2.000000e+01,   -1.514390e+01
    8558,    2.476808e+00,    2.000000e+01,   -1.449494e+01
    8559,    6.692977e+00,    2.000000e+01,   -1.336327e+01
    8560,    1.116349e+01,    2.000000e+01,   -1.165195e+01
    8561,    1.565638e+01,    2.000000e+01,   -1.038855e+01
    8562,    1.991511e+01,    2.000000e+01,   -9.379810e+00
    8563,    2.403449e+01,    2.000000e+01,   -8.746451e+00
    8564,    2.807243e+01,    2.000000e+01,   -8.389235e+00
    8565,    3.206505e+01,    2.000000e+01,   -8.195069e+00
    8566,   -3.206475e+01,    2.000000e+01,   -3.203047e+01
    8567,   -3.209886e+01,    2.000000e+01,   -2.804457e+01
    8568,   -3.213310e+01,    2.000000e+01,   -2.405446e+01
    8569,   -3.215742e+01,    2.000000e+01,   -2.005855e+01
    8570,   -3.216365e+01,    2.000000e+01,   -1.605701e+01
    8571,   -3.214263e+01,    2.000000e+01,   -1.205265e+01
    8572,    3.216217e+01,    2.000000e+01,   -1.222571e+01
    8573,    3.229260e+01,    2.000000e+01,   -1.620179e+01
    8574,    3.238709e+01,    2.000000e+01,   -2.013122e+01
    8575,    3.233972e+01,    2.000000e+01,   -2.405016e+01
    8576,    3.224253e+01,    2.000000e+01,   -2.799413e+01
    8577,    3.214827e+01,    2.000000e+01,   -3.197185e+01
    8578,    2.822197e+01,    2.000000e+01,   -3.189704e+01
    8579,    2.428602e+01,    2.000000e+01,   -3.170823e+01
    8580,    2.033196e+01,    2.000000e+01,   -3.134567e+01
    8581,    1.633846e+01,    2.000000e+01,   -3.104956e+01
    8582,    1.224031e+01,    2.000000e+01,   -3.094010e+01
    8583,    8.123892e+00,    2.000000e+01,   -3.112419e+01
    8584,    4.018007e+00,    2.000000e+01,   -3.138206e+01
    8585,   -6.542876e-02,    2.000000e+01,   -3.162889e+01
    8586,   -4.124216e+00,    2.000000e+01,   -3.183011e+01
    8587,   -8.155029e+00,    2.000000e+01,   -3.197181e+01
    8588,   -1.216891e+01,    2.000000e+01,   -3.205153e+01
    8589,   -1.616803e+01,    2.000000e+01,   -3.207971e+01
    8590,   -2.015168e+01,    2.000000e+01,   -3.207489e+01
    8591,   -2.412672e+01,    2.000000e+01,   -3.206050e+01
    8592,   -2.809696e+01,    2.000000e+01,   -3.204531e+01
    8593,   -2.822439e+01,    2.000000e+01,   -1.208660e+01
    8594,   -2.432462e+01,    2.000000e+01,   -1.213923e+01
    8595,   -2.045791e+01,    2.000000e+01,   -1.222285e+01
    8596,   -1.666024e+01,    2.000000e+01,   -1.238090e+01
    8597,   -1.297778e+01,    2.000000e+01,   -1.267569e+01
    8598,   -1.287965e+01,    2.000000e+01,   -1.636961e+01
    8599,   -1.266446e+01,    2.000000e+01,   -2.022277e+01
    8600,   -8.769277e+00,    2.000000e+01,   -2.006644e+01
    8601,   -4.834281e+00,    2.000000e+01,   -1.968643e+01
    8602,   -7.972943e-01,    2.000000e+01,   -1.915056e+01
    8603,    3.342716e+00,    2.000000e+01,   -1.846399e+01
    8604,    7.486011e+00,    2.000000e+01,   -1.760938e+01
    8605,    1.186113e+01,    2.000000e+01,   -1.650747e+01
    8606,    1.625990e+01,    2.000000e+01,   -1.527754e+01
    8607,    2.040732e+01,    2.000000e+01,   -1.381863e+01
    8608,    2.431061e+01,    2.000000e+01,   -1.293101e+01
    8609,    2.825242e+01,    2.000000e+01,   -1.248018e+01
    8610,   -2.815075e+01,    2.000000e+01,   -2.806490e+01
    8611,   -2.820490e+01,    2.000000e+01,   -2.408056e+01
    8612,   -2.824369e+01,    2.000000e+01,   -2.008837e+01
    8613,   -2.825184e+01,    2.000000e+01,   -1.609231e+01
    8614,    2.848942e+01,    2.000000e+01,   -1.641873e+01
    8615,    2.868685e+01,    2.000000e+01,   -2.022711e+01
    8616,    2.855625e+01,    2.000000e+01,   -2.401984e+01
    8617,    2.837726e+01,    2.000000e+01,   -2.790630e+01
    8618,    2.451634e+01,    2.000000e+01,   -2.765203e+01
    8619,    2.069141e+01,    2.000000e+01,   -2.713403e+01
    8620,    1.667189e+01,    2.000000e+01,   -2.635339e+01
    8621,    1.238312e+01,    2.000000e+01,   -2.636243e+01
    8622,    8.154765e+00,    2.000000e+01,   -2.664113e+01
    8623,    3.967979e+00,    2.000000e+01,   -2.706137e+01
    8624,   -1.673856e-01,    2.000000e+01,   -2.744351e+01
    8625,   -4.249289e+00,    2.000000e+01,   -2.775387e+01
    8626,   -8.287866e+00,    2.000000e+01,   -2.796880e+01
    8627,   -1.229746e+01,    2.000000e+01,   -2.808248e+01
    8628,   -1.628430e+01,    2.000000e+01,   -2.811640e+01
    8629,   -2.025078e+01,    2.000000e+01,   -2.810617e+01
    8630,   -2.420374e+01,    2.000000e+01,   -2.808623e+01
    8631,   -1.666216e+01,    2.000000e+01,   -1.629514e+01
    8632,   -1.655734e+01,    2.000000e+01,   -2.022217e+01
    8633,   -1.641626e+01,    2.000000e+01,   -2.416168e+01
    8634,   -1.246127e+01,    2.000000e+01,   -2.412491e+01
    8635,   -8.489061e+00,    2.000000e+01,   -2.397315e+01
    8636,   -4.478439e+00,    2.000000e+01,   -2.367560e+01
    8637,   -3.990548e-01,    2.000000e+01,   -2.325239e+01
    8638,    3.758583e+00,    2.000000e+01,   -2.270783e+01
    8639,    7.994831e+00,    2.000000e+01,   -2.208453e+01
    8640,    1.249406e+01,    2.000000e+01,   -2.140399e+01
    8641,    1.749845e+01,    2.000000e+01,   -2.077788e+01
    8642,    2.122412e+01,    2.000000e+01,   -1.781483e+01
    8643,    2.479457e+01,    2.000000e+01,   -1.689246e+01
    8644,   -2.436292e+01,    2.000000e+01,   -1.613900e+01
    8645,   -2.048923e+01,    2.000000e+01,   -1.621063e+01
    8646,    2.528646e+01,    2.000000e+01,   -2.034120e+01
    8647,    2.490981e+01,    2.000000e+01,   -2.378897e+01
    8648,   -2.428118e+01,    2.000000e+01,   -2.410971e+01
    8649,   -2.433997e+01,    2.000000e+01,   -2.013038e+01
    8650,    2.137323e+01,    2.000000e+01,   -2.315172e+01
    8651,    2.257048e+01,    2.000000e+01,   -2.043818e+01
    8652,   -2.035498e+01,    2.000000e+01,   -2.414043e+01
    8653,   -2.043622e+01,    2.000000e+01,   -2.017628e+01
    8654,   -4.000000e+01,    0.000000e+00,    0.000000e+00
    8655,   -4.000000e+01,    3.333333e+00,    0.000000e+00
    8656,   -3.600000e+01,    0.000000e+00,    0.000000e+00
    8657,   -3.200000e+01,    0.000000e+00,    0.000000e+00
    8658,   -2.800000e+01,    0.000000e+00,    0.000000e+00
    8659,   -2.400000e+01,    0.000000e+00,    0.000000e+00
    8660,   -2.000000e+01,    0.000000e+00,    0.000000e+00
    8661,   -1.600000e+01,    0.000000e+00,    0.000000e+00
    8662,   -1.200000e+01,    0.000000e+00,    0.000000e+00
    8663,   -1.200000e+01,    3.333333e+00,    0.000000e+00
    8664,   -1.600000e+01,    3.333333e+00,    0.000000e+00
    8665,   -2.000000e+01,    3.333333e+00,    0.000000e+00
    8666,   -2.400000e+01,    3.333333e+00,    0.000000e+00
    8667,   -2.800000e+01,    3.333333e+00,    0.000000e+00
    8668,   -3.200000e+01,    3.333333e+00,    0.000000e+00
    8669,   -3.600000e+01,    3.333333e+00,    0.000000e+00
    8670,    4.000000e+01,    0.000000e+00,    0.000000e+00
    8671,    1.200000e+01,    0.000000e+00,    0.000000e+00
    8672,    1.600000e+01,    0.000000e+00,    0.000000e+00
    8673,    2.000000e+01,    0.000000e+00,    0.000000e+00
    8674,    2.400000e+01,    0.000000e+00,    0.000000e+00
    8675,    2.800000e+01,    0.000000e+00,    0.000000e+00
    8676,    3.200000e+01,    0.000000e+00,    0.000000e+00
    8677,    3.600000e+01,    0.000000e+00,    0.000000e+00
    8678,    4.000000e+01,    3.333333e+00,    0.000000e+00
    8679,    3.600000e+01,    3.333333e+00,    0.000000e+00
    8680,    3.200000e+01,    3.333333e+00,    0.000000e+00
    8681,    2.800000e+01,    3.333333e+00,    0.000000e+00
    8682,    2.400000e+01,    3.333333e+00,    0.000000e+00
    8683,    2.000000e+01,    3.333333e+00,    0.000000e+00
    8684,    1.600000e+01,    3.333333e+00,    0.000000e+00
    8685,    1.200000e+01,    3.333333e+00,    0.000000e+00
    8686,   -4.000000e+01,    0.000000e+00,   -4.000000e+01
    8687,   -4.000000e+01,    3.333333e+00,   -4.000000e+01
    8688,   -4.000000e+01,    0.000000e+00,   -4.000000e+00
    8689,   -4.000000e+01,    0.000000e+00,   -8.000000e+00
    8690,   -4.000000e+01,    0.000000e+00,   -1.200000e+01
    8691,   -4.000000e+01,    0.000000e+00,   -1.600000e+01
    8692,   -4.000000e+01,    0.000000e+00,   -2.000000e+01
    8693,   -4.000000e+01,    0.000000e+00,   -2.400000e+01
    8694,   -4.000000e+01,    0.000000e+00,   -2.800000e+01
    8695,   -4.000000e+01,    0.000000e+00,   -3.200000e+01
    8696,   -4.000000e+01,    0.000000e+00,   -3.600000e+01
    8697,   -4.000000e+01,    3.333333e+00,   -4.000000e+00
    8698,   -4.000000e+01,    3.333333e+00,   -8.000000e+00
    8699,   -4.000000e+01,    3.333333e+00,   -1.200000e+01
    8700,   -4.000000e+01,    3.333333e+00,   -1.600000e+01
    8701,   -4.000000e+01,    3.333333e+00,   -2.000000e+01
    8702,   -4.000000e+01,    3.333333e+00,   -2.400000e+01
    8703,   -4.000000e+01,    3.333333e+00,   -2.800000e+01
    8704,   -4.000000e+01,    3.333333e+00,   -3.200000e+01
    8705,   -4.000000e+01,    3.333333e+00,   -3.600000e+01
    8706,    4.000000e+01,    0.000000e+00,   -4.000000e+01
    8707,    4.000000e+01,    3.333333e+00,   -4.000000e+01
    8708,    3.600000e+01,    0.000000e+00,   -4.000000e+01
    8709,    3.200000e+01,    0.000000e+00,   -4.000000e+01
    8710,    2.800000e+01,    0.000000e+00,   -4.000000e+01
    8711,    2.400000e+01,    0.000000e+00,   -4.000000e+01
    8712,    2.000000e+01,    0.000000e+00,   -4.000000e+01
    8713,    1.600000e+01,    0.000000e+00,   -4.000000e+01
    8714,    1.200000e+01,    0.000000e+00,   -4.000000e+01
    8715,    8.000000e+00,    0.000000e+00,   -4.000000e+01
    8716,    4.000000e+00,    0.000000e+00,   -4.000000e+01
    8717,    0.000000e+00,    0.000000e+00,   -4.000000e+01
    8718,   -4.000000e+00,    0.000000e+00,   -4.000000e+01
    8719,   -8.000000e+00,    0.000000e+00,   -4.000000e+01
    8720,   -1.200000e+01,    0.000000e+00,   -4.000000e+01
    8721,   -1.600000e+01,    0.000000e+00,   -4.000000e+01
    8722,   -2.000000e+01,    0.000000e+00,   -4.000000e+01
    8723,   -2.400000e+01,    0.000000e+00,   -4.000000e+01
    8724,   -2.800000e+01,    0.000000e+00,   -4.000000e+01
    8725,   -3.200000e+01,    0.000000e+00,   -4.000000e+01
    8726,   -3.600000e+01,    0.000000e+00,   -4.000000e+01
    8727,   -3.600000e+01,    3.333333e+00,   -4.000000e+01
    8728,   -3.200000e+01,    3.333333e+00,   -4.000000e+01
    8729,   -2.800000e+01,    3.333333e+00,   -4.000000e+01
    8730,   -2.400000e+01,    3.333333e+00,   -4.000000e+01
    8731,   -2.000000e+01,    3.333333e+00,   -4.000000e+01
    8732,   -1.600000e+01,    3.333333e+00,   -4.000000e+01
    8733,   -1.200000e+01,    3.333333e+00,   -4.000000e+01
    8734,   -8.000000e+00,    3.333333e+00,   -4.000000e+01
    8735,   -4.000000e+00,    3.333333e+00,   -4.000000e+01
    8736,    1.776357e-15,    3.333333e+00,   -4.000000e+01
    8737,    4.000000e+00,    3.333333e+00,   -4.000000e+01
    8738,    8.000000e+00,    3.333333e+00,   -4.000000e+01
    8739,    1.200000e+01,    3.333333e+00,   -4.000000e+01
    8740,    1.600000e+01,    3.333333e+00,   -4.000000e+01
    8741,    2.000000e+01,    3.333333e+00,   -4.000000e+01
    8742,    2.400000e+01,    3.333333e+00,   -4.000000e+01
    8743,    2.800000e+01,    3.333333e+00,   -4.000000e+01
    8744,    3.200000e+01,    3.333333e+00,   -4.000000e+01
    8745,    3.600000e+01,    3.333333e+00,   -4.000000e+01
    8746,    4.000000e+01,    0.000000e+00,   -4.000000e+00
    8747,    4.000000e+01,    0.000000e+00,   -8.000000e+00
    8748,    4.000000e+01,    0.000000e+00,   -1.200000e+01
    8749,    4.000000e+01,    0.000000e+00,   -1.600000e+01
    8750,    4.000000e+01,    0.000000e+00,   -2.000000e+01
    8751,    4.000000e+01,    0.000000e+00,   -2.400000e+01
    8752,    4.000000e+01,    0.000000e+00,   -2.800000e+01
    8753,    4.000000e+01,    0.000000e+00,   -3.200000e+01
    8754,    4.000000e+01,    0.000000e+00,   -3.600000e+01
    8755,    4.000000e+01,    3.333333e+00,   -4.000000e+00
    8756,    4.000000e+01,    3.333333e+00,   -8.000000e+00
    8757,    4.000000e+01,    3.333333e+00,   -1.200000e+01
    8758,    4.000000e+01,    3.333333e+00,   -1.600000e+01
    8759,    4.000000e+01,    3.333333e+00,   -2.000000e+01
    8760,    4.000000e+01,    3.333333e+00,   -2.400000e+01
    8761,    4.000000e+01,    3.333333e+00,   -2.800000e+01
    8762,    4.000000e+01,    3.333333e+00,   -3.200000e+01
    8763,    4.000000e+01,    3.333333e+00,   -3.600000e+01
    8764,    1.035338e+01,    3.333333e+00,   -6.239661e+00
    8765,    1.543794e+01,    3.333333e+00,   -5.296863e+00
    8766,    1.979447e+01,    3.333333e+00,   -4.729876e+00
    8767,    2.393743e+01,    3.333333e+00,   -4.403914e+00
    8768,    2.799402e+01,    3.333333e+00,   -4.214100e+00
    8769,    3.201046e+01,    3.333333e+00,   -4.106555e+00
    8770,    3.600822e+01,    3.333333e+00,   -4.043703e+00
    8771,    3.603363e+01,    3.333333e+00,   -3.599565e+01
    8772,    3.206636e+01,    3.333333e+00,   -3.598076e+01
    8773,    2.809964e+01,    3.333333e+00,   -3.593847e+01
    8774,    2.412620e+01,    3.333333e+00,   -3.584023e+01
    8775,    2.014125e+01,    3.333333e+00,   -3.567464e+01
    8776,    1.614008e+01,    3.333333e+00,   -3.550916e+01
    8777,    1.210931e+01,    3.333333e+00,   -3.549320e+01
    8778,    8.067386e+00,    3.333333e+00,   -3.557565e+01
    8779,    4.018314e+00,    3.333333e+00,   -3.569426e+01
    8780,   -2.185552e-02,    3.333333e+00,   -3.581454e+01
    8781,   -4.049930e+00,    3.333333e+00,   -3.591278e+01
    8782,   -8.066805e+00,    3.333333e+00,   -3.598319e+01
    8783,   -1.207464e+01,    3.333333e+00,   -3.602514e+01
    8784,   -1.607607e+01,    3.333333e+00,   -3.603932e+01
    8785,   -2.007116e+01,    3.333333e+00,   -3.603858e+01
    8786,   -2.406112e+01,    3.333333e+00,   -3.603122e+01
    8787,   -2.804734e+01,    3.333333e+00,   -3.602356e+01
    8788,   -3.203121e+01,    3.333333e+00,   -3.601527e+01
    8789,   -3.601473e+01,    3.333333e+00,   -3.600728e+01
    8790,   -3.602582e+01,    3.333333e+00,   -4.010657e+00
    8791,   -3.204930e+01,    3.333333e+00,   -4.024200e+00
    8792,   -2.806748e+01,    3.333333e+00,   -4.042642e+00
    8793,   -2.406696e+01,    3.333333e+00,   -4.073720e+00
    8794,   -2.003270e+01,    3.333333e+00,   -4.147645e+00
    8795,   -1.591408e+01,    3.333333e+00,   -4.346095e+00
    8796,   -1.102871e+01,    3.333333e+00,   -5.208622e+00
    8797,    3.602988e+01,    3.333333e+00,   -8.076038e+00
    8798,    3.607704e+01,    3.333333e+00,   -1.209229e+01
    8799,    3.613444e+01,    3.333333e+00,   -1.608596e+01
    8800,    3.617567e+01,    3.333333e+00,   -2.005981e+01
    8801,    3.615918e+01,    3.333333e+00,   -2.402974e+01
    8802,    3.611786e+01,    3.333333e+00,   -2.800854e+01
    8803,    3.607315e+01,    3.333333e+00,   -3.199625e+01
    8804,   -3.603153e+01,    3.333333e+00,   -3.201490e+01
    8805,   -3.605004e+01,    3.333333e+00,   -2.802104e+01
    8806,   -3.606525e+01,    3.333333e+00,   -2.402789e+01
    8807,   -3.607824e+01,    3.333333e+00,   -2.003086e+01
    8808,   -3.608145e+01,    3.333333e+00,   -1.602970e+01
    8809,   -3.607165e+01,    3.333333e+00,   -1.202596e+01
    8810,   -3.605270e+01,    3.333333e+00,   -8.019129e+00
    8811,   -7.676420e+00,    3.333333e+00,   -8.483598e+00
    8812,   -2.585946e+00,    3.333333e+00,   -1.130823e+01
    8813,   -6.292756e+00,    3.333333e+00,   -1.204892e+01
    8814,    1.359922e+00,    3.333333e+00,   -1.094810e+01
    8815,    5.527334e+00,    3.333333e+00,   -9.659845e+00
    8816,   -3.210361e+01,    3.333333e+00,   -8.042339e+00
    8817,   -2.815510e+01,    3.333333e+00,   -8.071414e+00
    8818,   -2.421217e+01,    3.333333e+00,   -8.119311e+00
    8819,   -2.029000e+01,    3.333333e+00,   -8.213446e+00
    8820,   -1.639400e+01,    3.333333e+00,   -8.526873e+00
    8821,   -1.270903e+01,    3.333333e+00,   -9.124861e+00
    8822,   -1.001863e+01,    3.333333e+00,   -1.010961e+01
    8823,   -9.622448e+00,    3.333333e+00,   -1.280972e+01
    8824,   -5.396329e+00,    3.333333e+00,   -1.578446e+01
    8825,   -9.151827e+00,    3.333333e+00,   -1.628220e+01
    8826,   -1.447074e+00,    3.333333e+00,   -1.514390e+01
    8827,    2.476808e+00,    3.333333e+00,   -1.449494e+01
    8828,    6.692977e+00,    3.333333e+00,   -1.336327e+01
    8829,    1.116349e+01,    3.333333e+00,   -1.165195e+01
    8830,    1.565638e+01,    3.333333e+00,   -1.038855e+01
    8831,    1.991511e+01,    3.333333e+00,   -9.379810e+00
    8832,    2.403449e+01,    3.333333e+00,   -8.746451e+00
    8833,    2.807243e+01,    3.333333e+00,   -8.389235e+00
    8834,    3.206505e+01,    3.333333e+00,   -8.195069e+00
    8835,   -3.206475e+01,    3.333333e+00,   -3.203047e+01
    8836,   -3.209886e+01,    3.333333e+00,   -2.804457e+01
    8837,   -3.213310e+01,    3.333333e+00,   -2.405446e+01
    8838,   -3.215742e+01,    3.333333e+00,   -2.005855e+01
    8839,   -3.216365e+01,    3.333333e+00,   -1.605701e+01
    8840,   -3.214263e+01,    3.333333e+00,   -1.205265e+01
    8841,    3.216217e+01,    3.333333e+00,   -1.222571e+01
    8842,    3.229260e+01,    3.333333e+00,   -1.620179e+01
    8843,    3.238709e+01,    3.333333e+00,   -2.013122e+01
    8844,    3.233972e+01,    3.333333e+00,   -2.405016e+01
    8845,    3.224253e+01,    3.333333e+00,   -2.799413e+01
    8846,    3.214827e+01,    3.333333e+00,   -3.197185e+01
    8847,    2.822197e+01,    3.333333e+00,   -3.189704e+01
    8848,    2.428602e+01,    3.333333e+00,   -3.170823e+01
    8849,    2.033196e+01,    3.333333e+00,   -3.134567e+01
    8850,    1.633846e+01,    3.333333e+00,   -3.104956e+01
    8851,    1.224031e+01,    3.333333e+00,   -3.094010e+01
    8852,    8.123892e+00,    3.333333e+00,   -3.112419e+01
    8853,    4.018007e+00,    3.333333e+00,   -3.138206e+01
    8854,   -6.542876e-02,    3.333333e+00,   -3.162889e+01
    8855,   -4.124216e+00,    3.333333e+00,   -3.183011e+01
    8856,   -8.155029e+00,    3.333333e+00,   -3.197181e+01
    8857,   -1.216891e+01,    3.333333e+00,   -3.205153e+01
    8858,   -1.616803e+01,    3.333333e+00,   -3.207971e+01
    8859,   -2.015168e+01,    3.333333e+00,   -3.207489e+01
    8860,   -2.412672e+01,    3.333333e+00,   -3.206050e+01
    8861,   -2.809696e+01,    3.333333e+00,   -3.204531e+01
    8862,   -2.822439e+01,    3.333333e+00,   -1.208660e+01
    8863,   -2.432462e+01,    3.333333e+00,   -1.213923e+01
    8864,   -2.045791e+01,    3.333333e+00,   -1.222285e+01
    8865,   -1.666024e+01,    3.333333e+00,   -1.238090e+01
    8866,   -1.297778e+01,    3.333333e+00,   -1.267569e+01
    8867,   -1.287965e+01,    3.333333e+00,   -1.636961e+01
    8868,   -8.769277e+00,    3.333333e+00,   -2.006644e+01
    8869,   -1.266446e+01,    3.333333e+00,   -2.022277e+01
    8870,   -4.834281e+00,    3.333333e+00,   -1.968643e+01
    8871,   -7.972943e-01,    3.333333e+00,   -1.915056e+01
    8872,    3.342716e+00,    3.333333e+00,   -1.846399e+01
    8873,    7.486011e+00,    3.333333e+00,   -1.760938e+01
    8874,    1.186113e+01,    3.333333e+00,   -1.650747e+01
    8875,    1.625990e+01,    3.333333e+00,   -1.527754e+01
    8876,    2.040732e+01,    3.333333e+00,   -1.381863e+01
    8877,    2.431061e+01,    3.333333e+00,   -1.293101e+01
    8878,    2.825242e+01,    3.333333e+00,   -1.248018e+01
    8879,   -2.815075e+01,    3.333333e+00,   -2.806490e+01
    8880,   -2.820490e+01,    3.333333e+00,   -2.408056e+01
    8881,   -2.824369e+01,    3.333333e+00,   -2.008837e+01
    8882,   -2.825184e+01,    3.333333e+00,   -1.609231e+01
    8883,    2.848942e+01,    3.333333e+00,   -1.641873e+01
    8884,    2.868685e+01,    3.333333e+00,   -2.022711e+01
    8885,    2.855625e+01,    3.333333e+00,   -2.401984e+01
    8886,    2.837726e+01,    3.333333e+00,   -2.790630e+01
    8887,    2.451634e+01,    3.333333e+00,   -2.765203e+01
    8888,    2.069141e+01,    3.333333e+00,   -2.713403e+01
    8889,    1.667189e+01,    3.333333e+00,   -2.635339e+01
    8890,    1.238312e+01,    3.333333e+00,   -2.636243e+01
    8891,    8.154765e+00,    3.333333e+00,   -2.664113e+01
    8892,    3.967979e+00,    3.333333e+00,   -2.706137e+01
    8893,   -1.673856e-01,    3.333333e+00,   -2.744351e+01
    8894,   -4.249289e+00,    3.333333e+00,   -2.775387e+01
    8895,   -8.287866e+00,    3.333333e+00,   -2.796880e+01
    8896,   -1.229746e+01,    3.333333e+00,   -2.808248e+01
    8897,   -1.628430e+01,    3.333333e+00,   -2.811640e+01
    8898,   -2.025078e+01,    3.333333e+00,   -2.810617e+01
    8899,   -2.420374e+01,    3.333333e+00,   -2.808623e+01
    8900,   -1.666216e+01,    3.333333e+00,   -1.629514e+01
    8901,   -1.655734e+01,    3.333333e+00,   -2.022217e+01
    8902,   -1.246127e+01,    3.333333e+00,   -2.412491e+01
    8903,   -1.641626e+01,    3.333333e+00,   -2.416168e+01
    8904,   -8.489061e+00,    3.333333e+00,   -2.397315e+01
    8905,   -4.478439e+00,    3.333333e+00,   -2.367560e+01
    8906,   -3.990548e-01,    3.333333e+00,   -2.325239e+01
    8907,    3.758583e+00,    3.333333e+00,   -2.270783e+01
    8908,    7.994831e+00,    3.333333e+00,   -2.208453e+01
    8909,    1.249406e+01,    3.333333e+00,   -2.140399e+01
    8910,    1.749845e+01,    3.333333e+00,   -2.077788e+01
    8911,    2.122412e+01,    3.333333e+00,   -1.781483e+01
    8912,    2.479457e+01,    3.333333e+00,   -1.689246e+01
    8913,   -2.436292e+01,    3.333333e+00,   -1.613900e+01
    8914,   -2.048923e+01,    3.333333e+00,   -1.621063e+01
    8915,    2.528646e+01,    3.333333e+00,   -2.034120e+01
    8916,    2.490981e+01,    3.333333e+00,   -2.378897e+01
    8917,   -2.428118e+01,    3.333333e+00,   -2.410971e+01
    8918,   -2.433997e+01,    3.333333e+00,   -2.013038e+01
    8919,    2.137323e+01,    3.333333e+00,   -2.315172e+01
    8920,    2.257048e+01,    3.333333e+00,   -2.043818e+01
    8921,   -2.035498e+01,    3.333333e+00,   -2.414043e+01
    8922,   -2.043622e+01,    3.333333e+00,   -2.017628e+01
    8923,    1.035338e+01,    0.000000e+00,   -6.239661e+00
    8924,    1.543794e+01,    0.000000e+00,   -5.296863e+00
    8925,    1.979447e+01,    0.000000e+00,   -4.729876e+00
    8926,    2.393743e+01,    0.000000e+00,   -4.403914e+00
    8927,    2.799402e+01,    0.000000e+00,   -4.214100e+00
    8928,    3.201046e+01,    0.000000e+00,   -4.106555e+00
    8929,    3.600822e+01,    0.000000e+00,   -4.043703e+00
    8930,    3.603363e+01,    0.000000e+00,   -3.599565e+01
    8931,    3.206636e+01,    0.000000e+00,   -3.598076e+01
    8932,    2.809964e+01,    0.000000e+00,   -3.593847e+01
    8933,    2.412620e+01,    0.000000e+00,   -3.584023e+01
    8934,    2.014125e+01,    0.000000e+00,   -3.567464e+01
    8935,    1.614008e+01,    0.000000e+00,   -3.550916e+01
    8936,    1.210931e+01,    0.000000e+00,   -3.549320e+01
    8937,    8.067386e+00,    0.000000e+00,   -3.557565e+01
    8938,    4.018314e+00,    0.000000e+00,   -3.569426e+01
    8939,   -2.185552e-02,    0.000000e+00,   -3.581454e+01
    8940,   -4.049930e+00,    0.000000e+00,   -3.591278e+01
    8941,   -8.066805e+00,    0.000000e+00,   -3.598319e+01
    8942,   -1.207464e+01,    0.000000e+00,   -3.602514e+01
    8943,   -1.607607e+01,    0.000000e+00,   -3.603932e+01
    8944,   -2.007116e+01,    0.000000e+00,   -3.603858e+01
    8945,   -2.406112e+01,    0.000000e+00,   -3.603122e+01
    8946,   -2.804734e+01,    0.000000e+00,   -3.602356e+01
    8947,   -3.203121e+01,    0.000000e+00,   -3.601527e+01
    8948,   -3.601473e+01,    0.000000e+00,   -3.600728e+01
    8949,   -3.602582e+01,    0.000000e+00,   -4.010657e+00
    8950,   -3.204930e+01,    0.000000e+00,   -4.024200e+00
    8951,   -2.806748e+01,    0.000000e+00,   -4.042642e+00
    8952,   -2.406696e+01,    0.000000e+00,   -4.073720e+00
    8953,   -2.003270e+01,    0.000000e+00,   -4.147645e+00
    8954,   -1.591408e+01,    0.000000e+00,   -4.346095e+00
    8955,   -1.102871e+01,    0.000000e+00,   -5.208622e+00
    8956,    3.602988e+01,    0.000000e+00,   -8.076038e+00
    8957,    3.607704e+01,    0.000000e+00,   -1.209229e+01
    8958,    3.613444e+01,    0.000000e+00,   -1.608596e+01
    8959,    3.617567e+01,    0.000000e+00,   -2.005981e+01
    8960,    3.615918e+01,    0.000000e+00,   -2.402974e+01
    8961,    3.611786e+01,    0.000000e+00,   -2.800854e+01
    8962,    3.607315e+01,    0.000000e+00,   -3.199625e+01
    8963,   -3.603153e+01,    0.000000e+00,   -3.201490e+01
    8964,   -3.605004e+01,    0.000000e+00,   -2.802104e+01
    8965,   -3.606525e+01,    0.000000e+00,   -2.402789e+01
    8966,   -3.607824e+01,    0.000000e+00,   -2.003086e+01
    8967,   -3.608145e+01,    0.000000e+00,   -1.602970e+01
    8968,   -3.607165e+01,    0.000000e+00,   -1.202596e+01
    8969,   -3.605270e+01,    0.000000e+00,   -8.019129e+00
    8970,   -7.676420e+00,    0.000000e+00,   -8.483598e+00
    8971,   -2.585946e+00,    0.000000e+00,   -1.130823e+01
    8972,   -6.292756e+00,    0.000000e+00,   -1.204892e+01
    8973,    1.359922e+00,    0.000000e+00,   -1.094810e+01
    8974,    5.527334e+00,    0.000000e+00,   -9.659845e+00
    8975,   -3.210361e+01,    0.000000e+00,   -8.042339e+00
    8976,   -2.815510e+01,    0.000000e+00,   -8.071414e+00
    8977,   -2.421217e+01,    0.000000e+00,   -8.119311e+00
    8978,   -2.029000e+01,    0.000000e+00,   -8.213446e+00
    8979,   -1.639400e+01,    0.000000e+00,   -8.526873e+00
    8980,   -1.270903e+01,    0.000000e+00,   -9.124861e+00
    8981,   -1.001863e+01,    0.000000e+00,   -1.010961e+01
    8982,   -9.622448e+00,    0.000000e+00,   -1.280972e+01
    8983,   -5.396329e+00,    0.000000e+00,   -1.578446e+01
    8984,   -9.151827e+00,    0.000000e+00,   -1.628220e+01
    8985,   -1.447074e+00,    0.000000e+00,   -1.514390e+01
    8986,    2.476808e+00,    0.000000e+00,   -1.449494e+01
    8987,    6.692977e+00,    0.000000e+00,   -1.336327e+01
    8988,    1.116349e+01,    0.000000e+00,   -1.165195e+01
    8989,    1.565638e+01,    0.000000e+00,   -1.038855e+01
    8990,    1.991511e+01,    0.000000e+00,   -9.379810e+00
    8991,    2.403449e+01,    0.000000e+00,   -8.746451e+00
    8992,    2.807243e+01,    0.000000e+00,   -8.389235e+00
    8993,    3.206505e+01,    0.000000e+00,   -8.195069e+00
    8994,   -3.206475e+01,    0.000000e+00,   -3.203047e+01
    8995,   -3.209886e+01,    0.000000e+00,   -2.804457e+01
    8996,   -3.213310e+01,    0.000000e+00,   -2.405446e+01
    8997,   -3.215742e+01,    0.000000e+00,   -2.005855e+01
    8998,   -3.216365e+01,    0.000000e+00,   -1.605701e+01
    8999,   -3.214263e+01,    0.000000e+00,   -1.205265e+01
    9000,    3.216217e+01,    0.000000e+00,   -1.222571e+01
    9001,    3.229260e+01,    0.000000e+00,   -1.620179e+01
    9002,    3.238709e+01,    0.000000e+00,   -2.013122e+01
    9003,    3.233972e+01,    0.000000e+00,   -2.405016e+01
    9004,    3.224253e+01,    0.000000e+00,   -2.799413e+01
    9005,    3.214827e+01,    0.000000e+00,   -3.197185e+01
    9006,    2.822197e+01,    0.000000e+00,   -3.189704e+01
    9007,    2.428602e+01,    0.000000e+00,   -3.170823e+01
    9008,    2.033196e+01,    0.000000e+00,   -3.134567e+01
    9009,    1.633846e+01,    0.000000e+00,   -3.104956e+01
    9010,    1.224031e+01,    0.000000e+00,   -3.094010e+01
    9011,    8.123892e+00,    0.000000e+00,   -3.112419e+01
    9012,    4.018007e+00,    0.000000e+00,   -3.138206e+01
    9013,   -6.542876e-02,    0.000000e+00,   -3.162889e+01
    9014,   -4.124216e+00,    0.000000e+00,   -3.183011e+01
    9015,   -8.155029e+00,    0.000000e+00,   -3.197181e+01
    9016,   -1.216891e+01,    0.000000e+00,   -3.205153e+01
    9017,   -1.616803e+01,    0.000000e+00,   -3.207971e+01
    9018,   -2.015168e+01,    0.000000e+00,   -3.207489e+01
    9019,   -2.412672e+01,    0.000000e+00,   -3.206050e+01
    9020,   -2.809696e+01,    0.000000e+00,   -3.204531e+01
    9021,   -2.822439e+01,    0.000000e+00,   -1.208660e+01
    9022,   -2.432462e+01,    0.000000e+00,   -1.213923e+01
    9023,   -2.045791e+01,    0.000000e+00,   -1.222285e+01
    9024,   -1.666024e+01,    0.000000e+00,   -1.238090e+01
    9025,   -1.297778e+01,    0.000000e+00,   -1.267569e+01
    9026,   -1.287965e+01,    0.000000e+00,   -1.636961e+01
    9027,   -8.769277e+00,    0.000000e+00,   -2.006644e+01
    9028,   -1.266446e+01,    0.000000e+00,   -2.022277e+01
    9029,   -4.834281e+00,    0.000000e+00,   -1.968643e+01
    9030,   -7.972943e-01,    0.000000e+00,   -1.915056e+01
    9031,    3.342716e+00,    0.000000e+00,   -1.846399e+01
    9032,    7.486011e+00,    0.000000e+00,   -1.760938e+01
    9033,    1.186113e+01,    0.000000e+00,   -1.650747e+01
    9034,    1.625990e+01,    0.000000e+00,   -1.527754e+01
    9035,    2.040732e+01,    0.000000e+00,   -1.381863e+01
    9036,    2.431061e+01,    0.000000e+00,   -1.293101e+01
    9037,    2.825242e+01,    0.000000e+00,   -1.248018e+01
    9038,   -2.815075e+01,    0.000000e+00,   -2.806490e+01
    9039,   -2.820490e+01,    0.000000e+00,   -2.408056e+01
    9040,   -2.824369e+01,    0.000000e+00,   -2.008837e+01
    9041,   -2.825184e+01,    0.000000e+00,   -1.609231e+01
    9042,    2.848942e+01,    0.000000e+00,   -1.641873e+01
    9043,    2.868685e+01,    0.000000e+00,   -2.022711e+01
    9044,    2.855625e+01,    0.000000e+00,   -2.401984e+01
    9045,    2.837726e+01,    0.000000e+00,   -2.790630e+01
    9046,    2.451634e+01,    0.000000e+00,   -2.765203e+01
    9047,    2.069141e+01,    0.000000e+00,   -2.713403e+01
    9048,    1.667189e+01,    0.000000e+00,   -2.635339e+01
    9049,    1.238312e+01,    0.000000e+00,   -2.636243e+01
    9050,    8.154765e+00,    0.000000e+00,   -2.664113e+01
    9051,    3.967979e+00,    0.000000e+00,   -2.706137e+01
    9052,   -1.673856e-01,    0.000000e+00,   -2.744351e+01
    9053,   -4.249289e+00,    0.000000e+00,   -2.775387e+01
    9054,   -8.287866e+00,    0.000000e+00,   -2.796880e+01
    9055,   -1.229746e+01,    0.000000e+00,   -2.808248e+01
    9056,   -1.628430e+01,    0.000000e+00,   -2.811640e+01
    9057,   -2.025078e+01,    0.000000e+00,   -2.810617e+01
    9058,   -2.420374e+01,    0.000000e+00,   -2.808623e+01
    9059,   -1.666216e+01,    0.000000e+00,   -1.629514e+01
    9060,   -1.655734e+01,    0.000000e+00,   -2.022217e+01
    9061,   -1.246127e+01,    0.000000e+00,   -2.412491e+01
    9062,   -1.641626e+01,    0.000000e+00,   -2.416168e+01
    9063,   -8.489061e+00,    0.000000e+00,   -2.397315e+01
    9064,   -4.478439e+00,    0.000000e+00,   -2.367560e+01
    9065,   -3.990548e-01,    0.000000e+00,   -2.325239e+01
    9066,    3.758583e+00,    0.000000e+00,   -2.270783e+01
    9067,    7.994831e+00,    0.000000e+00,   -2.208453e+01
    9068,    1.249406e+01,    0.000000e+00,   -2.140399e+01
    9069,    1.749845e+01,    0.000000e+00,   -2.077788e+01
    9070,    2.122412e+01,    0.000000e+00,   -1.781483e+01
    9071,    2.479457e+01,    0.000000e+00,   -1.689246e+01
    9072,   -2.436292e+01,    0.000000e+00,   -1.613900e+01
    9073,   -2.048923e+01,    0.000000e+00,   -1.621063e+01
    9074,    2.528646e+01,    0.000000e+00,   -2.034120e+01
    9075,    2.490981e+01,    0.000000e+00,   -2.378897e+01
    9076,   -2.428118e+01,    0.000000e+00,   -2.410971e+01
    9077,   -2.433997e+01,    0.000000e+00,   -2.013038e+01
    9078,    2.137323e+01,    0.000000e+00,   -2.315172e+01
    9079,    2.257048e+01,    0.000000e+00,   -2.043818e+01
    9080,   -2.035498e+01,    0.000000e+00,   -2.414043e+01
    9081,   -2.043622e+01,    0.000000e+00,   -2.017628e+01
   10842,   -9.000000e+00,    1.874700e-31,    0.000000e+00
   10843,   -9.000000e+00,   -1.000000e+02,    0.000000e+00
   10844,   -9.000000e+00,   -4.000000e+00,   -2.816688e-15
   10845,   -9.000000e+00,   -8.000000e+00,   -2.571758e-15
   10846,   -9.000000e+00,   -1.200000e+01,   -2.326829e-15
   10847,   -9.000000e+00,   -1.600000e+01,   -2.081900e-15
   10848,   -9.000000e+00,   -2.000000e+01,   -1.836970e-15
   10849,   -9.000000e+00,   -2.400000e+01,   -1.592041e-15
   10850,   -9.000000e+00,   -2.800000e+01,   -1.347111e-15
   10851,   -9.000000e+00,   -3.200000e+01,   -1.102182e-15
   10852,   -9.000000e+00,   -3.600000e+01,   -8.572528e-16
   10853,   -9.000000e+00,   -4.000000e+01,   -6.123234e-16
   10854,   -9.000000e+00,   -4.400000e+01,   -3.673940e-16
   10855,   -9.000000e+00,   -4.800000e+01,   -1.224647e-16
   10856,   -9.000000e+00,   -5.200000e+01,    1.224647e-16
   10857,   -9.000000e+00,   -5.600000e+01,    3.673940e-16
   10858,   -9.000000e+00,   -6.000000e+01,    6.123234e-16
   10859,   -9.000000e+00,   -6.400000e+01,    8.572528e-16
   10860,   -9.000000e+00,   -6.800000e+01,    1.102182e-15
   10861,   -9.000000e+00,   -7.200000e+01,    1.347111e-15
   10862,   -9.000000e+00,   -7.600000e+01,    1.592041e-15
   10863,   -9.000000e+00,   -8.000000e+01,    1.836970e-15
   10864,   -9.000000e+00,   -8.400000e+01,    2.081900e-15
   10865,   -9.000000e+00,   -8.800000e+01,    2.326829e-15
   10866,   -9.000000e+00,   -9.200000e+01,    2.571758e-15
   10867,   -9.000000e+00,   -9.600000e+01,    2.816688e-15
   10868,   -8.000000e+00,   -1.000000e+02,    0.000000e+00
   10869,   -8.000000e+00,    1.874700e-31,    0.000000e+00
   10870,   -8.000000e+00,   -9.600000e+01,    2.816688e-15
   10871,   -8.000000e+00,   -9.200000e+01,    2.571758e-15
   10872,   -8.000000e+00,   -8.800000e+01,    2.326829e-15
   10873,   -8.000000e+00,   -8.400000e+01,    2.081900e-15
   10874,   -8.000000e+00,   -8.000000e+01,    1.836970e-15
   10875,   -8.000000e+00,   -7.600000e+01,    1.592041e-15
   10876,   -8.000000e+00,   -7.200000e+01,    1.347111e-15
   10877,   -8.000000e+00,   -6.800000e+01,    1.102182e-15
   10878,   -8.000000e+00,   -6.400000e+01,    8.572528e-16
   10879,   -8.000000e+00,   -6.000000e+01,    6.123234e-16
   10880,   -8.000000e+00,   -5.600000e+01,    3.673940e-16
   10881,   -8.000000e+00,   -5.200000e+01,    1.224647e-16
   10882,   -8.000000e+00,   -4.800000e+01,   -1.224647e-16
   10883,   -8.000000e+00,   -4.400000e+01,   -3.673940e-16
   10884,   -8.000000e+00,   -4.000000e+01,   -6.123234e-16
   10885,   -8.000000e+00,   -3.600000e+01,   -8.572528e-16
   10886,   -8.000000e+00,   -3.200000e+01,   -1.102182e-15
   10887,   -8.000000e+00,   -2.800000e+01,   -1.347111e-15
   10888,   -8.000000e+00,   -2.400000e+01,   -1.592041e-15
   10889,   -8.000000e+00,   -2.000000e+01,   -1.836970e-15
   10890,   -8.000000e+00,   -1.600000e+01,   -2.081900e-15
   10891,   -8.000000e+00,   -1.200000e+01,   -2.326829e-15
   10892,   -8.000000e+00,   -8.000000e+00,   -2.571758e-15
   10893,   -8.000000e+00,   -4.000000e+00,   -2.816688e-15
   10894,    9.000000e+00,   -1.000000e+02,    3.061617e-15
   10895,    9.000000e+00,    0.000000e+00,   -3.061617e-15
   10896,    9.000000e+00,   -9.600000e+01,    2.816688e-15
   10897,    9.000000e+00,   -9.200000e+01,    2.571758e-15
   10898,    9.000000e+00,   -8.800000e+01,    2.326829e-15
   10899,    9.000000e+00,   -8.400000e+01,    2.081900e-15
   10900,    9.000000e+00,   -8.000000e+01,    1.836970e-15
   10901,    9.000000e+00,   -7.600000e+01,    1.592041e-15
   10902,    9.000000e+00,   -7.200000e+01,    1.347111e-15
   10903,    9.000000e+00,   -6.800000e+01,    1.102182e-15
   10904,    9.000000e+00,   -6.400000e+01,    8.572528e-16
   10905,    9.000000e+00,   -6.000000e+01,    6.123234e-16
   10906,    9.000000e+00,   -5.600000e+01,    3.673940e-16
   10907,    9.000000e+00,   -5.200000e+01,    1.224647e-16
   10908,    9.000000e+00,   -4.800000e+01,   -1.224647e-16
   10909,    9.000000e+00,   -4.400000e+01,   -3.673940e-16
   10910,    9.000000e+00,   -4.000000e+01,   -6.123234e-16
   10911,    9.000000e+00,   -3.600000e+01,   -8.572528e-16
   10912,    9.000000e+00,   -3.200000e+01,   -1.102182e-15
   10913,    9.000000e+00,   -2.800000e+01,   -1.347111e-15
   10914,    9.000000e+00,   -2.400000e+01,   -1.592041e-15
   10915,    9.000000e+00,   -2.000000e+01,   -1.836970e-15
   10916,    9.000000e+00,   -1.600000e+01,   -2.081900e-15
   10917,    9.000000e+00,   -1.200000e+01,   -2.326829e-15
   10918,    9.000000e+00,   -8.000000e+00,   -2.571758e-15
   10919,    9.000000e+00,   -4.000000e+00,   -2.816688e-15
   10920,    8.000000e+00,    0.000000e+00,   -3.061617e-15
   10921,    8.000000e+00,   -1.000000e+02,    3.061617e-15
   10922,    8.000000e+00,   -4.000000e+00,   -2.816688e-15
   10923,    8.000000e+00,   -8.000000e+00,   -2.571758e-15
   10924,    8.000000e+00,   -1.200000e+01,   -2.326829e-15
   10925,    8.000000e+00,   -1.600000e+01,   -2.081900e-15
   10926,    8.000000e+00,   -2.000000e+01,   -1.836970e-15
   10927,    8.000000e+00,   -2.400000e+01,   -1.592041e-15
   10928,    8.000000e+00,   -2.800000e+01,   -1.347111e-15
   10929,    8.000000e+00,   -3.200000e+01,   -1.102182e-15
   10930,    8.000000e+00,   -3.600000e+01,   -8.572528e-16
   10931,    8.000000e+00,   -4.000000e+01,   -6.123234e-16
   10932,    8.000000e+00,   -4.400000e+01,   -3.673940e-16
   10933,    8.000000e+00,   -4.800000e+01,   -1.224647e-16
   10934,    8.000000e+00,   -5.200000e+01,    1.224647e-16
   10935,    8.000000e+00,   -5.600000e+01,    3.673940e-16
   10936,    8.000000e+00,   -6.000000e+01,    6.123234e-16
   10937,    8.000000e+00,   -6.400000e+01,    8.572528e-16
   10938,    8.000000e+00,   -6.800000e+01,    1.102182e-15
   10939,    8.000000e+00,   -7.200000e+01,    1.347111e-15
   10940,    8.000000e+00,   -7.600000e+01,    1.592041e-15
   10941,    8.000000e+00,   -8.000000e+01,    1.836970e-15
   10942,    8.000000e+00,   -8.400000e+01,    2.081900e-15
   10943,    8.000000e+00,   -8.800000e+01,    2.326829e-15
   10944,    8.000000e+00,   -9.200000e+01,    2.571758e-15
   10945,    8.000000e+00,   -9.600000e+01,    2.816688e-15
   10946,    8.108720e+00,   -2.391094e-16,   -3.904954e+00
   10947,    5.611408e+00,   -4.308603e-16,   -7.036483e+00
   10948,    2.002688e+00,   -5.372741e-16,   -8.774351e+00
   10949,   -2.002688e+00,   -5.372741e-16,   -8.774351e+00
   10950,   -5.611408e+00,   -4.308603e-16,   -7.036483e+00
   10951,   -8.108720e+00,   -2.391094e-16,   -3.904954e+00
   10952,   -7.207751e+00,   -2.125417e-16,   -3.471070e+00
   10953,   -4.987918e+00,   -3.829870e-16,   -6.254652e+00
   10954,   -1.780167e+00,   -4.775769e-16,   -7.799423e+00
   10955,    1.780167e+00,   -4.775769e-16,   -7.799423e+00
   10956,    4.987918e+00,   -3.829870e-16,   -6.254652e+00
   10957,    7.207751e+00,   -2.125417e-16,   -3.471070e+00
   10958,   -8.108720e+00,   -1.000000e+02,   -3.904954e+00
   10959,   -5.611408e+00,   -1.000000e+02,   -7.036483e+00
   10960,   -2.002688e+00,   -1.000000e+02,   -8.774351e+00
   10961,    2.002688e+00,   -1.000000e+02,   -8.774351e+00
   10962,    5.611408e+00,   -1.000000e+02,   -7.036483e+00
   10963,    8.108720e+00,   -1.000000e+02,   -3.904954e+00
   10964,    8.108720e+00,   -4.000000e+00,   -3.904954e+00
   10965,    8.108720e+00,   -8.000000e+00,   -3.904954e+00
   10966,    8.108720e+00,   -1.200000e+01,   -3.904954e+00
   10967,    8.108720e+00,   -1.600000e+01,   -3.904954e+00
   10968,    8.108720e+00,   -2.000000e+01,   -3.904954e+00
   10969,    8.108720e+00,   -2.400000e+01,   -3.904954e+00
   10970,    8.108720e+00,   -2.800000e+01,   -3.904954e+00
   10971,    8.108720e+00,   -3.200000e+01,   -3.904954e+00
   10972,    8.108720e+00,   -3.600000e+01,   -3.904954e+00
   10973,    8.108720e+00,   -4.000000e+01,   -3.904954e+00
   10974,    8.108720e+00,   -4.400000e+01,   -3.904954e+00
   10975,    8.108720e+00,   -4.800000e+01,   -3.904954e+00
   10976,    8.108720e+00,   -5.200000e+01,   -3.904954e+00
   10977,    8.108720e+00,   -5.600000e+01,   -3.904954e+00
   10978,    8.108720e+00,   -6.000000e+01,   -3.904954e+00
   10979,    8.108720e+00,   -6.400000e+01,   -3.904954e+00
   10980,    8.108720e+00,   -6.800000e+01,   -3.904954e+00
   10981,    8.108720e+00,   -7.200000e+01,   -3.904954e+00
   10982,    8.108720e+00,   -7.600000e+01,   -3.904954e+00
   10983,    8.108720e+00,   -8.000000e+01,   -3.904954e+00
   10984,    8.108720e+00,   -8.400000e+01,   -3.904954e+00
   10985,    8.108720e+00,   -8.800000e+01,   -3.904954e+00
   10986,    8.108720e+00,   -9.200000e+01,   -3.904954e+00
   10987,    8.108720e+00,   -9.600000e+01,   -3.904954e+00
   10988,    5.611408e+00,   -4.000000e+00,   -7.036483e+00
   10989,    5.611408e+00,   -8.000000e+00,   -7.036483e+00
   10990,    5.611408e+00,   -1.200000e+01,   -7.036483e+00
   10991,    5.611408e+00,   -1.600000e+01,   -7.036483e+00
   10992,    5.611408e+00,   -2.000000e+01,   -7.036483e+00
   10993,    5.611408e+00,   -2.400000e+01,   -7.036483e+00
   10994,    5.611408e+00,   -2.800000e+01,   -7.036483e+00
   10995,    5.611408e+00,   -3.200000e+01,   -7.036483e+00
   10996,    5.611408e+00,   -3.600000e+01,   -7.036483e+00
   10997,    5.611408e+00,   -4.000000e+01,   -7.036483e+00
   10998,    5.611408e+00,   -4.400000e+01,   -7.036483e+00
   10999,    5.611408e+00,   -4.800000e+01,   -7.036483e+00
   11000,    5.611408e+00,   -5.200000e+01,   -7.036483e+00
   11001,    5.611408e+00,   -5.600000e+01,   -7.036483e+00
   11002,    5.611408e+00,   -6.000000e+01,   -7.036483e+00
   11003,    5.611408e+00,   -6.400000e+01,   -7.036483e+00
   11004,    5.611408e+00,   -6.800000e+01,   -7.036483e+00
   11005,    5.611408e+00,   -7.200000e+01,   -7.036483e+00
   11006,    5.611408e+00,   -7.600000e+01,   -7.036483e+00
   11007,    5.611408e+00,   -8.000000e+01,   -7.036483e+00
   11008,    5.611408e+00,   -8.400000e+01,   -7.036483e+00
   11009,    5.611408e+00,   -8.800000e+01,   -7.036483e+00
   11010,    5.611408e+00,   -9.200000e+01,   -7.036483e+00
   11011,    5.611408e+00,   -9.600000e+01,   -7.036483e+00
   11012,    2.002688e+00,   -4.000000e+00,   -8.774351e+00
   11013,    2.002688e+00,   -8.000000e+00,   -8.774351e+00
   11014,    2.002688e+00,   -1.200000e+01,   -8.774351e+00
   11015,    2.002688e+00,   -1.600000e+01,   -8.774351e+00
   11016,    2.002688e+00,   -2.000000e+01,   -8.774351e+00
   11017,    2.002688e+00,   -2.400000e+01,   -8.774351e+00
   11018,    2.002688e+00,   -2.800000e+01,   -8.774351e+00
   11019,    2.002688e+00,   -3.200000e+01,   -8.774351e+00
   11020,    2.002688e+00,   -3.600000e+01,   -8.774351e+00
   11021,    2.002688e+00,   -4.000000e+01,   -8.774351e+00
   11022,    2.002688e+00,   -4.400000e+01,   -8.774351e+00
   11023,    2.002688e+00,   -4.800000e+01,   -8.774351e+00
   11024,    2.002688e+00,   -5.200000e+01,   -8.774351e+00
   11025,    2.002688e+00,   -5.600000e+01,   -8.774351e+00
   11026,    2.002688e+00,   -6.000000e+01,   -8.774351e+00
   11027,    2.002688e+00,   -6.400000e+01,   -8.774351e+00
   11028,    2.002688e+00,   -6.800000e+01,   -8.774351e+00
   11029,    2.002688e+00,   -7.200000e+01,   -8.774351e+00
   11030,    2.002688e+00,   -7.600000e+01,   -8.774351e+00
   11031,    2.002688e+00,   -8.000000e+01,   -8.774351e+00
   11032,    2.002688e+00,   -8.400000e+01,   -8.774351e+00
   11033,    2.002688e+00,   -8.800000e+01,   -8.774351e+00
   11034,    2.002688e+00,   -9.200000e+01,   -8.774351e+00
   11035,    2.002688e+00,   -9.600000e+01,   -8.774351e+00
   11036,   -2.002688e+00,   -4.000000e+00,   -8.774351e+00
   11037,   -2.002688e+00,   -8.000000e+00,   -8.774351e+00
   11038,   -2.002688e+00,   -1.200000e+01,   -8.774351e+00
   11039,   -2.002688e+00,   -1.600000e+01,   -8.774351e+00
   11040,   -2.002688e+00,   -2.000000e+01,   -8.774351e+00
   11041,   -2.002688e+00,   -2.400000e+01,   -8.774351e+00
   11042,   -2.002688e+00,   -2.800000e+01,   -8.774351e+00
   11043,   -2.002688e+00,   -3.200000e+01,   -8.774351e+00
   11044,   -2.002688e+00,   -3.600000e+01,   -8.774351e+00
   11045,   -2.002688e+00,   -4.000000e+01,   -8.774351e+00
   11046,   -2.002688e+00,   -4.400000e+01,   -8.774351e+00
   11047,   -2.002688e+00,   -4.800000e+01,   -8.774351e+00
   11048,   -2.002688e+00,   -5.200000e+01,   -8.774351e+00
   11049,   -2.002688e+00,   -5.600000e+01,   -8.774351e+00
   11050,   -2.002688e+00,   -6.000000e+01,   -8.774351e+00
   11051,   -2.002688e+00,   -6.400000e+01,   -8.774351e+00
   11052,   -2.002688e+00,   -6.800000e+01,   -8.774351e+00
   11053,   -2.002688e+00,   -7.200000e+01,   -8.774351e+00
   11054,   -2.002688e+00,   -7.600000e+01,   -8.774351e+00
   11055,   -2.002688e+00,   -8.000000e+01,   -8.774351e+00
   11056,   -2.002688e+00,   -8.400000e+01,   -8.774351e+00
   11057,   -2.002688e+00,   -8.800000e+01,   -8.774351e+00
   11058,   -2.002688e+00,   -9.200000e+01,   -8.774351e+00
   11059,   -2.002688e+00,   -9.600000e+01,   -8.774351e+00
   11060,   -5.611408e+00,   -4.000000e+00,   -7.036483e+00
   11061,   -5.611408e+00,   -8.000000e+00,   -7.036483e+00
   11062,   -5.611408e+00,   -1.200000e+01,   -7.036483e+00
   11063,   -5.611408e+00,   -1.600000e+01,   -7.036483e+00
   11064,   -5.611408e+00,   -2.000000e+01,   -7.036483e+00
   11065,   -5.611408e+00,   -2.400000e+01,   -7.036483e+00
   11066,   -5.611408e+00,   -2.800000e+01,   -7.036483e+00
   11067,   -5.611408e+00,   -3.200000e+01,   -7.036483e+00
   11068,   -5.611408e+00,   -3.600000e+01,   -7.036483e+00
   11069,   -5.611408e+00,   -4.000000e+01,   -7.036483e+00
   11070,   -5.611408e+00,   -4.400000e+01,   -7.036483e+00
   11071,   -5.611408e+00,   -4.800000e+01,   -7.036483e+00
   11072,   -5.611408e+00,   -5.200000e+01,   -7.036483e+00
   11073,   -5.611408e+00,   -5.600000e+01,   -7.036483e+00
   11074,   -5.611408e+00,   -6.000000e+01,   -7.036483e+00
   11075,   -5.611408e+00,   -6.400000e+01,   -7.036483e+00
   11076,   -5.611408e+00,   -6.800000e+01,   -7.036483e+00
   11077,   -5.611408e+00,   -7.200000e+01,   -7.036483e+00
   11078,   -5.611408e+00,   -7.600000e+01,   -7.036483e+00
   11079,   -5.611408e+00,   -8.000000e+01,   -7.036483e+00
   11080,   -5.611408e+00,   -8.400000e+01,   -7.036483e+00
   11081,   -5.611408e+00,   -8.800000e+01,   -7.036483e+00
   11082,   -5.611408e+00,   -9.200000e+01,   -7.036483e+00
   11083,   -5.611408e+00,   -9.600000e+01,   -7.036483e+00
   11084,   -8.108720e+00,   -4.000000e+00,   -3.904954e+00
   11085,   -8.108720e+00,   -8.000000e+00,   -3.904954e+00
   11086,   -8.108720e+00,   -1.200000e+01,   -3.904954e+00
   11087,   -8.108720e+00,   -1.600000e+01,   -3.904954e+00
   11088,   -8.108720e+00,   -2.000000e+01,   -3.904954e+00
   11089,   -8.108720e+00,   -2.400000e+01,   -3.904954e+00
   11090,   -8.108720e+00,   -2.800000e+01,   -3.904954e+00
   11091,   -8.108720e+00,   -3.200000e+01,   -3.904954e+00
   11092,   -8.108720e+00,   -3.600000e+01,   -3.904954e+00
   11093,   -8.108720e+00,   -4.000000e+01,   -3.904954e+00
   11094,   -8.108720e+00,   -4.400000e+01,   -3.904954e+00
   11095,   -8.108720e+00,   -4.800000e+01,   -3.904954e+00
   11096,   -8.108720e+00,   -5.200000e+01,   -3.904954e+00
   11097,   -8.108720e+00,   -5.600000e+01,   -3.904954e+00
   11098,   -8.108720e+00,   -6.000000e+01,   -3.904954e+00
   11099,   -8.108720e+00,   -6.400000e+01,   -3.904954e+00
   11100,   -8.108720e+00,   -6.800000e+01,   -3.904954e+00
   11101,   -8.108720e+00,   -7.200000e+01,   -3.904954e+00
   11102,   -8.108720e+00,   -7.600000e+01,   -3.904954e+00
   11103,   -8.108720e+00,   -8.000000e+01,   -3.904954e+00
   11104,   -8.108720e+00,   -8.400000e+01,   -3.904954e+00
   11105,   -8.108720e+00,   -8.800000e+01,   -3.904954e+00
   11106,   -8.108720e+00,   -9.200000e+01,   -3.904954e+00
   11107,   -8.108720e+00,   -9.600000e+01,   -3.904954e+00
   11108,    7.207751e+00,   -1.000000e+02,   -3.471070e+00
   11109,    4.987918e+00,   -1.000000e+02,   -6.254652e+00
   11110,    1.780167e+00,   -1.000000e+02,   -7.799423e+00
   11111,   -1.780167e+00,   -1.000000e+02,   -7.799423e+00
   11112,   -4.987918e+00,   -1.000000e+02,   -6.254652e+00
   11113,   -7.207751e+00,   -1.000000e+02,   -3.471070e+00
   11114,    7.207751e+00,   -9.600000e+01,   -3.471070e+00
   11115,    7.207751e+00,   -9.200000e+01,   -3.471070e+00
   11116,    7.207751e+00,   -8.800000e+01,   -3.471070e+00
   11117,    7.207751e+00,   -8.400000e+01,   -3.471070e+00
   11118,    7.207751e+00,   -8.000000e+01,   -3.471070e+00
   11119,    7.207751e+00,   -7.600000e+01,   -3.471070e+00
   11120,    7.207751e+00,   -7.200000e+01,   -3.471070e+00
   11121,    7.207751e+00,   -6.800000e+01,   -3.471070e+00
   11122,    7.207751e+00,   -6.400000e+01,   -3.471070e+00
   11123,    7.207751e+00,   -6.000000e+01,   -3.471070e+00
   11124,    7.207751e+00,   -5.600000e+01,   -3.471070e+00
   11125,    7.207751e+00,   -5.200000e+01,   -3.471070e+00
   11126,    7.207751e+00,   -4.800000e+01,   -3.471070e+00
   11127,    7.207751e+00,   -4.400000e+01,   -3.471070e+00
   11128,    7.207751e+00,   -4.000000e+01,   -3.471070e+00
   11129,    7.207751e+00,   -3.600000e+01,   -3.471070e+00
   11130,    7.207751e+00,   -3.200000e+01,   -3.471070e+00
   11131,    7.207751e+00,   -2.800000e+01,   -3.471070e+00
   11132,    7.207751e+00,   -2.400000e+01,   -3.471070e+00
   11133,    7.207751e+00,   -2.000000e+01,   -3.471070e+00
   11134,    7.207751e+00,   -1.600000e+01,   -3.471070e+00
   11135,    7.207751e+00,   -1.200000e+01,   -3.471070e+00
   11136,    7.207751e+00,   -8.000000e+00,   -3.471070e+00
   11137,    7.207751e+00,   -4.000000e+00,   -3.471070e+00
   11138,    4.987918e+00,   -9.600000e+01,   -6.254652e+00
   11139,    4.987918e+00,   -9.200000e+01,   -6.254652e+00
   11140,    4.987918e+00,   -8.800000e+01,   -6.254652e+00
   11141,    4.987918e+00,   -8.400000e+01,   -6.254652e+00
   11142,    4.987918e+00,   -8.000000e+01,   -6.254652e+00
   11143,    4.987918e+00,   -7.600000e+01,   -6.254652e+00
   11144,    4.987918e+00,   -7.200000e+01,   -6.254652e+00
   11145,    4.987918e+00,   -6.800000e+01,   -6.254652e+00
   11146,    4.987918e+00,   -6.400000e+01,   -6.254652e+00
   11147,    4.987918e+00,   -6.000000e+01,   -6.254652e+00
   11148,    4.987918e+00,   -5.600000e+01,   -6.254652e+00
   11149,    4.987918e+00,   -5.200000e+01,   -6.254652e+00
   11150,    4.987918e+00,   -4.800000e+01,   -6.254652e+00
   11151,    4.987918e+00,   -4.400000e+01,   -6.254652e+00
   11152,    4.987918e+00,   -4.000000e+01,   -6.254652e+00
   11153,    4.987918e+00,   -3.600000e+01,   -6.254652e+00
   11154,    4.987918e+00,   -3.200000e+01,   -6.254652e+00
   11155,    4.987918e+00,   -2.800000e+01,   -6.254652e+00
   11156,    4.987918e+00,   -2.400000e+01,   -6.254652e+00
   11157,    4.987918e+00,   -2.000000e+01,   -6.254652e+00
   11158,    4.987918e+00,   -1.600000e+01,   -6.254652e+00
   11159,    4.987918e+00,   -1.200000e+01,   -6.254652e+00
   11160,    4.987918e+00,   -8.000000e+00,   -6.254652e+00
   11161,    4.987918e+00,   -4.000000e+00,   -6.254652e+00
   11162,    1.780167e+00,   -9.600000e+01,   -7.799423e+00
   11163,    1.780167e+00,   -9.200000e+01,   -7.799423e+00
   11164,    1.780167e+00,   -8.800000e+01,   -7.799423e+00
   11165,    1.780167e+00,   -8.400000e+01,   -7.799423e+00
   11166,    1.780167e+00,   -8.000000e+01,   -7.799423e+00
   11167,    1.780167e+00,   -7.600000e+01,   -7.799423e+00
   11168,    1.780167e+00,   -7.200000e+01,   -7.799423e+00
   11169,    1.780167e+00,   -6.800000e+01,   -7.799423e+00
   11170,    1.780167e+00,   -6.400000e+01,   -7.799423e+00
   11171,    1.780167e+00,   -6.000000e+01,   -7.799423e+00
   11172,    1.780167e+00,   -5.600000e+01,   -7.799423e+00
   11173,    1.780167e+00,   -5.200000e+01,   -7.799423e+00
   11174,    1.780167e+00,   -4.800000e+01,   -7.799423e+00
   11175,    1.780167e+00,   -4.400000e+01,   -7.799423e+00
   11176,    1.780167e+00,   -4.000000e+01,   -7.799423e+00
   11177,    1.780167e+00,   -3.600000e+01,   -7.799423e+00
   11178,    1.780167e+00,   -3.200000e+01,   -7.799423e+00
   11179,    1.780167e+00,   -2.800000e+01,   -7.799423e+00
   11180,    1.780167e+00,   -2.400000e+01,   -7.799423e+00
   11181,    1.780167e+00,   -2.000000e+01,   -7.799423e+00
   11182,    1.780167e+00,   -1.600000e+01,   -7.799423e+00
   11183,    1.780167e+00,   -1.200000e+01,   -7.799423e+00
   11184,    1.780167e+00,   -8.000000e+00,   -7.799423e+00
   11185,    1.780167e+00,   -4.000000e+00,   -7.799423e+00
   11186,   -1.780167e+00,   -9.600000e+01,   -7.799423e+00
   11187,   -1.780167e+00,   -9.200000e+01,   -7.799423e+00
   11188,   -1.780167e+00,   -8.800000e+01,   -7.799423e+00
   11189,   -1.780167e+00,   -8.400000e+01,   -7.799423e+00
   11190,   -1.780167e+00,   -8.000000e+01,   -7.799423e+00
   11191,   -1.780167e+00,   -7.600000e+01,   -7.799423e+00
   11192,   -1.780167e+00,   -7.200000e+01,   -7.799423e+00
   11193,   -1.780167e+00,   -6.800000e+01,   -7.799423e+00
   11194,   -1.780167e+00,   -6.400000e+01,   -7.799423e+00
   11195,   -1.780167e+00,   -6.000000e+01,   -7.799423e+00
   11196,   -1.780167e+00,   -5.600000e+01,   -7.799423e+00
   11197,   -1.780167e+00,   -5.200000e+01,   -7.799423e+00
   11198,   -1.780167e+00,   -4.800000e+01,   -7.799423e+00
   11199,   -1.780167e+00,   -4.400000e+01,   -7.799423e+00
   11200,   -1.780167e+00,   -4.000000e+01,   -7.799423e+00
   11201,   -1.780167e+00,   -3.600000e+01,   -7.799423e+00
   11202,   -1.780167e+00,   -3.200000e+01,   -7.799423e+00
   11203,   -1.780167e+00,   -2.800000e+01,   -7.799423e+00
   11204,   -1.780167e+00,   -2.400000e+01,   -7.799423e+00
   11205,   -1.780167e+00,   -2.000000e+01,   -7.799423e+00
   11206,   -1.780167e+00,   -1.600000e+01,   -7.799423e+00
   11207,   -1.780167e+00,   -1.200000e+01,   -7.799423e+00
   11208,   -1.780167e+00,   -8.000000e+00,   -7.799423e+00
   11209,   -1.780167e+00,   -4.000000e+00,   -7.799423e+00
   11210,   -4.987918e+00,   -9.600000e+01,   -6.254652e+00
   11211,   -4.987918e+00,   -9.200000e+01,   -6.254652e+00
   11212,   -4.987918e+00,   -8.800000e+01,   -6.254652e+00
   11213,   -4.987918e+00,   -8.400000e+01,   -6.254652e+00
   11214,   -4.987918e+00,   -8.000000e+01,   -6.254652e+00
   11215,   -4.987918e+00,   -7.600000e+01,   -6.254652e+00
   11216,   -4.987918e+00,   -7.200000e+01,   -6.254652e+00
   11217,   -4.987918e+00,   -6.800000e+01,   -6.254652e+00
   11218,   -4.987918e+00,   -6.400000e+01,   -6.254652e+00
   11219,   -4.987918e+00,   -6.000000e+01,   -6.254652e+00
   11220,   -4.987918e+00,   -5.600000e+01,   -6.254652e+00
   11221,   -4.987918e+00,   -5.200000e+01,   -6.254652e+00
   11222,   -4.987918e+00,   -4.800000e+01,   -6.254652e+00
   11223,   -4.987918e+00,   -4.400000e+01,   -6.254652e+00
   11224,   -4.987918e+00,   -4.000000e+01,   -6.254652e+00
   11225,   -4.987918e+00,   -3.600000e+01,   -6.254652e+00
   11226,   -4.987918e+00,   -3.200000e+01,   -6.254652e+00
   11227,   -4.987918e+00,   -2.800000e+01,   -6.254652e+00
   11228,   -4.987918e+00,   -2.400000e+01,   -6.254652e+00
   11229,   -4.987918e+00,   -2.000000e+01,   -6.254652e+00
   11230,   -4.987918e+00,   -1.600000e+01,   -6.254652e+00
   11231,   -4.987918e+00,   -1.200000e+01,   -6.254652e+00
   11232,   -4.987918e+00,   -8.000000e+00,   -6.254652e+00
   11233,   -4.987918e+00,   -4.000000e+00,   -6.254652e+00
   11234,   -7.207751e+00,   -9.600000e+01,   -3.471070e+00
   11235,   -7.207751e+00,   -9.200000e+01,   -3.471070e+00
   11236,   -7.207751e+00,   -8.800000e+01,   -3.471070e+00
   11237,   -7.207751e+00,   -8.400000e+01,   -3.471070e+00
   11238,   -7.207751e+00,   -8.000000e+01,   -3.471070e+00
   11239,   -7.207751e+00,   -7.600000e+01,   -3.471070e+00
   11240,   -7.207751e+00,   -7.200000e+01,   -3.471070e+00
   11241,   -7.207751e+00,   -6.800000e+01,   -3.471070e+00
   11242,   -7.207751e+00,   -6.400000e+01,   -3.471070e+00
   11243,   -7.207751e+00,   -6.000000e+01,   -3.471070e+00
   11244,   -7.207751e+00,   -5.600000e+01,   -3.471070e+00
   11245,   -7.207751e+00,   -5.200000e+01,   -3.471070e+00
   11246,   -7.207751e+00,   -4.800000e+01,   -3.471070e+00
   11247,   -7.207751e+00,   -4.400000e+01,   -3.471070e+00
   11248,   -7.207751e+00,   -4.000000e+01,   -3.471070e+00
   11249,   -7.207751e+00,   -3.600000e+01,   -3.471070e+00
   11250,   -7.207751e+00,   -3.200000e+01,   -3.471070e+00
   11251,   -7.207751e+00,   -2.800000e+01,   -3.471070e+00
   11252,   -7.207751e+00,   -2.400000e+01,   -3.471070e+00
   11253,   -7.207751e+00,   -2.000000e+01,   -3.471070e+00
   11254,   -7.207751e+00,   -1.600000e+01,   -3.471070e+00
   11255,   -7.207751e+00,   -1.200000e+01,   -3.471070e+00
   11256,   -7.207751e+00,   -8.000000e+00,   -3.471070e+00
   11257,   -7.207751e+00,   -4.000000e+00,   -3.471070e+00
********************************** E L E M E N T S ****************************
*ELEMENT, TYPE=C3D8R, ELSET=steel
       1,    7651,    7652,    7527,    7649,    7345,    7347,    7337,    7346
       2,    7646,    7647,    7652,    7651,    7341,    7342,    7347,    7345
       3,    7647,    7414,    7527,    7652,    7342,    7334,    7337,    7347
       4,    7645,    7649,    7648,    7644,    7340,    7346,    7343,    7339
       5,    7646,    7651,    7649,    7645,    7341,    7345,    7346,    7340
       6,    7643,    7644,    7648,    7650,    7338,    7339,    7343,    7344
       7,    7469,    7413,    7643,    7650,    7335,    7333,    7338,    7344
       8,    7498,    7469,    7650,    7648,    7336,    7335,    7344,    7343
       9,    7527,    7498,    7648,    7649,    7337,    7336,    7343,    7346
      10,    7656,    7657,    7526,    7654,    7651,    7652,    7527,    7649
      11,    7641,    7642,    7657,    7656,    7646,    7647,    7652,    7651
      12,    7642,    7415,    7526,    7657,    7647,    7414,    7527,    7652
      13,    7640,    7654,    7653,    7639,    7645,    7649,    7648,    7644
      14,    7641,    7656,    7654,    7640,    7646,    7651,    7649,    7645
      15,    7638,    7639,    7653,    7655,    7643,    7644,    7648,    7650
      16,    7468,    7412,    7638,    7655,    7469,    7413,    7643,    7650
      17,    7497,    7468,    7655,    7653,    7498,    7469,    7650,    7648
      18,    7526,    7497,    7653,    7654,    7527,    7498,    7648,    7649
      19,    7661,    7662,    7525,    7659,    7656,    7657,    7526,    7654
      20,    7636,    7637,    7662,    7661,    7641,    7642,    7657,    7656
      21,    7637,    7416,    7525,    7662,    7642,    7415,    7526,    7657
      22,    7635,    7659,    7658,    7634,    7640,    7654,    7653,    7639
      23,    7636,    7661,    7659,    7635,    7641,    7656,    7654,    7640
      24,    7633,    7634,    7658,    7660,    7638,    7639,    7653,    7655
      25,    7467,    7411,    7633,    7660,    7468,    7412,    7638,    7655
      26,    7496,    7467,    7660,    7658,    7497,    7468,    7655,    7653
      27,    7525,    7496,    7658,    7659,    7526,    7497,    7653,    7654
      28,    7666,    7667,    7524,    7664,    7661,    7662,    7525,    7659
      29,    7631,    7632,    7667,    7666,    7636,    7637,    7662,    7661
      30,    7632,    7417,    7524,    7667,    7637,    7416,    7525,    7662
      31,    7630,    7664,    7663,    7629,    7635,    7659,    7658,    7634
      32,    7631,    7666,    7664,    7630,    7636,    7661,    7659,    7635
      33,    7628,    7629,    7663,    7665,    7633,    7634,    7658,    7660
      34,    7466,    7410,    7628,    7665,    7467,    7411,    7633,    7660
      35,    7495,    7466,    7665,    7663,    7496,    7467,    7660,    7658
      36,    7524,    7495,    7663,    7664,    7525,    7496,    7658,    7659
      37,    7671,    7672,    7523,    7669,    7666,    7667,    7524,    7664
      38,    7626,    7627,    7672,    7671,    7631,    7632,    7667,    7666
      39,    7627,    7418,    7523,    7672,    7632,    7417,    7524,    7667
      40,    7625,    7669,    7668,    7624,    7630,    7664,    7663,    7629
      41,    7626,    7671,    7669,    7625,    7631,    7666,    7664,    7630
      42,    7623,    7624,    7668,    7670,    7628,    7629,    7663,    7665
      43,    7465,    7409,    7623,    7670,    7466,    7410,    7628,    7665
      44,    7494,    7465,    7670,    7668,    7495,    7466,    7665,    7663
      45,    7523,    7494,    7668,    7669,    7524,    7495,    7663,    7664
      46,    7676,    7677,    7522,    7674,    7671,    7672,    7523,    7669
      47,    7621,    7622,    7677,    7676,    7626,    7627,    7672,    7671
      48,    7622,    7419,    7522,    7677,    7627,    7418,    7523,    7672
      49,    7620,    7674,    7673,    7619,    7625,    7669,    7668,    7624
      50,    7621,    7676,    7674,    7620,    7626,    7671,    7669,    7625
      51,    7618,    7619,    7673,    7675,    7623,    7624,    7668,    7670
      52,    7464,    7408,    7618,    7675,    7465,    7409,    7623,    7670
      53,    7493,    7464,    7675,    7673,    7494,    7465,    7670,    7668
      54,    7522,    7493,    7673,    7674,    7523,    7494,    7668,    7669
      55,    7681,    7682,    7521,    7679,    7676,    7677,    7522,    7674
      56,    7616,    7617,    7682,    7681,    7621,    7622,    7677,    7676
      57,    7617,    7420,    7521,    7682,    7622,    7419,    7522,    7677
      58,    7615,    7679,    7678,    7614,    7620,    7674,    7673,    7619
      59,    7616,    7681,    7679,    7615,    7621,    7676,    7674,    7620
      60,    7613,    7614,    7678,    7680,    7618,    7619,    7673,    7675
      61,    7463,    7407,    7613,    7680,    7464,    7408,    7618,    7675
      62,    7492,    7463,    7680,    7678,    7493,    7464,    7675,    7673
      63,    7521,    7492,    7678,    7679,    7522,    7493,    7673,    7674
      64,    7686,    7687,    7520,    7684,    7681,    7682,    7521,    7679
      65,    7611,    7612,    7687,    7686,    7616,    7617,    7682,    7681
      66,    7612,    7421,    7520,    7687,    7617,    7420,    7521,    7682
      67,    7610,    7684,    7683,    7609,    7615,    7679,    7678,    7614
      68,    7611,    7686,    7684,    7610,    7616,    7681,    7679,    7615
      69,    7608,    7609,    7683,    7685,    7613,    7614,    7678,    7680
      70,    7462,    7406,    7608,    7685,    7463,    7407,    7613,    7680
      71,    7491,    7462,    7685,    7683,    7492,    7463,    7680,    7678
      72,    7520,    7491,    7683,    7684,    7521,    7492,    7678,    7679
      73,    7691,    7692,    7519,    7689,    7686,    7687,    7520,    7684
      74,    7606,    7607,    7692,    7691,    7611,    7612,    7687,    7686
      75,    7607,    7422,    7519,    7692,    7612,    7421,    7520,    7687
      76,    7605,    7689,    7688,    7604,    7610,    7684,    7683,    7609
      77,    7606,    7691,    7689,    7605,    7611,    7686,    7684,    7610
      78,    7603,    7604,    7688,    7690,    7608,    7609,    7683,    7685
      79,    7461,    7405,    7603,    7690,    7462,    7406,    7608,    7685
      80,    7490,    7461,    7690,    7688,    7491,    7462,    7685,    7683
      81,    7519,    7490,    7688,    7689,    7520,    7491,    7683,    7684
      82,    7696,    7697,    7518,    7694,    7691,    7692,    7519,    7689
      83,    7601,    7602,    7697,    7696,    7606,    7607,    7692,    7691
      84,    7602,    7423,    7518,    7697,    7607,    7422,    7519,    7692
      85,    7600,    7694,    7693,    7599,    7605,    7689,    7688,    7604
      86,    7601,    7696,    7694,    7600,    7606,    7691,    7689,    7605
      87,    7598,    7599,    7693,    7695,    7603,    7604,    7688,    7690
      88,    7460,    7404,    7598,    7695,    7461,    7405,    7603,    7690
      89,    7489,    7460,    7695,    7693,    7490,    7461,    7690,    7688
      90,    7518,    7489,    7693,    7694,    7519,    7490,    7688,    7689
      91,    7701,    7702,    7517,    7699,    7696,    7697,    7518,    7694
      92,    7596,    7597,    7702,    7701,    7601,    7602,    7697,    7696
      93,    7597,    7424,    7517,    7702,    7602,    7423,    7518,    7697
      94,    7595,    7699,    7698,    7594,    7600,    7694,    7693,    7599
      95,    7596,    7701,    7699,    7595,    7601,    7696,    7694,    7600
      96,    7593,    7594,    7698,    7700,    7598,    7599,    7693,    7695
      97,    7459,    7403,    7593,    7700,    7460,    7404,    7598,    7695
      98,    7488,    7459,    7700,    7698,    7489,    7460,    7695,    7693
      99,    7517,    7488,    7698,    7699,    7518,    7489,    7693,    7694
     100,    7706,    7707,    7516,    7704,    7701,    7702,    7517,    7699
     101,    7591,    7592,    7707,    7706,    7596,    7597,    7702,    7701
     102,    7592,    7425,    7516,    7707,    7597,    7424,    7517,    7702
     103,    7590,    7704,    7703,    7589,    7595,    7699,    7698,    7594
     104,    7591,    7706,    7704,    7590,    7596,    7701,    7699,    7595
     105,    7588,    7589,    7703,    7705,    7593,    7594,    7698,    7700
     106,    7458,    7402,    7588,    7705,    7459,    7403,    7593,    7700
     107,    7487,    7458,    7705,    7703,    7488,    7459,    7700,    7698
     108,    7516,    7487,    7703,    7704,    7517,    7488,    7698,    7699
     109,    7711,    7712,    7515,    7709,    7706,    7707,    7516,    7704
     110,    7586,    7587,    7712,    7711,    7591,    7592,    7707,    7706
     111,    7587,    7426,    7515,    7712,    7592,    7425,    7516,    7707
     112,    7585,    7709,    7708,    7584,    7590,    7704,    7703,    7589
     113,    7586,    7711,    7709,    7585,    7591,    7706,    7704,    7590
     114,    7583,    7584,    7708,    7710,    7588,    7589,    7703,    7705
     115,    7457,    7401,    7583,    7710,    7458,    7402,    7588,    7705
     116,    7486,    7457,    7710,    7708,    7487,    7458,    7705,    7703
     117,    7515,    7486,    7708,    7709,    7516,    7487,    7703,    7704
     118,    7716,    7717,    7514,    7714,    7711,    7712,    7515,    7709
     119,    7581,    7582,    7717,    7716,    7586,    7587,    7712,    7711
     120,    7582,    7427,    7514,    7717,    7587,    7426,    7515,    7712
     121,    7580,    7714,    7713,    7579,    7585,    7709,    7708,    7584
     122,    7581,    7716,    7714,    7580,    7586,    7711,    7709,    7585
     123,    7578,    7579,    7713,    7715,    7583,    7584,    7708,    7710
     124,    7456,    7400,    7578,    7715,    7457,    7401,    7583,    7710
     125,    7485,    7456,    7715,    7713,    7486,    7457,    7710,    7708
     126,    7514,    7485,    7713,    7714,    7515,    7486,    7708,    7709
     127,    7721,    7722,    7513,    7719,    7716,    7717,    7514,    7714
     128,    7576,    7577,    7722,    7721,    7581,    7582,    7717,    7716
     129,    7577,    7428,    7513,    7722,    7582,    7427,    7514,    7717
     130,    7575,    7719,    7718,    7574,    7580,    7714,    7713,    7579
     131,    7576,    7721,    7719,    7575,    7581,    7716,    7714,    7580
     132,    7573,    7574,    7718,    7720,    7578,    7579,    7713,    7715
     133,    7455,    7399,    7573,    7720,    7456,    7400,    7578,    7715
     134,    7484,    7455,    7720,    7718,    7485,    7456,    7715,    7713
     135,    7513,    7484,    7718,    7719,    7514,    7485,    7713,    7714
     136,    7726,    7727,    7512,    7724,    7721,    7722,    7513,    7719
     137,    7571,    7572,    7727,    7726,    7576,    7577,    7722,    7721
     138,    7572,    7429,    7512,    7727,    7577,    7428,    7513,    7722
     139,    7570,    7724,    7723,    7569,    7575,    7719,    7718,    7574
     140,    7571,    7726,    7724,    7570,    7576,    7721,    7719,    7575
     141,    7568,    7569,    7723,    7725,    7573,    7574,    7718,    7720
     142,    7454,    7398,    7568,    7725,    7455,    7399,    7573,    7720
     143,    7483,    7454,    7725,    7723,    7484,    7455,    7720,    7718
     144,    7512,    7483,    7723,    7724,    7513,    7484,    7718,    7719
     145,    7731,    7732,    7511,    7729,    7726,    7727,    7512,    7724
     146,    7566,    7567,    7732,    7731,    7571,    7572,    7727,    7726
     147,    7567,    7430,    7511,    7732,    7572,    7429,    7512,    7727
     148,    7565,    7729,    7728,    7564,    7570,    7724,    7723,    7569
     149,    7566,    7731,    7729,    7565,    7571,    7726,    7724,    7570
     150,    7563,    7564,    7728,    7730,    7568,    7569,    7723,    7725
     151,    7453,    7397,    7563,    7730,    7454,    7398,    7568,    7725
     152,    7482,    7453,    7730,    7728,    7483,    7454,    7725,    7723
     153,    7511,    7482,    7728,    7729,    7512,    7483,    7723,    7724
     154,    7736,    7737,    7510,    7734,    7731,    7732,    7511,    7729
     155,    7561,    7562,    7737,    7736,    7566,    7567,    7732,    7731
     156,    7562,    7431,    7510,    7737,    7567,    7430,    7511,    7732
     157,    7560,    7734,    7733,    7559,    7565,    7729,    7728,    7564
     158,    7561,    7736,    7734,    7560,    7566,    7731,    7729,    7565
     159,    7558,    7559,    7733,    7735,    7563,    7564,    7728,    7730
     160,    7452,    7396,    7558,    7735,    7453,    7397,    7563,    7730
     161,    7481,    7452,    7735,    7733,    7482,    7453,    7730,    7728
     162,    7510,    7481,    7733,    7734,    7511,    7482,    7728,    7729
     163,    7741,    7742,    7509,    7739,    7736,    7737,    7510,    7734
     164,    7556,    7557,    7742,    7741,    7561,    7562,    7737,    7736
     165,    7557,    7432,    7509,    7742,    7562,    7431,    7510,    7737
     166,    7555,    7739,    7738,    7554,    7560,    7734,    7733,    7559
     167,    7556,    7741,    7739,    7555,    7561,    7736,    7734,    7560
     168,    7553,    7554,    7738,    7740,    7558,    7559,    7733,    7735
     169,    7451,    7395,    7553,    7740,    7452,    7396,    7558,    7735
     170,    7480,    7451,    7740,    7738,    7481,    7452,    7735,    7733
     171,    7509,    7480,    7738,    7739,    7510,    7481,    7733,    7734
     172,    7746,    7747,    7508,    7744,    7741,    7742,    7509,    7739
     173,    7551,    7552,    7747,    7746,    7556,    7557,    7742,    7741
     174,    7552,    7433,    7508,    7747,    7557,    7432,    7509,    7742
     175,    7550,    7744,    7743,    7549,    7555,    7739,    7738,    7554
     176,    7551,    7746,    7744,    7550,    7556,    7741,    7739,    7555
     177,    7548,    7549,    7743,    7745,    7553,    7554,    7738,    7740
     178,    7450,    7394,    7548,    7745,    7451,    7395,    7553,    7740
     179,    7479,    7450,    7745,    7743,    7480,    7451,    7740,    7738
     180,    7508,    7479,    7743,    7744,    7509,    7480,    7738,    7739
     181,    7751,    7752,    7507,    7749,    7746,    7747,    7508,    7744
     182,    7546,    7547,    7752,    7751,    7551,    7552,    7747,    7746
     183,    7547,    7434,    7507,    7752,    7552,    7433,    7508,    7747
     184,    7545,    7749,    7748,    7544,    7550,    7744,    7743,    7549
     185,    7546,    7751,    7749,    7545,    7551,    7746,    7744,    7550
     186,    7543,    7544,    7748,    7750,    7548,    7549,    7743,    7745
     187,    7449,    7393,    7543,    7750,    7450,    7394,    7548,    7745
     188,    7478,    7449,    7750,    7748,    7479,    7450,    7745,    7743
     189,    7507,    7478,    7748,    7749,    7508,    7479,    7743,    7744
     190,    7756,    7757,    7506,    7754,    7751,    7752,    7507,    7749
     191,    7541,    7542,    7757,    7756,    7546,    7547,    7752,    7751
     192,    7542,    7435,    7506,    7757,    7547,    7434,    7507,    7752
     193,    7540,    7754,    7753,    7539,    7545,    7749,    7748,    7544
     194,    7541,    7756,    7754,    7540,    7546,    7751,    7749,    7545
     195,    7538,    7539,    7753,    7755,    7543,    7544,    7748,    7750
     196,    7448,    7392,    7538,    7755,    7449,    7393,    7543,    7750
     197,    7477,    7448,    7755,    7753,    7478,    7449,    7750,    7748
     198,    7506,    7477,    7753,    7754,    7507,    7478,    7748,    7749
     199,    7761,    7762,    7505,    7759,    7756,    7757,    7506,    7754
     200,    7536,    7537,    7762,    7761,    7541,    7542,    7757,    7756
     201,    7537,    7436,    7505,    7762,    7542,    7435,    7506,    7757
     202,    7535,    7759,    7758,    7534,    7540,    7754,    7753,    7539
     203,    7536,    7761,    7759,    7535,    7541,    7756,    7754,    7540
     204,    7533,    7534,    7758,    7760,    7538,    7539,    7753,    7755
     205,    7447,    7391,    7533,    7760,    7448,    7392,    7538,    7755
     206,    7476,    7447,    7760,    7758,    7477,    7448,    7755,    7753
     207,    7505,    7476,    7758,    7759,    7506,    7477,    7753,    7754
     208,    7766,    7767,    7504,    7764,    7761,    7762,    7505,    7759
     209,    7531,    7532,    7767,    7766,    7536,    7537,    7762,    7761
     210,    7532,    7437,    7504,    7767,    7537,    7436,    7505,    7762
     211,    7530,    7764,    7763,    7529,    7535,    7759,    7758,    7534
     212,    7531,    7766,    7764,    7530,    7536,    7761,    7759,    7535
     213,    7528,    7529,    7763,    7765,    7533,    7534,    7758,    7760
     214,    7446,    7390,    7528,    7765,    7447,    7391,    7533,    7760
     215,    7475,    7446,    7765,    7763,    7476,    7447,    7760,    7758
     216,    7504,    7475,    7763,    7764,    7505,    7476,    7758,    7759
     217,    7771,    7772,    7503,    7769,    7766,    7767,    7504,    7764
     218,    7381,    7380,    7772,    7771,    7531,    7532,    7767,    7766
     219,    7380,    7376,    7503,    7772,    7532,    7437,    7504,    7767
     220,    7382,    7769,    7768,    7383,    7530,    7764,    7763,    7529
     221,    7381,    7771,    7769,    7382,    7531,    7766,    7764,    7530
     222,    7384,    7383,    7768,    7770,    7528,    7529,    7763,    7765
     223,    7445,    7378,    7384,    7770,    7446,    7390,    7528,    7765
     224,    7474,    7445,    7770,    7768,    7475,    7446,    7765,    7763
     225,    7503,    7474,    7768,    7769,    7504,    7475,    7763,    7764
     226,    7776,    7777,    7502,    7774,    7771,    7772,    7503,    7769
     227,    7386,    7385,    7777,    7776,    7381,    7380,    7772,    7771
     228,    7385,    7377,    7502,    7777,    7380,    7376,    7503,    7772
     229,    7387,    7774,    7773,    7388,    7382,    7769,    7768,    7383
     230,    7386,    7776,    7774,    7387,    7381,    7771,    7769,    7382
     231,    7389,    7388,    7773,    7775,    7384,    7383,    7768,    7770
     232,    7444,    7379,    7389,    7775,    7445,    7378,    7384,    7770
     233,    7473,    7444,    7775,    7773,    7474,    7445,    7770,    7768
     234,    7502,    7473,    7773,    7774,    7503,    7474,    7768,    7769
     235,    7781,    7782,    7501,    7779,    7776,    7777,    7502,    7774
     236,    7354,    7353,    7782,    7781,    7386,    7385,    7777,    7776
     237,    7353,    7352,    7501,    7782,    7385,    7377,    7502,    7777
     238,    7355,    7779,    7778,    7356,    7387,    7774,    7773,    7388
     239,    7354,    7781,    7779,    7355,    7386,    7776,    7774,    7387
     240,    7357,    7356,    7778,    7780,    7389,    7388,    7773,    7775
     241,    7443,    7348,    7357,    7780,    7444,    7379,    7389,    7775
     242,    7472,    7443,    7780,    7778,    7473,    7444,    7775,    7773
     243,    7501,    7472,    7778,    7779,    7502,    7473,    7773,    7774
     244,    7786,    7787,    7500,    7784,    7781,    7782,    7501,    7779
     245,    7373,    7375,    7787,    7786,    7354,    7353,    7782,    7781
     246,    7375,    7360,    7500,    7787,    7353,    7352,    7501,    7782
     247,    7371,    7784,    7783,    7369,    7355,    7779,    7778,    7356
     248,    7373,    7786,    7784,    7371,    7354,    7781,    7779,    7355
     249,    7367,    7369,    7783,    7785,    7357,    7356,    7778,    7780
     250,    7442,    7350,    7367,    7785,    7443,    7348,    7357,    7780
     251,    7471,    7442,    7785,    7783,    7472,    7443,    7780,    7778
     252,    7500,    7471,    7783,    7784,    7501,    7472,    7778,    7779
     253,    7791,    7792,    7499,    7789,    7786,    7787,    7500,    7784
     254,    7372,    7374,    7792,    7791,    7373,    7375,    7787,    7786
     255,    7374,    7359,    7499,    7792,    7375,    7360,    7500,    7787
     256,    7370,    7789,    7788,    7368,    7371,    7784,    7783,    7369
     257,    7372,    7791,    7789,    7370,    7373,    7786,    7784,    7371
     258,    7366,    7368,    7788,    7790,    7367,    7369,    7783,    7785
     259,    7441,    7351,    7366,    7790,    7442,    7350,    7367,    7785
     260,    7470,    7441,    7790,    7788,    7471,    7442,    7785,    7783
     261,    7499,    7470,    7788,    7789,    7500,    7471,    7783,    7784
     262,    7796,    7797,    7438,    7794,    7791,    7792,    7499,    7789
     263,    7362,    7361,    7797,    7796,    7372,    7374,    7792,    7791
     264,    7361,    7358,    7438,    7797,    7374,    7359,    7499,    7792
     265,    7363,    7794,    7793,    7364,    7370,    7789,    7788,    7368
     266,    7362,    7796,    7794,    7363,    7372,    7791,    7789,    7370
     267,    7365,    7364,    7793,    7795,    7366,    7368,    7788,    7790
     268,    7440,    7349,    7365,    7795,    7441,    7351,    7366,    7790
     269,    7439,    7440,    7795,    7793,    7470,    7441,    7790,    7788
     270,    7438,    7439,    7793,    7794,    7499,    7470,    7788,    7789
     271,    8922,    8901,    8903,    8921,    8011,    7990,    7991,    8010
     272,    8921,    8917,    8918,    8922,    8010,    8003,    8004,    8011
     273,    8914,    8900,    8901,    8922,    8000,    7989,    7990,    8011
     274,    8913,    8914,    8922,    8918,    7999,    8000,    8011,    8004
     275,    8898,    8899,    8917,    8921,    7987,    7988,    8003,    8010
     276,    8897,    8898,    8921,    8903,    7986,    7987,    8010,    7991
     277,    8896,    8897,    8903,    8902,    7985,    7986,    7991,    7992
     278,    8895,    8896,    8902,    8904,    7984,    7985,    7992,    7993
     279,    8894,    8895,    8904,    8905,    7983,    7984,    7993,    7994
     280,    8893,    8894,    8905,    8906,    7982,    7983,    7994,    7995
     281,    8892,    8893,    8906,    8907,    7981,    7982,    7995,    7996
     282,    8910,    8911,    8920,    8919,    8006,    7997,    8009,    8005
     283,    8916,    8919,    8920,    8915,    8002,    8005,    8009,    8001
     284,    8912,    8915,    8920,    8911,    7998,    8001,    8009,    7997
     285,    8891,    8892,    8907,    8908,    7980,    7981,    7996,    8008
     286,    8890,    8891,    8908,    8909,    7979,    7980,    8008,    8007
     287,    8889,    8890,    8909,    8910,    7978,    7979,    8007,    8006
     288,    8888,    8889,    8910,    8919,    7977,    7978,    8006,    8005
     289,    8887,    8888,    8919,    8916,    7976,    7977,    8005,    8002
     290,    8881,    8882,    8913,    8918,    7970,    7971,    7999,    8004
     291,    8880,    8881,    8918,    8917,    7969,    7970,    8004,    8003
     292,    8879,    8880,    8917,    8899,    7968,    7969,    8003,    7988
     293,    8885,    8886,    8887,    8916,    7974,    7975,    7976,    8002
     294,    8884,    8885,    8916,    8915,    7973,    7974,    8002,    8001
     295,    8883,    8884,    8915,    8912,    7972,    7973,    8001,    7998
     296,    8864,    8865,    8900,    8914,    7953,    7954,    7989,    8000
     297,    8863,    8864,    8914,    8913,    7952,    7953,    8000,    7999
     298,    8862,    8863,    8913,    8882,    7951,    7952,    7999,    7971
     299,    8877,    8878,    8883,    8912,    7966,    7967,    7972,    7998
     300,    8876,    8877,    8912,    8911,    7965,    7966,    7998,    7997
     301,    8875,    8876,    8911,    8910,    7964,    7965,    7997,    8006
     302,    8874,    8875,    8910,    8909,    7963,    7964,    8006,    8007
     303,    8873,    8874,    8909,    8908,    7962,    7963,    8007,    8008
     304,    8872,    8873,    8908,    8907,    7961,    7962,    8008,    7996
     305,    8871,    8872,    8907,    8906,    7960,    7961,    7996,    7995
     306,    8870,    8871,    8906,    8905,    7959,    7960,    7995,    7994
     307,    8868,    8870,    8905,    8904,    7958,    7959,    7994,    7993
     308,    8869,    8868,    8904,    8902,    7957,    7958,    7993,    7992
     309,    8869,    8902,    8903,    8901,    7957,    7992,    7991,    7990
     310,    8867,    8869,    8901,    8900,    7956,    7957,    7990,    7989
     311,    8866,    8867,    8900,    8865,    7955,    7956,    7989,    7954
     312,    8860,    8861,    8879,    8899,    7949,    7950,    7968,    7988
     313,    8859,    8860,    8899,    8898,    7948,    7949,    7988,    7987
     314,    8858,    8859,    8898,    8897,    7947,    7948,    7987,    7986
     315,    8857,    8858,    8897,    8896,    7946,    7947,    7986,    7985
     316,    8856,    8857,    8896,    8895,    7945,    7946,    7985,    7984
     317,    8855,    8856,    8895,    8894,    7944,    7945,    7984,    7983
     318,    8854,    8855,    8894,    8893,    7943,    7944,    7983,    7982
     319,    8853,    8854,    8893,    8892,    7942,    7943,    7982,    7981
     320,    8852,    8853,    8892,    8891,    7941,    7942,    7981,    7980
     321,    8851,    8852,    8891,    8890,    7940,    7941,    7980,    7979
     322,    8850,    8851,    8890,    8889,    7939,    7940,    7979,    7978
     323,    8849,    8850,    8889,    8888,    7938,    7939,    7978,    7977
     324,    8848,    8849,    8888,    8887,    7937,    7938,    7977,    7976
     325,    8847,    8848,    8887,    8886,    7936,    7937,    7976,    7975
     326,    8845,    8846,    8847,    8886,    7934,    7935,    7936,    7975
     327,    8844,    8845,    8886,    8885,    7933,    7934,    7975,    7974
     328,    8843,    8844,    8885,    8884,    7932,    7933,    7974,    7973
     329,    8842,    8843,    8884,    8883,    7931,    7932,    7973,    7972
     330,    8841,    8842,    8883,    8878,    7930,    7931,    7972,    7967
     331,    8839,    8840,    8862,    8882,    7928,    7929,    7951,    7971
     332,    8838,    8839,    8882,    8881,    7927,    7928,    7971,    7970
     333,    8837,    8838,    8881,    8880,    7926,    7927,    7970,    7969
     334,    8836,    8837,    8880,    8879,    7925,    7926,    7969,    7968
     335,    8835,    8836,    8879,    8861,    7924,    7925,    7968,    7950
     336,    8833,    8834,    8841,    8878,    7922,    7923,    7930,    7967
     337,    8832,    8833,    8878,    8877,    7921,    7922,    7967,    7966
     338,    8831,    8832,    8877,    8876,    7920,    7921,    7966,    7965
     339,    8830,    8831,    8876,    8875,    7919,    7920,    7965,    7964
     340,    8829,    8830,    8875,    8874,    7918,    7919,    7964,    7963
     341,    8828,    8829,    8874,    8873,    7917,    7918,    7963,    7962
     342,    8827,    8828,    8873,    8872,    7916,    7917,    7962,    7961
     343,    8826,    8827,    8872,    8871,    7915,    7916,    7961,    7960
     344,    8824,    8826,    8871,    8870,    7914,    7915,    7960,    7959
     345,    8825,    8824,    8870,    8868,    7913,    7914,    7959,    7958
     346,    8825,    8868,    8869,    8867,    7913,    7958,    7957,    7956
     347,    8823,    8825,    8867,    8866,    7912,    7913,    7956,    7955
     348,    8821,    8822,    8823,    8866,    7910,    7911,    7912,    7955
     349,    8820,    8821,    8866,    8865,    7909,    7910,    7955,    7954
     350,    8819,    8820,    8865,    8864,    7908,    7909,    7954,    7953
     351,    8818,    8819,    8864,    8863,    7907,    7908,    7953,    7952
     352,    8817,    8818,    8863,    8862,    7906,    7907,    7952,    7951
     353,    8816,    8817,    8862,    8840,    7905,    7906,    7951,    7929
     354,    8787,    8788,    8835,    8861,    7876,    7877,    7924,    7950
     355,    8786,    8787,    8861,    8860,    7875,    7876,    7950,    7949
     356,    8785,    8786,    8860,    8859,    7874,    7875,    7949,    7948
     357,    8784,    8785,    8859,    8858,    7873,    7874,    7948,    7947
     358,    8783,    8784,    8858,    8857,    7872,    7873,    7947,    7946
     359,    8782,    8783,    8857,    8856,    7871,    7872,    7946,    7945
     360,    8781,    8782,    8856,    8855,    7870,    7871,    7945,    7944
     361,    8780,    8781,    8855,    8854,    7869,    7870,    7944,    7943
     362,    8779,    8780,    8854,    8853,    7868,    7869,    7943,    7942
     363,    8778,    8779,    8853,    8852,    7867,    7868,    7942,    7941
     364,    8777,    8778,    8852,    8851,    7866,    7867,    7941,    7940
     365,    8776,    8777,    8851,    8850,    7865,    7866,    7940,    7939
     366,    8775,    8776,    8850,    8849,    7864,    7865,    7939,    7938
     367,    8774,    8775,    8849,    8848,    7863,    7864,    7938,    7937
     368,    8773,    8774,    8848,    8847,    7862,    7863,    7937,    7936
     369,    8772,    8773,    8847,    8846,    7861,    7862,    7936,    7935
     370,    8803,    8771,    8772,    8846,    7892,    7860,    7861,    7935
     371,    8802,    8803,    8846,    8845,    7891,    7892,    7935,    7934
     372,    8801,    8802,    8845,    8844,    7890,    7891,    7934,    7933
     373,    8800,    8801,    8844,    8843,    7889,    7890,    7933,    7932
     374,    8799,    8800,    8843,    8842,    7888,    7889,    7932,    7931
     375,    8798,    8799,    8842,    8841,    7887,    7888,    7931,    7930
     376,    8797,    8798,    8841,    8834,    7886,    7887,    7930,    7923
     377,    8809,    8810,    8816,    8840,    7898,    7899,    7905,    7929
     378,    8808,    8809,    8840,    8839,    7897,    7898,    7929,    7928
     379,    8807,    8808,    8839,    8838,    7896,    7897,    7928,    7927
     380,    8806,    8807,    8838,    8837,    7895,    7896,    7927,    7926
     381,    8805,    8806,    8837,    8836,    7894,    7895,    7926,    7925
     382,    8804,    8805,    8836,    8835,    7893,    7894,    7925,    7924
     383,    8789,    8804,    8835,    8788,    7878,    7893,    7924,    7877
     384,    8769,    8770,    8797,    8834,    7858,    7859,    7886,    7923
     385,    8768,    8769,    8834,    8833,    7857,    7858,    7923,    7922
     386,    8767,    8768,    8833,    8832,    7856,    7857,    7922,    7921
     387,    8766,    8767,    8832,    8831,    7855,    7856,    7921,    7920
     388,    8765,    8766,    8831,    8830,    7854,    7855,    7920,    7919
     389,    8764,    8765,    8830,    8829,    7853,    7854,    7919,    7918
     390,    8815,    8764,    8829,    8828,    7904,    7853,    7918,    7917
     391,    8814,    8815,    8828,    8827,    7903,    7904,    7917,    7916
     392,    8812,    8814,    8827,    8826,    7902,    7903,    7916,    7915
     393,    8813,    8812,    8826,    8824,    7901,    7902,    7915,    7914
     394,    8813,    8824,    8825,    8823,    7901,    7914,    7913,    7912
     395,    8811,    8813,    8823,    8822,    7900,    7901,    7912,    7911
     396,    8796,    8811,    8822,    8821,    7885,    7900,    7911,    7910
     397,    8795,    8796,    8821,    8820,    7884,    7885,    7910,    7909
     398,    8794,    8795,    8820,    8819,    7883,    7884,    7909,    7908
     399,    8793,    8794,    8819,    8818,    7882,    7883,    7908,    7907
     400,    8792,    8793,    8818,    8817,    7881,    7882,    7907,    7906
     401,    8791,    8792,    8817,    8816,    7880,    7881,    7906,    7905
     402,    8790,    8791,    8816,    8810,    7879,    7880,    7905,    7899
     403,    7386,    7385,    8764,    8815,    7354,    7353,    7853,    7904
     404,    7387,    7386,    8815,    8814,    7355,    7354,    7904,    7903
     405,    7388,    7387,    8814,    8812,    7356,    7355,    7903,    7902
     406,    7388,    8812,    8813,    8811,    7356,    7902,    7901,    7900
     407,    7389,    7388,    8811,    8796,    7357,    7356,    7900,    7885
     408,    8698,    8697,    8790,    8810,    7838,    7837,    7879,    7899
     409,    8699,    8698,    8810,    8809,    7839,    7838,    7899,    7898
     410,    8700,    8699,    8809,    8808,    7840,    7839,    7898,    7897
     411,    8701,    8700,    8808,    8807,    7841,    7840,    7897,    7896
     412,    8702,    8701,    8807,    8806,    7842,    7841,    7896,    7895
     413,    8703,    8702,    8806,    8805,    7843,    7842,    7895,    7894
     414,    8704,    8703,    8805,    8804,    7844,    7843,    7894,    7893
     415,    8705,    8704,    8804,    8789,    7845,    7844,    7893,    7878
     416,    8762,    8763,    8771,    8803,    7808,    7807,    7860,    7892
     417,    8761,    8762,    8803,    8802,    7809,    7808,    7892,    7891
     418,    8760,    8761,    8802,    8801,    7810,    7809,    7891,    7890
     419,    8759,    8760,    8801,    8800,    7811,    7810,    7890,    7889
     420,    8758,    8759,    8800,    8799,    7812,    7811,    7889,    7888
     421,    8757,    8758,    8799,    8798,    7813,    7812,    7888,    7887
     422,    8756,    8757,    8798,    8797,    7814,    7813,    7887,    7886
     423,    8755,    8756,    8797,    8770,    7815,    7814,    7886,    7859
     424,    8663,    7379,    7389,    8796,    7846,    7348,    7357,    7885
     425,    8664,    8663,    8796,    8795,    7847,    7846,    7885,    7884
     426,    8665,    8664,    8795,    8794,    7848,    7847,    7884,    7883
     427,    8666,    8665,    8794,    8793,    7849,    7848,    7883,    7882
     428,    8667,    8666,    8793,    8792,    7850,    7849,    7882,    7881
     429,    8668,    8667,    8792,    8791,    7851,    7850,    7881,    7880
     430,    8669,    8668,    8791,    8790,    7852,    7851,    7880,    7879
     431,    8655,    8669,    8790,    8697,    7836,    7852,    7879,    7837
     432,    8727,    8687,    8705,    8789,    7817,    7816,    7845,    7878
     433,    8728,    8727,    8789,    8788,    7818,    7817,    7878,    7877
     434,    8729,    8728,    8788,    8787,    7819,    7818,    7877,    7876
     435,    8730,    8729,    8787,    8786,    7820,    7819,    7876,    7875
     436,    8731,    8730,    8786,    8785,    7821,    7820,    7875,    7874
     437,    8732,    8731,    8785,    8784,    7822,    7821,    7874,    7873
     438,    8733,    8732,    8784,    8783,    7823,    7822,    7873,    7872
     439,    8734,    8733,    8783,    8782,    7824,    7823,    7872,    7871
     440,    8735,    8734,    8782,    8781,    7825,    7824,    7871,    7870
     441,    8736,    8735,    8781,    8780,    7826,    7825,    7870,    7869
     442,    8737,    8736,    8780,    8779,    7827,    7826,    7869,    7868
     443,    8738,    8737,    8779,    8778,    7828,    7827,    7868,    7867
     444,    8739,    8738,    8778,    8777,    7829,    7828,    7867,    7866
     445,    8740,    8739,    8777,    8776,    7830,    7829,    7866,    7865
     446,    8741,    8740,    8776,    8775,    7831,    7830,    7865,    7864
     447,    8742,    8741,    8775,    8774,    7832,    7831,    7864,    7863
     448,    8743,    8742,    8774,    8773,    7833,    7832,    7863,    7862
     449,    8744,    8743,    8773,    8772,    7834,    7833,    7862,    7861
     450,    8745,    8744,    8772,    8771,    7835,    7834,    7861,    7860
     451,    8707,    8745,    8771,    8763,    7806,    7835,    7860,    7807
     452,    8679,    8678,    8755,    8770,    7799,    7798,    7815,    7859
     453,    8680,    8679,    8770,    8769,    7800,    7799,    7859,    7858
     454,    8681,    8680,    8769,    8768,    7801,    7800,    7858,    7857
     455,    8682,    8681,    8768,    8767,    7802,    7801,    7857,    7856
     456,    8683,    8682,    8767,    8766,    7803,    7802,    7856,    7855
     457,    8684,    8683,    8766,    8765,    7804,    7803,    7855,    7854
     458,    8685,    8684,    8765,    8764,    7805,    7804,    7854,    7853
     459,    7377,    8685,    8764,    7385,    7352,    7805,    7853,    7353
     460,    9081,    9060,    9062,    9080,    8922,    8901,    8903,    8921
     461,    9080,    9076,    9077,    9081,    8921,    8917,    8918,    8922
     462,    9073,    9059,    9060,    9081,    8914,    8900,    8901,    8922
     463,    9072,    9073,    9081,    9077,    8913,    8914,    8922,    8918
     464,    9057,    9058,    9076,    9080,    8898,    8899,    8917,    8921
     465,    9056,    9057,    9080,    9062,    8897,    8898,    8921,    8903
     466,    9055,    9056,    9062,    9061,    8896,    8897,    8903,    8902
     467,    9054,    9055,    9061,    9063,    8895,    8896,    8902,    8904
     468,    9053,    9054,    9063,    9064,    8894,    8895,    8904,    8905
     469,    9052,    9053,    9064,    9065,    8893,    8894,    8905,    8906
     470,    9051,    9052,    9065,    9066,    8892,    8893,    8906,    8907
     471,    9069,    9070,    9079,    9078,    8910,    8911,    8920,    8919
     472,    9075,    9078,    9079,    9074,    8916,    8919,    8920,    8915
     473,    9071,    9074,    9079,    9070,    8912,    8915,    8920,    8911
     474,    9050,    9051,    9066,    9067,    8891,    8892,    8907,    8908
     475,    9049,    9050,    9067,    9068,    8890,    8891,    8908,    8909
     476,    9048,    9049,    9068,    9069,    8889,    8890,    8909,    8910
     477,    9047,    9048,    9069,    9078,    8888,    8889,    8910,    8919
     478,    9046,    9047,    9078,    9075,    8887,    8888,    8919,    8916
     479,    9040,    9041,    9072,    9077,    8881,    8882,    8913,    8918
     480,    9039,    9040,    9077,    9076,    8880,    8881,    8918,    8917
     481,    9038,    9039,    9076,    9058,    8879,    8880,    8917,    8899
     482,    9044,    9045,    9046,    9075,    8885,    8886,    8887,    8916
     483,    9043,    9044,    9075,    9074,    8884,    8885,    8916,    8915
     484,    9042,    9043,    9074,    9071,    8883,    8884,    8915,    8912
     485,    9023,    9024,    9059,    9073,    8864,    8865,    8900,    8914
     486,    9022,    9023,    9073,    9072,    8863,    8864,    8914,    8913
     487,    9021,    9022,    9072,    9041,    8862,    8863,    8913,    8882
     488,    9036,    9037,    9042,    9071,    8877,    8878,    8883,    8912
     489,    9035,    9036,    9071,    9070,    8876,    8877,    8912,    8911
     490,    9034,    9035,    9070,    9069,    8875,    8876,    8911,    8910
     491,    9033,    9034,    9069,    9068,    8874,    8875,    8910,    8909
     492,    9032,    9033,    9068,    9067,    8873,    8874,    8909,    8908
     493,    9031,    9032,    9067,    9066,    8872,    8873,    8908,    8907
     494,    9030,    9031,    9066,    9065,    8871,    8872,    8907,    8906
     495,    9029,    9030,    9065,    9064,    8870,    8871,    8906,    8905
     496,    9027,    9029,    9064,    9063,    8868,    8870,    8905,    8904
     497,    9028,    9027,    9063,    9061,    8869,    8868,    8904,    8902
     498,    9028,    9061,    9062,    9060,    8869,    8902,    8903,    8901
     499,    9026,    9028,    9060,    9059,    8867,    8869,    8901,    8900
     500,    9025,    9026,    9059,    9024,    8866,    8867,    8900,    8865
     501,    9019,    9020,    9038,    9058,    8860,    8861,    8879,    8899
     502,    9018,    9019,    9058,    9057,    8859,    8860,    8899,    8898
     503,    9017,    9018,    9057,    9056,    8858,    8859,    8898,    8897
     504,    9016,    9017,    9056,    9055,    8857,    8858,    8897,    8896
     505,    9015,    9016,    9055,    9054,    8856,    8857,    8896,    8895
     506,    9014,    9015,    9054,    9053,    8855,    8856,    8895,    8894
     507,    9013,    9014,    9053,    9052,    8854,    8855,    8894,    8893
     508,    9012,    9013,    9052,    9051,    8853,    8854,    8893,    8892
     509,    9011,    9012,    9051,    9050,    8852,    8853,    8892,    8891
     510,    9010,    9011,    9050,    9049,    8851,    8852,    8891,    8890
     511,    9009,    9010,    9049,    9048,    8850,    8851,    8890,    8889
     512,    9008,    9009,    9048,    9047,    8849,    8850,    8889,    8888
     513,    9007,    9008,    9047,    9046,    8848,    8849,    8888,    8887
     514,    9006,    9007,    9046,    9045,    8847,    8848,    8887,    8886
     515,    9004,    9005,    9006,    9045,    8845,    8846,    8847,    8886
     516,    9003,    9004,    9045,    9044,    8844,    8845,    8886,    8885
     517,    9002,    9003,    9044,    9043,    8843,    8844,    8885,    8884
     518,    9001,    9002,    9043,    9042,    8842,    8843,    8884,    8883
     519,    9000,    9001,    9042,    9037,    8841,    8842,    8883,    8878
     520,    8998,    8999,    9021,    9041,    8839,    8840,    8862,    8882
     521,    8997,    8998,    9041,    9040,    8838,    8839,    8882,    8881
     522,    8996,    8997,    9040,    9039,    8837,    8838,    8881,    8880
     523,    8995,    8996,    9039,    9038,    8836,    8837,    8880,    8879
     524,    8994,    8995,    9038,    9020,    8835,    8836,    8879,    8861
     525,    8992,    8993,    9000,    9037,    8833,    8834,    8841,    8878
     526,    8991,    8992,    9037,    9036,    8832,    8833,    8878,    8877
     527,    8990,    8991,    9036,    9035,    8831,    8832,    8877,    8876
     528,    8989,    8990,    9035,    9034,    8830,    8831,    8876,    8875
     529,    8988,    8989,    9034,    9033,    8829,    8830,    8875,    8874
     530,    8987,    8988,    9033,    9032,    8828,    8829,    8874,    8873
     531,    8986,    8987,    9032,    9031,    8827,    8828,    8873,    8872
     532,    8985,    8986,    9031,    9030,    8826,    8827,    8872,    8871
     533,    8983,    8985,    9030,    9029,    8824,    8826,    8871,    8870
     534,    8984,    8983,    9029,    9027,    8825,    8824,    8870,    8868
     535,    8984,    9027,    9028,    9026,    8825,    8868,    8869,    8867
     536,    8982,    8984,    9026,    9025,    8823,    8825,    8867,    8866
     537,    8980,    8981,    8982,    9025,    8821,    8822,    8823,    8866
     538,    8979,    8980,    9025,    9024,    8820,    8821,    8866,    8865
     539,    8978,    8979,    9024,    9023,    8819,    8820,    8865,    8864
     540,    8977,    8978,    9023,    9022,    8818,    8819,    8864,    8863
     541,    8976,    8977,    9022,    9021,    8817,    8818,    8863,    8862
     542,    8975,    8976,    9021,    8999,    8816,    8817,    8862,    8840
     543,    8946,    8947,    8994,    9020,    8787,    8788,    8835,    8861
     544,    8945,    8946,    9020,    9019,    8786,    8787,    8861,    8860
     545,    8944,    8945,    9019,    9018,    8785,    8786,    8860,    8859
     546,    8943,    8944,    9018,    9017,    8784,    8785,    8859,    8858
     547,    8942,    8943,    9017,    9016,    8783,    8784,    8858,    8857
     548,    8941,    8942,    9016,    9015,    8782,    8783,    8857,    8856
     549,    8940,    8941,    9015,    9014,    8781,    8782,    8856,    8855
     550,    8939,    8940,    9014,    9013,    8780,    8781,    8855,    8854
     551,    8938,    8939,    9013,    9012,    8779,    8780,    8854,    8853
     552,    8937,    8938,    9012,    9011,    8778,    8779,    8853,    8852
     553,    8936,    8937,    9011,    9010,    8777,    8778,    8852,    8851
     554,    8935,    8936,    9010,    9009,    8776,    8777,    8851,    8850
     555,    8934,    8935,    9009,    9008,    8775,    8776,    8850,    8849
     556,    8933,    8934,    9008,    9007,    8774,    8775,    8849,    8848
     557,    8932,    8933,    9007,    9006,    8773,    8774,    8848,    8847
     558,    8931,    8932,    9006,    9005,    8772,    8773,    8847,    8846
     559,    8962,    8930,    8931,    9005,    8803,    8771,    8772,    8846
     560,    8961,    8962,    9005,    9004,    8802,    8803,    8846,    8845
     561,    8960,    8961,    9004,    9003,    8801,    8802,    8845,    8844
     562,    8959,    8960,    9003,    9002,    8800,    8801,    8844,    8843
     563,    8958,    8959,    9002,    9001,    8799,    8800,    8843,    8842
     564,    8957,    8958,    9001,    9000,    8798,    8799,    8842,    8841
     565,    8956,    8957,    9000,    8993,    8797,    8798,    8841,    8834
     566,    8968,    8969,    8975,    8999,    8809,    8810,    8816,    8840
     567,    8967,    8968,    8999,    8998,    8808,    8809,    8840,    8839
     568,    8966,    8967,    8998,    8997,    8807,    8808,    8839,    8838
     569,    8965,    8966,    8997,    8996,    8806,    8807,    8838,    8837
     570,    8964,    8965,    8996,    8995,    8805,    8806,    8837,    8836
     571,    8963,    8964,    8995,    8994,    8804,    8805,    8836,    8835
     572,    8948,    8963,    8994,    8947,    8789,    8804,    8835,    8788
     573,    8928,    8929,    8956,    8993,    8769,    8770,    8797,    8834
     574,    8927,    8928,    8993,    8992,    8768,    8769,    8834,    8833
     575,    8926,    8927,    8992,    8991,    8767,    8768,    8833,    8832
     576,    8925,    8926,    8991,    8990,    8766,    8767,    8832,    8831
     577,    8924,    8925,    8990,    8989,    8765,    8766,    8831,    8830
     578,    8923,    8924,    8989,    8988,    8764,    8765,    8830,    8829
     579,    8974,    8923,    8988,    8987,    8815,    8764,    8829,    8828
     580,    8973,    8974,    8987,    8986,    8814,    8815,    8828,    8827
     581,    8971,    8973,    8986,    8985,    8812,    8814,    8827,    8826
     582,    8972,    8971,    8985,    8983,    8813,    8812,    8826,    8824
     583,    8972,    8983,    8984,    8982,    8813,    8824,    8825,    8823
     584,    8970,    8972,    8982,    8981,    8811,    8813,    8823,    8822
     585,    8955,    8970,    8981,    8980,    8796,    8811,    8822,    8821
     586,    8954,    8955,    8980,    8979,    8795,    8796,    8821,    8820
     587,    8953,    8954,    8979,    8978,    8794,    8795,    8820,    8819
     588,    8952,    8953,    8978,    8977,    8793,    8794,    8819,    8818
     589,    8951,    8952,    8977,    8976,    8792,    8793,    8818,    8817
     590,    8950,    8951,    8976,    8975,    8791,    8792,    8817,    8816
     591,    8949,    8950,    8975,    8969,    8790,    8791,    8816,    8810
     592,    7381,    7380,    8923,    8974,    7386,    7385,    8764,    8815
     593,    7382,    7381,    8974,    8973,    7387,    7386,    8815,    8814
     594,    7383,    7382,    8973,    8971,    7388,    7387,    8814,    8812
     595,    7383,    8971,    8972,    8970,    7388,    8812,    8813,    8811
     596,    7384,    7383,    8970,    8955,    7389,    7388,    8811,    8796
     597,    8689,    8688,    8949,    8969,    8698,    8697,    8790,    8810
     598,    8690,    8689,    8969,    8968,    8699,    8698,    8810,    8809
     599,    8691,    8690,    8968,    8967,    8700,    8699,    8809,    8808
     600,    8692,    8691,    8967,    8966,    8701,    8700,    8808,    8807
     601,    8693,    8692,    8966,    8965,    8702,    8701,    8807,    8806
     602,    8694,    8693,    8965,    8964,    8703,    8702,    8806,    8805
     603,    8695,    8694,    8964,    8963,    8704,    8703,    8805,    8804
     604,    8696,    8695,    8963,    8948,    8705,    8704,    8804,    8789
     605,    8753,    8754,    8930,    8962,    8762,    8763,    8771,    8803
     606,    8752,    8753,    8962,    8961,    8761,    8762,    8803,    8802
     607,    8751,    8752,    8961,    8960,    8760,    8761,    8802,    8801
     608,    8750,    8751,    8960,    8959,    8759,    8760,    8801,    8800
     609,    8749,    8750,    8959,    8958,    8758,    8759,    8800,    8799
     610,    8748,    8749,    8958,    8957,    8757,    8758,    8799,    8798
     611,    8747,    8748,    8957,    8956,    8756,    8757,    8798,    8797
     612,    8746,    8747,    8956,    8929,    8755,    8756,    8797,    8770
     613,    8662,    7378,    7384,    8955,    8663,    7379,    7389,    8796
     614,    8661,    8662,    8955,    8954,    8664,    8663,    8796,    8795
     615,    8660,    8661,    8954,    8953,    8665,    8664,    8795,    8794
     616,    8659,    8660,    8953,    8952,    8666,    8665,    8794,    8793
     617,    8658,    8659,    8952,    8951,    8667,    8666,    8793,    8792
     618,    8657,    8658,    8951,    8950,    8668,    8667,    8792,    8791
     619,    8656,    8657,    8950,    8949,    8669,    8668,    8791,    8790
     620,    8654,    8656,    8949,    8688,    8655,    8669,    8790,    8697
     621,    8726,    8686,    8696,    8948,    8727,    8687,    8705,    8789
     622,    8725,    8726,    8948,    8947,    8728,    8727,    8789,    8788
     623,    8724,    8725,    8947,    8946,    8729,    8728,    8788,    8787
     624,    8723,    8724,    8946,    8945,    8730,    8729,    8787,    8786
     625,    8722,    8723,    8945,    8944,    8731,    8730,    8786,    8785
     626,    8721,    8722,    8944,    8943,    8732,    8731,    8785,    8784
     627,    8720,    8721,    8943,    8942,    8733,    8732,    8784,    8783
     628,    8719,    8720,    8942,    8941,    8734,    8733,    8783,    8782
     629,    8718,    8719,    8941,    8940,    8735,    8734,    8782,    8781
     630,    8717,    8718,    8940,    8939,    8736,    8735,    8781,    8780
     631,    8716,    8717,    8939,    8938,    8737,    8736,    8780,    8779
     632,    8715,    8716,    8938,    8937,    8738,    8737,    8779,    8778
     633,    8714,    8715,    8937,    8936,    8739,    8738,    8778,    8777
     634,    8713,    8714,    8936,    8935,    8740,    8739,    8777,    8776
     635,    8712,    8713,    8935,    8934,    8741,    8740,    8776,    8775
     636,    8711,    8712,    8934,    8933,    8742,    8741,    8775,    8774
     637,    8710,    8711,    8933,    8932,    8743,    8742,    8774,    8773
     638,    8709,    8710,    8932,    8931,    8744,    8743,    8773,    8772
     639,    8708,    8709,    8931,    8930,    8745,    8744,    8772,    8771
     640,    8706,    8708,    8930,    8754,    8707,    8745,    8771,    8763
     641,    8677,    8670,    8746,    8929,    8679,    8678,    8755,    8770
     642,    8676,    8677,    8929,    8928,    8680,    8679,    8770,    8769
     643,    8675,    8676,    8928,    8927,    8681,    8680,    8769,    8768
     644,    8674,    8675,    8927,    8926,    8682,    8681,    8768,    8767
     645,    8673,    8674,    8926,    8925,    8683,    8682,    8767,    8766
     646,    8672,    8673,    8925,    8924,    8684,    8683,    8766,    8765
     647,    8671,    8672,    8924,    8923,    8685,    8684,    8765,    8764
     648,    7376,    8671,    8923,    7380,    7377,    8685,    8764,    7385
     649,    8011,    7990,    7991,    8010,    8335,    8314,    8315,    8334
     650,    8010,    8003,    8004,    8011,    8334,    8330,    8331,    8335
     651,    8000,    7989,    7990,    8011,    8327,    8313,    8314,    8335
     652,    7999,    8000,    8011,    8004,    8326,    8327,    8335,    8331
     653,    7987,    7988,    8003,    8010,    8311,    8312,    8330,    8334
     654,    7986,    7987,    8010,    7991,    8310,    8311,    8334,    8315
     655,    7985,    7986,    7991,    7992,    8309,    8310,    8315,    8316
     656,    7984,    7985,    7992,    7993,    8308,    8309,    8316,    8317
     657,    7983,    7984,    7993,    7994,    8307,    8308,    8317,    8318
     658,    7982,    7983,    7994,    7995,    8306,    8307,    8318,    8319
     659,    7981,    7982,    7995,    7996,    8305,    8306,    8319,    8320
     660,    8006,    7997,    8009,    8005,    8323,    8324,    8333,    8332
     661,    8002,    8005,    8009,    8001,    8329,    8332,    8333,    8328
     662,    7998,    8001,    8009,    7997,    8325,    8328,    8333,    8324
     663,    7980,    7981,    7996,    8008,    8304,    8305,    8320,    8321
     664,    7979,    7980,    8008,    8007,    8303,    8304,    8321,    8322
     665,    7978,    7979,    8007,    8006,    8302,    8303,    8322,    8323
     666,    7977,    7978,    8006,    8005,    8301,    8302,    8323,    8332
     667,    7976,    7977,    8005,    8002,    8300,    8301,    8332,    8329
     668,    7970,    7971,    7999,    8004,    8294,    8295,    8326,    8331
     669,    7969,    7970,    8004,    8003,    8293,    8294,    8331,    8330
     670,    7968,    7969,    8003,    7988,    8292,    8293,    8330,    8312
     671,    7974,    7975,    7976,    8002,    8298,    8299,    8300,    8329
     672,    7973,    7974,    8002,    8001,    8297,    8298,    8329,    8328
     673,    7972,    7973,    8001,    7998,    8296,    8297,    8328,    8325
     674,    7953,    7954,    7989,    8000,    8277,    8278,    8313,    8327
     675,    7952,    7953,    8000,    7999,    8276,    8277,    8327,    8326
     676,    7951,    7952,    7999,    7971,    8275,    8276,    8326,    8295
     677,    7966,    7967,    7972,    7998,    8290,    8291,    8296,    8325
     678,    7965,    7966,    7998,    7997,    8289,    8290,    8325,    8324
     679,    7964,    7965,    7997,    8006,    8288,    8289,    8324,    8323
     680,    7963,    7964,    8006,    8007,    8287,    8288,    8323,    8322
     681,    7962,    7963,    8007,    8008,    8286,    8287,    8322,    8321
     682,    7961,    7962,    8008,    7996,    8285,    8286,    8321,    8320
     683,    7960,    7961,    7996,    7995,    8284,    8285,    8320,    8319
     684,    7959,    7960,    7995,    7994,    8283,    8284,    8319,    8318
     685,    7958,    7959,    7994,    7993,    8282,    8283,    8318,    8317
     686,    7957,    7958,    7993,    7992,    8281,    8282,    8317,    8316
     687,    7957,    7992,    7991,    7990,    8281,    8316,    8315,    8314
     688,    7956,    7957,    7990,    7989,    8280,    8281,    8314,    8313
     689,    7955,    7956,    7989,    7954,    8279,    8280,    8313,    8278
     690,    7949,    7950,    7968,    7988,    8273,    8274,    8292,    8312
     691,    7948,    7949,    7988,    7987,    8272,    8273,    8312,    8311
     692,    7947,    7948,    7987,    7986,    8271,    8272,    8311,    8310
     693,    7946,    7947,    7986,    7985,    8270,    8271,    8310,    8309
     694,    7945,    7946,    7985,    7984,    8269,    8270,    8309,    8308
     695,    7944,    7945,    7984,    7983,    8268,    8269,    8308,    8307
     696,    7943,    7944,    7983,    7982,    8267,    8268,    8307,    8306
     697,    7942,    7943,    7982,    7981,    8266,    8267,    8306,    8305
     698,    7941,    7942,    7981,    7980,    8265,    8266,    8305,    8304
     699,    7940,    7941,    7980,    7979,    8264,    8265,    8304,    8303
     700,    7939,    7940,    7979,    7978,    8263,    8264,    8303,    8302
     701,    7938,    7939,    7978,    7977,    8262,    8263,    8302,    8301
     702,    7937,    7938,    7977,    7976,    8261,    8262,    8301,    8300
     703,    7936,    7937,    7976,    7975,    8260,    8261,    8300,    8299
     704,    7934,    7935,    7936,    7975,    8258,    8259,    8260,    8299
     705,    7933,    7934,    7975,    7974,    8257,    8258,    8299,    8298
     706,    7932,    7933,    7974,    7973,    8256,    8257,    8298,    8297
     707,    7931,    7932,    7973,    7972,    8255,    8256,    8297,    8296
     708,    7930,    7931,    7972,    7967,    8254,    8255,    8296,    8291
     709,    7928,    7929,    7951,    7971,    8252,    8253,    8275,    8295
     710,    7927,    7928,    7971,    7970,    8251,    8252,    8295,    8294
     711,    7926,    7927,    7970,    7969,    8250,    8251,    8294,    8293
     712,    7925,    7926,    7969,    7968,    8249,    8250,    8293,    8292
     713,    7924,    7925,    7968,    7950,    8248,    8249,    8292,    8274
     714,    7922,    7923,    7930,    7967,    8246,    8247,    8254,    8291
     715,    7921,    7922,    7967,    7966,    8245,    8246,    8291,    8290
     716,    7920,    7921,    7966,    7965,    8244,    8245,    8290,    8289
     717,    7919,    7920,    7965,    7964,    8243,    8244,    8289,    8288
     718,    7918,    7919,    7964,    7963,    8242,    8243,    8288,    8287
     719,    7917,    7918,    7963,    7962,    8241,    8242,    8287,    8286
     720,    7916,    7917,    7962,    7961,    8240,    8241,    8286,    8285
     721,    7915,    7916,    7961,    7960,    8239,    8240,    8285,    8284
     722,    7914,    7915,    7960,    7959,    8238,    8239,    8284,    8283
     723,    7913,    7914,    7959,    7958,    8237,    8238,    8283,    8282
     724,    7913,    7958,    7957,    7956,    8237,    8282,    8281,    8280
     725,    7912,    7913,    7956,    7955,    8236,    8237,    8280,    8279
     726,    7910,    7911,    7912,    7955,    8234,    8235,    8236,    8279
     727,    7909,    7910,    7955,    7954,    8233,    8234,    8279,    8278
     728,    7908,    7909,    7954,    7953,    8232,    8233,    8278,    8277
     729,    7907,    7908,    7953,    7952,    8231,    8232,    8277,    8276
     730,    7906,    7907,    7952,    7951,    8230,    8231,    8276,    8275
     731,    7905,    7906,    7951,    7929,    8229,    8230,    8275,    8253
     732,    7876,    7877,    7924,    7950,    8200,    8201,    8248,    8274
     733,    7875,    7876,    7950,    7949,    8199,    8200,    8274,    8273
     734,    7874,    7875,    7949,    7948,    8198,    8199,    8273,    8272
     735,    7873,    7874,    7948,    7947,    8197,    8198,    8272,    8271
     736,    7872,    7873,    7947,    7946,    8196,    8197,    8271,    8270
     737,    7871,    7872,    7946,    7945,    8195,    8196,    8270,    8269
     738,    7870,    7871,    7945,    7944,    8194,    8195,    8269,    8268
     739,    7869,    7870,    7944,    7943,    8193,    8194,    8268,    8267
     740,    7868,    7869,    7943,    7942,    8192,    8193,    8267,    8266
     741,    7867,    7868,    7942,    7941,    8191,    8192,    8266,    8265
     742,    7866,    7867,    7941,    7940,    8190,    8191,    8265,    8264
     743,    7865,    7866,    7940,    7939,    8189,    8190,    8264,    8263
     744,    7864,    7865,    7939,    7938,    8188,    8189,    8263,    8262
     745,    7863,    7864,    7938,    7937,    8187,    8188,    8262,    8261
     746,    7862,    7863,    7937,    7936,    8186,    8187,    8261,    8260
     747,    7861,    7862,    7936,    7935,    8185,    8186,    8260,    8259
     748,    7892,    7860,    7861,    7935,    8216,    8184,    8185,    8259
     749,    7891,    7892,    7935,    7934,    8215,    8216,    8259,    8258
     750,    7890,    7891,    7934,    7933,    8214,    8215,    8258,    8257
     751,    7889,    7890,    7933,    7932,    8213,    8214,    8257,    8256
     752,    7888,    7889,    7932,    7931,    8212,    8213,    8256,    8255
     753,    7887,    7888,    7931,    7930,    8211,    8212,    8255,    8254
     754,    7886,    7887,    7930,    7923,    8210,    8211,    8254,    8247
     755,    7898,    7899,    7905,    7929,    8222,    8223,    8229,    8253
     756,    7897,    7898,    7929,    7928,    8221,    8222,    8253,    8252
     757,    7896,    7897,    7928,    7927,    8220,    8221,    8252,    8251
     758,    7895,    7896,    7927,    7926,    8219,    8220,    8251,    8250
     759,    7894,    7895,    7926,    7925,    8218,    8219,    8250,    8249
     760,    7893,    7894,    7925,    7924,    8217,    8218,    8249,    8248
     761,    7878,    7893,    7924,    7877,    8202,    8217,    8248,    8201
     762,    7858,    7859,    7886,    7923,    8182,    8183,    8210,    8247
     763,    7857,    7858,    7923,    7922,    8181,    8182,    8247,    8246
     764,    7856,    7857,    7922,    7921,    8180,    8181,    8246,    8245
     765,    7855,    7856,    7921,    7920,    8179,    8180,    8245,    8244
     766,    7854,    7855,    7920,    7919,    8178,    8179,    8244,    8243
     767,    7853,    7854,    7919,    7918,    8177,    8178,    8243,    8242
     768,    7904,    7853,    7918,    7917,    8228,    8177,    8242,    8241
     769,    7903,    7904,    7917,    7916,    8227,    8228,    8241,    8240
     770,    7902,    7903,    7916,    7915,    8226,    8227,    8240,    8239
     771,    7901,    7902,    7915,    7914,    8225,    8226,    8239,    8238
     772,    7901,    7914,    7913,    7912,    8225,    8238,    8237,    8236
     773,    7900,    7901,    7912,    7911,    8224,    8225,    8236,    8235
     774,    7885,    7900,    7911,    7910,    8209,    8224,    8235,    8234
     775,    7884,    7885,    7910,    7909,    8208,    8209,    8234,    8233
     776,    7883,    7884,    7909,    7908,    8207,    8208,    8233,    8232
     777,    7882,    7883,    7908,    7907,    8206,    8207,    8232,    8231
     778,    7881,    7882,    7907,    7906,    8205,    8206,    8231,    8230
     779,    7880,    7881,    7906,    7905,    8204,    8205,    8230,    8229
     780,    7879,    7880,    7905,    7899,    8203,    8204,    8229,    8223
     781,    7354,    7353,    7853,    7904,    7373,    7375,    8177,    8228
     782,    7355,    7354,    7904,    7903,    7371,    7373,    8228,    8227
     783,    7356,    7355,    7903,    7902,    7369,    7371,    8227,    8226
     784,    7356,    7902,    7901,    7900,    7369,    8226,    8225,    8224
     785,    7357,    7356,    7900,    7885,    7367,    7369,    8224,    8209
     786,    7838,    7837,    7879,    7899,    8161,    8159,    8203,    8223
     787,    7839,    7838,    7899,    7898,    8163,    8161,    8223,    8222
     788,    7840,    7839,    7898,    7897,    8165,    8163,    8222,    8221
     789,    7841,    7840,    7897,    7896,    8167,    8165,    8221,    8220
     790,    7842,    7841,    7896,    7895,    8169,    8167,    8220,    8219
     791,    7843,    7842,    7895,    7894,    8171,    8169,    8219,    8218
     792,    7844,    7843,    7894,    7893,    8173,    8171,    8218,    8217
     793,    7845,    7844,    7893,    7878,    8175,    8173,    8217,    8202
     794,    7808,    7807,    7860,    7892,    8087,    8089,    8184,    8216
     795,    7809,    7808,    7892,    7891,    8085,    8087,    8216,    8215
     796,    7810,    7809,    7891,    7890,    8083,    8085,    8215,    8214
     797,    7811,    7810,    7890,    7889,    8081,    8083,    8214,    8213
     798,    7812,    7811,    7889,    7888,    8079,    8081,    8213,    8212
     799,    7813,    7812,    7888,    7887,    8077,    8079,    8212,    8211
     800,    7814,    7813,    7887,    7886,    8075,    8077,    8211,    8210
     801,    7815,    7814,    7886,    7859,    8073,    8075,    8210,    8183
     802,    7846,    7348,    7357,    7885,    8052,    7350,    7367,    8209
     803,    7847,    7846,    7885,    7884,    8051,    8052,    8209,    8208
     804,    7848,    7847,    7884,    7883,    8050,    8051,    8208,    8207
     805,    7849,    7848,    7883,    7882,    8049,    8050,    8207,    8206
     806,    7850,    7849,    7882,    7881,    8048,    8049,    8206,    8205
     807,    7851,    7850,    7881,    7880,    8047,    8048,    8205,    8204
     808,    7852,    7851,    7880,    7879,    8046,    8047,    8204,    8203
     809,    7836,    7852,    7879,    7837,    8045,    8046,    8203,    8159
     810,    7817,    7816,    7845,    7878,    8130,    8091,    8175,    8202
     811,    7818,    7817,    7878,    7877,    8129,    8130,    8202,    8201
     812,    7819,    7818,    7877,    7876,    8128,    8129,    8201,    8200
     813,    7820,    7819,    7876,    7875,    8127,    8128,    8200,    8199
     814,    7821,    7820,    7875,    7874,    8126,    8127,    8199,    8198
     815,    7822,    7821,    7874,    7873,    8125,    8126,    8198,    8197
     816,    7823,    7822,    7873,    7872,    8124,    8125,    8197,    8196
     817,    7824,    7823,    7872,    7871,    8123,    8124,    8196,    8195
     818,    7825,    7824,    7871,    7870,    8122,    8123,    8195,    8194
     819,    7826,    7825,    7870,    7869,    8121,    8122,    8194,    8193
     820,    7827,    7826,    7869,    7868,    8120,    8121,    8193,    8192
     821,    7828,    7827,    7868,    7867,    8119,    8120,    8192,    8191
     822,    7829,    7828,    7867,    7866,    8118,    8119,    8191,    8190
     823,    7830,    7829,    7866,    7865,    8117,    8118,    8190,    8189
     824,    7831,    7830,    7865,    7864,    8116,    8117,    8189,    8188
     825,    7832,    7831,    7864,    7863,    8115,    8116,    8188,    8187
     826,    7833,    7832,    7863,    7862,    8114,    8115,    8187,    8186
     827,    7834,    7833,    7862,    7861,    8113,    8114,    8186,    8185
     828,    7835,    7834,    7861,    7860,    8112,    8113,    8185,    8184
     829,    7806,    7835,    7860,    7807,    8062,    8112,    8184,    8089
     830,    7799,    7798,    7815,    7859,    8028,    8013,    8073,    8183
     831,    7800,    7799,    7859,    7858,    8027,    8028,    8183,    8182
     832,    7801,    7800,    7858,    7857,    8026,    8027,    8182,    8181
     833,    7802,    7801,    7857,    7856,    8025,    8026,    8181,    8180
     834,    7803,    7802,    7856,    7855,    8024,    8025,    8180,    8179
     835,    7804,    7803,    7855,    7854,    8023,    8024,    8179,    8178
     836,    7805,    7804,    7854,    7853,    8022,    8023,    8178,    8177
     837,    7352,    7805,    7853,    7353,    7360,    8022,    8177,    7375
     838,    8335,    8314,    8315,    8334,    8494,    8473,    8474,    8493
     839,    8334,    8330,    8331,    8335,    8493,    8489,    8490,    8494
     840,    8327,    8313,    8314,    8335,    8486,    8472,    8473,    8494
     841,    8326,    8327,    8335,    8331,    8485,    8486,    8494,    8490
     842,    8311,    8312,    8330,    8334,    8470,    8471,    8489,    8493
     843,    8310,    8311,    8334,    8315,    8469,    8470,    8493,    8474
     844,    8309,    8310,    8315,    8316,    8468,    8469,    8474,    8475
     845,    8308,    8309,    8316,    8317,    8467,    8468,    8475,    8476
     846,    8307,    8308,    8317,    8318,    8466,    8467,    8476,    8477
     847,    8306,    8307,    8318,    8319,    8465,    8466,    8477,    8478
     848,    8305,    8306,    8319,    8320,    8464,    8465,    8478,    8479
     849,    8323,    8324,    8333,    8332,    8482,    8483,    8492,    8491
     850,    8329,    8332,    8333,    8328,    8488,    8491,    8492,    8487
     851,    8325,    8328,    8333,    8324,    8484,    8487,    8492,    8483
     852,    8304,    8305,    8320,    8321,    8463,    8464,    8479,    8480
     853,    8303,    8304,    8321,    8322,    8462,    8463,    8480,    8481
     854,    8302,    8303,    8322,    8323,    8461,    8462,    8481,    8482
     855,    8301,    8302,    8323,    8332,    8460,    8461,    8482,    8491
     856,    8300,    8301,    8332,    8329,    8459,    8460,    8491,    8488
     857,    8294,    8295,    8326,    8331,    8453,    8454,    8485,    8490
     858,    8293,    8294,    8331,    8330,    8452,    8453,    8490,    8489
     859,    8292,    8293,    8330,    8312,    8451,    8452,    8489,    8471
     860,    8298,    8299,    8300,    8329,    8457,    8458,    8459,    8488
     861,    8297,    8298,    8329,    8328,    8456,    8457,    8488,    8487
     862,    8296,    8297,    8328,    8325,    8455,    8456,    8487,    8484
     863,    8277,    8278,    8313,    8327,    8436,    8437,    8472,    8486
     864,    8276,    8277,    8327,    8326,    8435,    8436,    8486,    8485
     865,    8275,    8276,    8326,    8295,    8434,    8435,    8485,    8454
     866,    8290,    8291,    8296,    8325,    8449,    8450,    8455,    8484
     867,    8289,    8290,    8325,    8324,    8448,    8449,    8484,    8483
     868,    8288,    8289,    8324,    8323,    8447,    8448,    8483,    8482
     869,    8287,    8288,    8323,    8322,    8446,    8447,    8482,    8481
     870,    8286,    8287,    8322,    8321,    8445,    8446,    8481,    8480
     871,    8285,    8286,    8321,    8320,    8444,    8445,    8480,    8479
     872,    8284,    8285,    8320,    8319,    8443,    8444,    8479,    8478
     873,    8283,    8284,    8319,    8318,    8442,    8443,    8478,    8477
     874,    8282,    8283,    8318,    8317,    8441,    8442,    8477,    8476
     875,    8281,    8282,    8317,    8316,    8440,    8441,    8476,    8475
     876,    8281,    8316,    8315,    8314,    8440,    8475,    8474,    8473
     877,    8280,    8281,    8314,    8313,    8439,    8440,    8473,    8472
     878,    8279,    8280,    8313,    8278,    8438,    8439,    8472,    8437
     879,    8273,    8274,    8292,    8312,    8432,    8433,    8451,    8471
     880,    8272,    8273,    8312,    8311,    8431,    8432,    8471,    8470
     881,    8271,    8272,    8311,    8310,    8430,    8431,    8470,    8469
     882,    8270,    8271,    8310,    8309,    8429,    8430,    8469,    8468
     883,    8269,    8270,    8309,    8308,    8428,    8429,    8468,    8467
     884,    8268,    8269,    8308,    8307,    8427,    8428,    8467,    8466
     885,    8267,    8268,    8307,    8306,    8426,    8427,    8466,    8465
     886,    8266,    8267,    8306,    8305,    8425,    8426,    8465,    8464
     887,    8265,    8266,    8305,    8304,    8424,    8425,    8464,    8463
     888,    8264,    8265,    8304,    8303,    8423,    8424,    8463,    8462
     889,    8263,    8264,    8303,    8302,    8422,    8423,    8462,    8461
     890,    8262,    8263,    8302,    8301,    8421,    8422,    8461,    8460
     891,    8261,    8262,    8301,    8300,    8420,    8421,    8460,    8459
     892,    8260,    8261,    8300,    8299,    8419,    8420,    8459,    8458
     893,    8258,    8259,    8260,    8299,    8417,    8418,    8419,    8458
     894,    8257,    8258,    8299,    8298,    8416,    8417,    8458,    8457
     895,    8256,    8257,    8298,    8297,    8415,    8416,    8457,    8456
     896,    8255,    8256,    8297,    8296,    8414,    8415,    8456,    8455
     897,    8254,    8255,    8296,    8291,    8413,    8414,    8455,    8450
     898,    8252,    8253,    8275,    8295,    8411,    8412,    8434,    8454
     899,    8251,    8252,    8295,    8294,    8410,    8411,    8454,    8453
     900,    8250,    8251,    8294,    8293,    8409,    8410,    8453,    8452
     901,    8249,    8250,    8293,    8292,    8408,    8409,    8452,    8451
     902,    8248,    8249,    8292,    8274,    8407,    8408,    8451,    8433
     903,    8246,    8247,    8254,    8291,    8405,    8406,    8413,    8450
     904,    8245,    8246,    8291,    8290,    8404,    8405,    8450,    8449
     905,    8244,    8245,    8290,    8289,    8403,    8404,    8449,    8448
     906,    8243,    8244,    8289,    8288,    8402,    8403,    8448,    8447
     907,    8242,    8243,    8288,    8287,    8401,    8402,    8447,    8446
     908,    8241,    8242,    8287,    8286,    8400,    8401,    8446,    8445
     909,    8240,    8241,    8286,    8285,    8399,    8400,    8445,    8444
     910,    8239,    8240,    8285,    8284,    8398,    8399,    8444,    8443
     911,    8238,    8239,    8284,    8283,    8397,    8398,    8443,    8442
     912,    8237,    8238,    8283,    8282,    8396,    8397,    8442,    8441
     913,    8237,    8282,    8281,    8280,    8396,    8441,    8440,    8439
     914,    8236,    8237,    8280,    8279,    8395,    8396,    8439,    8438
     915,    8234,    8235,    8236,    8279,    8393,    8394,    8395,    8438
     916,    8233,    8234,    8279,    8278,    8392,    8393,    8438,    8437
     917,    8232,    8233,    8278,    8277,    8391,    8392,    8437,    8436
     918,    8231,    8232,    8277,    8276,    8390,    8391,    8436,    8435
     919,    8230,    8231,    8276,    8275,    8389,    8390,    8435,    8434
     920,    8229,    8230,    8275,    8253,    8388,    8389,    8434,    8412
     921,    8200,    8201,    8248,    8274,    8359,    8360,    8407,    8433
     922,    8199,    8200,    8274,    8273,    8358,    8359,    8433,    8432
     923,    8198,    8199,    8273,    8272,    8357,    8358,    8432,    8431
     924,    8197,    8198,    8272,    8271,    8356,    8357,    8431,    8430
     925,    8196,    8197,    8271,    8270,    8355,    8356,    8430,    8429
     926,    8195,    8196,    8270,    8269,    8354,    8355,    8429,    8428
     927,    8194,    8195,    8269,    8268,    8353,    8354,    8428,    8427
     928,    8193,    8194,    8268,    8267,    8352,    8353,    8427,    8426
     929,    8192,    8193,    8267,    8266,    8351,    8352,    8426,    8425
     930,    8191,    8192,    8266,    8265,    8350,    8351,    8425,    8424
     931,    8190,    8191,    8265,    8264,    8349,    8350,    8424,    8423
     932,    8189,    8190,    8264,    8263,    8348,    8349,    8423,    8422
     933,    8188,    8189,    8263,    8262,    8347,    8348,    8422,    8421
     934,    8187,    8188,    8262,    8261,    8346,    8347,    8421,    8420
     935,    8186,    8187,    8261,    8260,    8345,    8346,    8420,    8419
     936,    8185,    8186,    8260,    8259,    8344,    8345,    8419,    8418
     937,    8216,    8184,    8185,    8259,    8375,    8343,    8344,    8418
     938,    8215,    8216,    8259,    8258,    8374,    8375,    8418,    8417
     939,    8214,    8215,    8258,    8257,    8373,    8374,    8417,    8416
     940,    8213,    8214,    8257,    8256,    8372,    8373,    8416,    8415
     941,    8212,    8213,    8256,    8255,    8371,    8372,    8415,    8414
     942,    8211,    8212,    8255,    8254,    8370,    8371,    8414,    8413
     943,    8210,    8211,    8254,    8247,    8369,    8370,    8413,    8406
     944,    8222,    8223,    8229,    8253,    8381,    8382,    8388,    8412
     945,    8221,    8222,    8253,    8252,    8380,    8381,    8412,    8411
     946,    8220,    8221,    8252,    8251,    8379,    8380,    8411,    8410
     947,    8219,    8220,    8251,    8250,    8378,    8379,    8410,    8409
     948,    8218,    8219,    8250,    8249,    8377,    8378,    8409,    8408
     949,    8217,    8218,    8249,    8248,    8376,    8377,    8408,    8407
     950,    8202,    8217,    8248,    8201,    8361,    8376,    8407,    8360
     951,    8182,    8183,    8210,    8247,    8341,    8342,    8369,    8406
     952,    8181,    8182,    8247,    8246,    8340,    8341,    8406,    8405
     953,    8180,    8181,    8246,    8245,    8339,    8340,    8405,    8404
     954,    8179,    8180,    8245,    8244,    8338,    8339,    8404,    8403
     955,    8178,    8179,    8244,    8243,    8337,    8338,    8403,    8402
     956,    8177,    8178,    8243,    8242,    8336,    8337,    8402,    8401
     957,    8228,    8177,    8242,    8241,    8387,    8336,    8401,    8400
     958,    8227,    8228,    8241,    8240,    8386,    8387,    8400,    8399
     959,    8226,    8227,    8240,    8239,    8385,    8386,    8399,    8398
     960,    8225,    8226,    8239,    8238,    8384,    8385,    8398,    8397
     961,    8225,    8238,    8237,    8236,    8384,    8397,    8396,    8395
     962,    8224,    8225,    8236,    8235,    8383,    8384,    8395,    8394
     963,    8209,    8224,    8235,    8234,    8368,    8383,    8394,    8393
     964,    8208,    8209,    8234,    8233,    8367,    8368,    8393,    8392
     965,    8207,    8208,    8233,    8232,    8366,    8367,    8392,    8391
     966,    8206,    8207,    8232,    8231,    8365,    8366,    8391,    8390
     967,    8205,    8206,    8231,    8230,    8364,    8365,    8390,    8389
     968,    8204,    8205,    8230,    8229,    8363,    8364,    8389,    8388
     969,    8203,    8204,    8229,    8223,    8362,    8363,    8388,    8382
     970,    7373,    7375,    8177,    8228,    7372,    7374,    8336,    8387
     971,    7371,    7373,    8228,    8227,    7370,    7372,    8387,    8386
     972,    7369,    7371,    8227,    8226,    7368,    7370,    8386,    8385
     973,    7369,    8226,    8225,    8224,    7368,    8385,    8384,    8383
     974,    7367,    7369,    8224,    8209,    7366,    7368,    8383,    8368
     975,    8161,    8159,    8203,    8223,    8162,    8160,    8362,    8382
     976,    8163,    8161,    8223,    8222,    8164,    8162,    8382,    8381
     977,    8165,    8163,    8222,    8221,    8166,    8164,    8381,    8380
     978,    8167,    8165,    8221,    8220,    8168,    8166,    8380,    8379
     979,    8169,    8167,    8220,    8219,    8170,    8168,    8379,    8378
     980,    8171,    8169,    8219,    8218,    8172,    8170,    8378,    8377
     981,    8173,    8171,    8218,    8217,    8174,    8172,    8377,    8376
     982,    8175,    8173,    8217,    8202,    8176,    8174,    8376,    8361
     983,    8087,    8089,    8184,    8216,    8086,    8088,    8343,    8375
     984,    8085,    8087,    8216,    8215,    8084,    8086,    8375,    8374
     985,    8083,    8085,    8215,    8214,    8082,    8084,    8374,    8373
     986,    8081,    8083,    8214,    8213,    8080,    8082,    8373,    8372
     987,    8079,    8081,    8213,    8212,    8078,    8080,    8372,    8371
     988,    8077,    8079,    8212,    8211,    8076,    8078,    8371,    8370
     989,    8075,    8077,    8211,    8210,    8074,    8076,    8370,    8369
     990,    8073,    8075,    8210,    8183,    8072,    8074,    8369,    8342
     991,    8052,    7350,    7367,    8209,    8059,    7351,    7366,    8368
     992,    8051,    8052,    8209,    8208,    8058,    8059,    8368,    8367
     993,    8050,    8051,    8208,    8207,    8057,    8058,    8367,    8366
     994,    8049,    8050,    8207,    8206,    8056,    8057,    8366,    8365
     995,    8048,    8049,    8206,    8205,    8055,    8056,    8365,    8364
     996,    8047,    8048,    8205,    8204,    8054,    8055,    8364,    8363
     997,    8046,    8047,    8204,    8203,    8053,    8054,    8363,    8362
     998,    8045,    8046,    8203,    8159,    8044,    8053,    8362,    8160
     999,    8130,    8091,    8175,    8202,    8149,    8092,    8176,    8361
    1000,    8129,    8130,    8202,    8201,    8148,    8149,    8361,    8360
    1001,    8128,    8129,    8201,    8200,    8147,    8148,    8360,    8359
    1002,    8127,    8128,    8200,    8199,    8146,    8147,    8359,    8358
    1003,    8126,    8127,    8199,    8198,    8145,    8146,    8358,    8357
    1004,    8125,    8126,    8198,    8197,    8144,    8145,    8357,    8356
    1005,    8124,    8125,    8197,    8196,    8143,    8144,    8356,    8355
    1006,    8123,    8124,    8196,    8195,    8142,    8143,    8355,    8354
    1007,    8122,    8123,    8195,    8194,    8141,    8142,    8354,    8353
    1008,    8121,    8122,    8194,    8193,    8140,    8141,    8353,    8352
    1009,    8120,    8121,    8193,    8192,    8139,    8140,    8352,    8351
    1010,    8119,    8120,    8192,    8191,    8138,    8139,    8351,    8350
    1011,    8118,    8119,    8191,    8190,    8137,    8138,    8350,    8349
    1012,    8117,    8118,    8190,    8189,    8136,    8137,    8349,    8348
    1013,    8116,    8117,    8189,    8188,    8135,    8136,    8348,    8347
    1014,    8115,    8116,    8188,    8187,    8134,    8135,    8347,    8346
    1015,    8114,    8115,    8187,    8186,    8133,    8134,    8346,    8345
    1016,    8113,    8114,    8186,    8185,    8132,    8133,    8345,    8344
    1017,    8112,    8113,    8185,    8184,    8131,    8132,    8344,    8343
    1018,    8062,    8112,    8184,    8089,    8061,    8131,    8343,    8088
    1019,    8028,    8013,    8073,    8183,    8035,    8014,    8072,    8342
    1020,    8027,    8028,    8183,    8182,    8034,    8035,    8342,    8341
    1021,    8026,    8027,    8182,    8181,    8033,    8034,    8341,    8340
    1022,    8025,    8026,    8181,    8180,    8032,    8033,    8340,    8339
    1023,    8024,    8025,    8180,    8179,    8031,    8032,    8339,    8338
    1024,    8023,    8024,    8179,    8178,    8030,    8031,    8338,    8337
    1025,    8022,    8023,    8178,    8177,    8029,    8030,    8337,    8336
    1026,    7360,    8022,    8177,    7375,    7359,    8029,    8336,    7374
    1027,    8494,    8473,    8474,    8493,    8653,    8632,    8633,    8652
    1028,    8493,    8489,    8490,    8494,    8652,    8648,    8649,    8653
    1029,    8486,    8472,    8473,    8494,    8645,    8631,    8632,    8653
    1030,    8485,    8486,    8494,    8490,    8644,    8645,    8653,    8649
    1031,    8470,    8471,    8489,    8493,    8629,    8630,    8648,    8652
    1032,    8469,    8470,    8493,    8474,    8628,    8629,    8652,    8633
    1033,    8468,    8469,    8474,    8475,    8627,    8628,    8633,    8634
    1034,    8467,    8468,    8475,    8476,    8626,    8627,    8634,    8635
    1035,    8466,    8467,    8476,    8477,    8625,    8626,    8635,    8636
    1036,    8465,    8466,    8477,    8478,    8624,    8625,    8636,    8637
    1037,    8464,    8465,    8478,    8479,    8623,    8624,    8637,    8638
    1038,    8482,    8483,    8492,    8491,    8641,    8642,    8651,    8650
    1039,    8488,    8491,    8492,    8487,    8647,    8650,    8651,    8646
    1040,    8484,    8487,    8492,    8483,    8643,    8646,    8651,    8642
    1041,    8463,    8464,    8479,    8480,    8622,    8623,    8638,    8639
    1042,    8462,    8463,    8480,    8481,    8621,    8622,    8639,    8640
    1043,    8461,    8462,    8481,    8482,    8620,    8621,    8640,    8641
    1044,    8460,    8461,    8482,    8491,    8619,    8620,    8641,    8650
    1045,    8459,    8460,    8491,    8488,    8618,    8619,    8650,    8647
    1046,    8453,    8454,    8485,    8490,    8612,    8613,    8644,    8649
    1047,    8452,    8453,    8490,    8489,    8611,    8612,    8649,    8648
    1048,    8451,    8452,    8489,    8471,    8610,    8611,    8648,    8630
    1049,    8457,    8458,    8459,    8488,    8616,    8617,    8618,    8647
    1050,    8456,    8457,    8488,    8487,    8615,    8616,    8647,    8646
    1051,    8455,    8456,    8487,    8484,    8614,    8615,    8646,    8643
    1052,    8436,    8437,    8472,    8486,    8595,    8596,    8631,    8645
    1053,    8435,    8436,    8486,    8485,    8594,    8595,    8645,    8644
    1054,    8434,    8435,    8485,    8454,    8593,    8594,    8644,    8613
    1055,    8449,    8450,    8455,    8484,    8608,    8609,    8614,    8643
    1056,    8448,    8449,    8484,    8483,    8607,    8608,    8643,    8642
    1057,    8447,    8448,    8483,    8482,    8606,    8607,    8642,    8641
    1058,    8446,    8447,    8482,    8481,    8605,    8606,    8641,    8640
    1059,    8445,    8446,    8481,    8480,    8604,    8605,    8640,    8639
    1060,    8444,    8445,    8480,    8479,    8603,    8604,    8639,    8638
    1061,    8443,    8444,    8479,    8478,    8602,    8603,    8638,    8637
    1062,    8442,    8443,    8478,    8477,    8601,    8602,    8637,    8636
    1063,    8441,    8442,    8477,    8476,    8600,    8601,    8636,    8635
    1064,    8440,    8441,    8476,    8475,    8599,    8600,    8635,    8634
    1065,    8440,    8475,    8474,    8473,    8599,    8634,    8633,    8632
    1066,    8439,    8440,    8473,    8472,    8598,    8599,    8632,    8631
    1067,    8438,    8439,    8472,    8437,    8597,    8598,    8631,    8596
    1068,    8432,    8433,    8451,    8471,    8591,    8592,    8610,    8630
    1069,    8431,    8432,    8471,    8470,    8590,    8591,    8630,    8629
    1070,    8430,    8431,    8470,    8469,    8589,    8590,    8629,    8628
    1071,    8429,    8430,    8469,    8468,    8588,    8589,    8628,    8627
    1072,    8428,    8429,    8468,    8467,    8587,    8588,    8627,    8626
    1073,    8427,    8428,    8467,    8466,    8586,    8587,    8626,    8625
    1074,    8426,    8427,    8466,    8465,    8585,    8586,    8625,    8624
    1075,    8425,    8426,    8465,    8464,    8584,    8585,    8624,    8623
    1076,    8424,    8425,    8464,    8463,    8583,    8584,    8623,    8622
    1077,    8423,    8424,    8463,    8462,    8582,    8583,    8622,    8621
    1078,    8422,    8423,    8462,    8461,    8581,    8582,    8621,    8620
    1079,    8421,    8422,    8461,    8460,    8580,    8581,    8620,    8619
    1080,    8420,    8421,    8460,    8459,    8579,    8580,    8619,    8618
    1081,    8419,    8420,    8459,    8458,    8578,    8579,    8618,    8617
    1082,    8417,    8418,    8419,    8458,    8576,    8577,    8578,    8617
    1083,    8416,    8417,    8458,    8457,    8575,    8576,    8617,    8616
    1084,    8415,    8416,    8457,    8456,    8574,    8575,    8616,    8615
    1085,    8414,    8415,    8456,    8455,    8573,    8574,    8615,    8614
    1086,    8413,    8414,    8455,    8450,    8572,    8573,    8614,    8609
    1087,    8411,    8412,    8434,    8454,    8570,    8571,    8593,    8613
    1088,    8410,    8411,    8454,    8453,    8569,    8570,    8613,    8612
    1089,    8409,    8410,    8453,    8452,    8568,    8569,    8612,    8611
    1090,    8408,    8409,    8452,    8451,    8567,    8568,    8611,    8610
    1091,    8407,    8408,    8451,    8433,    8566,    8567,    8610,    8592
    1092,    8405,    8406,    8413,    8450,    8564,    8565,    8572,    8609
    1093,    8404,    8405,    8450,    8449,    8563,    8564,    8609,    8608
    1094,    8403,    8404,    8449,    8448,    8562,    8563,    8608,    8607
    1095,    8402,    8403,    8448,    8447,    8561,    8562,    8607,    8606
    1096,    8401,    8402,    8447,    8446,    8560,    8561,    8606,    8605
    1097,    8400,    8401,    8446,    8445,    8559,    8560,    8605,    8604
    1098,    8399,    8400,    8445,    8444,    8558,    8559,    8604,    8603
    1099,    8398,    8399,    8444,    8443,    8557,    8558,    8603,    8602
    1100,    8397,    8398,    8443,    8442,    8556,    8557,    8602,    8601
    1101,    8396,    8397,    8442,    8441,    8555,    8556,    8601,    8600
    1102,    8396,    8441,    8440,    8439,    8555,    8600,    8599,    8598
    1103,    8395,    8396,    8439,    8438,    8554,    8555,    8598,    8597
    1104,    8393,    8394,    8395,    8438,    8552,    8553,    8554,    8597
    1105,    8392,    8393,    8438,    8437,    8551,    8552,    8597,    8596
    1106,    8391,    8392,    8437,    8436,    8550,    8551,    8596,    8595
    1107,    8390,    8391,    8436,    8435,    8549,    8550,    8595,    8594
    1108,    8389,    8390,    8435,    8434,    8548,    8549,    8594,    8593
    1109,    8388,    8389,    8434,    8412,    8547,    8548,    8593,    8571
    1110,    8359,    8360,    8407,    8433,    8518,    8519,    8566,    8592
    1111,    8358,    8359,    8433,    8432,    8517,    8518,    8592,    8591
    1112,    8357,    8358,    8432,    8431,    8516,    8517,    8591,    8590
    1113,    8356,    8357,    8431,    8430,    8515,    8516,    8590,    8589
    1114,    8355,    8356,    8430,    8429,    8514,    8515,    8589,    8588
    1115,    8354,    8355,    8429,    8428,    8513,    8514,    8588,    8587
    1116,    8353,    8354,    8428,    8427,    8512,    8513,    8587,    8586
    1117,    8352,    8353,    8427,    8426,    8511,    8512,    8586,    8585
    1118,    8351,    8352,    8426,    8425,    8510,    8511,    8585,    8584
    1119,    8350,    8351,    8425,    8424,    8509,    8510,    8584,    8583
    1120,    8349,    8350,    8424,    8423,    8508,    8509,    8583,    8582
    1121,    8348,    8349,    8423,    8422,    8507,    8508,    8582,    8581
    1122,    8347,    8348,    8422,    8421,    8506,    8507,    8581,    8580
    1123,    8346,    8347,    8421,    8420,    8505,    8506,    8580,    8579
    1124,    8345,    8346,    8420,    8419,    8504,    8505,    8579,    8578
    1125,    8344,    8345,    8419,    8418,    8503,    8504,    8578,    8577
    1126,    8375,    8343,    8344,    8418,    8534,    8502,    8503,    8577
    1127,    8374,    8375,    8418,    8417,    8533,    8534,    8577,    8576
    1128,    8373,    8374,    8417,    8416,    8532,    8533,    8576,    8575
    1129,    8372,    8373,    8416,    8415,    8531,    8532,    8575,    8574
    1130,    8371,    8372,    8415,    8414,    8530,    8531,    8574,    8573
    1131,    8370,    8371,    8414,    8413,    8529,    8530,    8573,    8572
    1132,    8369,    8370,    8413,    8406,    8528,    8529,    8572,    8565
    1133,    8381,    8382,    8388,    8412,    8540,    8541,    8547,    8571
    1134,    8380,    8381,    8412,    8411,    8539,    8540,    8571,    8570
    1135,    8379,    8380,    8411,    8410,    8538,    8539,    8570,    8569
    1136,    8378,    8379,    8410,    8409,    8537,    8538,    8569,    8568
    1137,    8377,    8378,    8409,    8408,    8536,    8537,    8568,    8567
    1138,    8376,    8377,    8408,    8407,    8535,    8536,    8567,    8566
    1139,    8361,    8376,    8407,    8360,    8520,    8535,    8566,    8519
    1140,    8341,    8342,    8369,    8406,    8500,    8501,    8528,    8565
    1141,    8340,    8341,    8406,    8405,    8499,    8500,    8565,    8564
    1142,    8339,    8340,    8405,    8404,    8498,    8499,    8564,    8563
    1143,    8338,    8339,    8404,    8403,    8497,    8498,    8563,    8562
    1144,    8337,    8338,    8403,    8402,    8496,    8497,    8562,    8561
    1145,    8336,    8337,    8402,    8401,    8495,    8496,    8561,    8560
    1146,    8387,    8336,    8401,    8400,    8546,    8495,    8560,    8559
    1147,    8386,    8387,    8400,    8399,    8545,    8546,    8559,    8558
    1148,    8385,    8386,    8399,    8398,    8544,    8545,    8558,    8557
    1149,    8384,    8385,    8398,    8397,    8543,    8544,    8557,    8556
    1150,    8384,    8397,    8396,    8395,    8543,    8556,    8555,    8554
    1151,    8383,    8384,    8395,    8394,    8542,    8543,    8554,    8553
    1152,    8368,    8383,    8394,    8393,    8527,    8542,    8553,    8552
    1153,    8367,    8368,    8393,    8392,    8526,    8527,    8552,    8551
    1154,    8366,    8367,    8392,    8391,    8525,    8526,    8551,    8550
    1155,    8365,    8366,    8391,    8390,    8524,    8525,    8550,    8549
    1156,    8364,    8365,    8390,    8389,    8523,    8524,    8549,    8548
    1157,    8363,    8364,    8389,    8388,    8522,    8523,    8548,    8547
    1158,    8362,    8363,    8388,    8382,    8521,    8522,    8547,    8541
    1159,    7372,    7374,    8336,    8387,    7362,    7361,    8495,    8546
    1160,    7370,    7372,    8387,    8386,    7363,    7362,    8546,    8545
    1161,    7368,    7370,    8386,    8385,    7364,    7363,    8545,    8544
    1162,    7368,    8385,    8384,    8383,    7364,    8544,    8543,    8542
    1163,    7366,    7368,    8383,    8368,    7365,    7364,    8542,    8527
    1164,    8162,    8160,    8362,    8382,    8151,    8150,    8521,    8541
    1165,    8164,    8162,    8382,    8381,    8152,    8151,    8541,    8540
    1166,    8166,    8164,    8381,    8380,    8153,    8152,    8540,    8539
    1167,    8168,    8166,    8380,    8379,    8154,    8153,    8539,    8538
    1168,    8170,    8168,    8379,    8378,    8155,    8154,    8538,    8537
    1169,    8172,    8170,    8378,    8377,    8156,    8155,    8537,    8536
    1170,    8174,    8172,    8377,    8376,    8157,    8156,    8536,    8535
    1171,    8176,    8174,    8376,    8361,    8158,    8157,    8535,    8520
    1172,    8086,    8088,    8343,    8375,    8070,    8071,    8502,    8534
    1173,    8084,    8086,    8375,    8374,    8069,    8070,    8534,    8533
    1174,    8082,    8084,    8374,    8373,    8068,    8069,    8533,    8532
    1175,    8080,    8082,    8373,    8372,    8067,    8068,    8532,    8531
    1176,    8078,    8080,    8372,    8371,    8066,    8067,    8531,    8530
    1177,    8076,    8078,    8371,    8370,    8065,    8066,    8530,    8529
    1178,    8074,    8076,    8370,    8369,    8064,    8065,    8529,    8528
    1179,    8072,    8074,    8369,    8342,    8063,    8064,    8528,    8501
    1180,    8059,    7351,    7366,    8368,    8037,    7349,    7365,    8527
    1181,    8058,    8059,    8368,    8367,    8038,    8037,    8527,    8526
    1182,    8057,    8058,    8367,    8366,    8039,    8038,    8526,    8525
    1183,    8056,    8057,    8366,    8365,    8040,    8039,    8525,    8524
    1184,    8055,    8056,    8365,    8364,    8041,    8040,    8524,    8523
    1185,    8054,    8055,    8364,    8363,    8042,    8041,    8523,    8522
    1186,    8053,    8054,    8363,    8362,    8043,    8042,    8522,    8521
    1187,    8044,    8053,    8362,    8160,    8036,    8043,    8521,    8150
    1188,    8149,    8092,    8176,    8361,    8093,    8090,    8158,    8520
    1189,    8148,    8149,    8361,    8360,    8094,    8093,    8520,    8519
    1190,    8147,    8148,    8360,    8359,    8095,    8094,    8519,    8518
    1191,    8146,    8147,    8359,    8358,    8096,    8095,    8518,    8517
    1192,    8145,    8146,    8358,    8357,    8097,    8096,    8517,    8516
    1193,    8144,    8145,    8357,    8356,    8098,    8097,    8516,    8515
    1194,    8143,    8144,    8356,    8355,    8099,    8098,    8515,    8514
    1195,    8142,    8143,    8355,    8354,    8100,    8099,    8514,    8513
    1196,    8141,    8142,    8354,    8353,    8101,    8100,    8513,    8512
    1197,    8140,    8141,    8353,    8352,    8102,    8101,    8512,    8511
    1198,    8139,    8140,    8352,    8351,    8103,    8102,    8511,    8510
    1199,    8138,    8139,    8351,    8350,    8104,    8103,    8510,    8509
    1200,    8137,    8138,    8350,    8349,    8105,    8104,    8509,    8508
    1201,    8136,    8137,    8349,    8348,    8106,    8105,    8508,    8507
    1202,    8135,    8136,    8348,    8347,    8107,    8106,    8507,    8506
    1203,    8134,    8135,    8347,    8346,    8108,    8107,    8506,    8505
    1204,    8133,    8134,    8346,    8345,    8109,    8108,    8505,    8504
    1205,    8132,    8133,    8345,    8344,    8110,    8109,    8504,    8503
    1206,    8131,    8132,    8344,    8343,    8111,    8110,    8503,    8502
    1207,    8061,    8131,    8343,    8088,    8060,    8111,    8502,    8071
    1208,    8035,    8014,    8072,    8342,    8015,    8012,    8063,    8501
    1209,    8034,    8035,    8342,    8341,    8016,    8015,    8501,    8500
    1210,    8033,    8034,    8341,    8340,    8017,    8016,    8500,    8499
    1211,    8032,    8033,    8340,    8339,    8018,    8017,    8499,    8498
    1212,    8031,    8032,    8339,    8338,    8019,    8018,    8498,    8497
    1213,    8030,    8031,    8338,    8337,    8020,    8019,    8497,    8496
    1214,    8029,    8030,    8337,    8336,    8021,    8020,    8496,    8495
    1215,    7359,    8029,    8336,    7374,    7358,    8021,    8495,    7361
*ELEMENT, TYPE=C3D8R, ELSET=mortar
    1216,   10869,   10952,   11257,   10893,   10842,   10951,   11084,   10844
    1217,   10952,   10953,   11233,   11257,   10951,   10950,   11060,   11084
    1218,   10953,   10954,   11209,   11233,   10950,   10949,   11036,   11060
    1219,   10954,   10955,   11185,   11209,   10949,   10948,   11012,   11036
    1220,   10955,   10956,   11161,   11185,   10948,   10947,   10988,   11012
    1221,   10956,   10957,   11137,   11161,   10947,   10946,   10964,   10988
    1222,   10957,   10920,   10922,   11137,   10946,   10895,   10919,   10964
    1223,   10893,   11257,   11256,   10892,   10844,   11084,   11085,   10845
    1224,   11257,   11233,   11232,   11256,   11084,   11060,   11061,   11085
    1225,   11233,   11209,   11208,   11232,   11060,   11036,   11037,   11061
    1226,   11209,   11185,   11184,   11208,   11036,   11012,   11013,   11037
    1227,   11185,   11161,   11160,   11184,   11012,   10988,   10989,   11013
    1228,   11161,   11137,   11136,   11160,   10988,   10964,   10965,   10989
    1229,   11137,   10922,   10923,   11136,   10964,   10919,   10918,   10965
    1230,   10892,   11256,   11255,   10891,   10845,   11085,   11086,   10846
    1231,   11256,   11232,   11231,   11255,   11085,   11061,   11062,   11086
    1232,   11232,   11208,   11207,   11231,   11061,   11037,   11038,   11062
    1233,   11208,   11184,   11183,   11207,   11037,   11013,   11014,   11038
    1234,   11184,   11160,   11159,   11183,   11013,   10989,   10990,   11014
    1235,   11160,   11136,   11135,   11159,   10989,   10965,   10966,   10990
    1236,   11136,   10923,   10924,   11135,   10965,   10918,   10917,   10966
    1237,   10891,   11255,   11254,   10890,   10846,   11086,   11087,   10847
    1238,   11255,   11231,   11230,   11254,   11086,   11062,   11063,   11087
    1239,   11231,   11207,   11206,   11230,   11062,   11038,   11039,   11063
    1240,   11207,   11183,   11182,   11206,   11038,   11014,   11015,   11039
    1241,   11183,   11159,   11158,   11182,   11014,   10990,   10991,   11015
    1242,   11159,   11135,   11134,   11158,   10990,   10966,   10967,   10991
    1243,   11135,   10924,   10925,   11134,   10966,   10917,   10916,   10967
    1244,   10890,   11254,   11253,   10889,   10847,   11087,   11088,   10848
    1245,   11254,   11230,   11229,   11253,   11087,   11063,   11064,   11088
    1246,   11230,   11206,   11205,   11229,   11063,   11039,   11040,   11064
    1247,   11206,   11182,   11181,   11205,   11039,   11015,   11016,   11040
    1248,   11182,   11158,   11157,   11181,   11015,   10991,   10992,   11016
    1249,   11158,   11134,   11133,   11157,   10991,   10967,   10968,   10992
    1250,   11134,   10925,   10926,   11133,   10967,   10916,   10915,   10968
    1251,   10889,   11253,   11252,   10888,   10848,   11088,   11089,   10849
    1252,   11253,   11229,   11228,   11252,   11088,   11064,   11065,   11089
    1253,   11229,   11205,   11204,   11228,   11064,   11040,   11041,   11065
    1254,   11205,   11181,   11180,   11204,   11040,   11016,   11017,   11041
    1255,   11181,   11157,   11156,   11180,   11016,   10992,   10993,   11017
    1256,   11157,   11133,   11132,   11156,   10992,   10968,   10969,   10993
    1257,   11133,   10926,   10927,   11132,   10968,   10915,   10914,   10969
    1258,   10888,   11252,   11251,   10887,   10849,   11089,   11090,   10850
    1259,   11252,   11228,   11227,   11251,   11089,   11065,   11066,   11090
    1260,   11228,   11204,   11203,   11227,   11065,   11041,   11042,   11066
    1261,   11204,   11180,   11179,   11203,   11041,   11017,   11018,   11042
    1262,   11180,   11156,   11155,   11179,   11017,   10993,   10994,   11018
    1263,   11156,   11132,   11131,   11155,   10993,   10969,   10970,   10994
    1264,   11132,   10927,   10928,   11131,   10969,   10914,   10913,   10970
    1265,   10887,   11251,   11250,   10886,   10850,   11090,   11091,   10851
    1266,   11251,   11227,   11226,   11250,   11090,   11066,   11067,   11091
    1267,   11227,   11203,   11202,   11226,   11066,   11042,   11043,   11067
    1268,   11203,   11179,   11178,   11202,   11042,   11018,   11019,   11043
    1269,   11179,   11155,   11154,   11178,   11018,   10994,   10995,   11019
    1270,   11155,   11131,   11130,   11154,   10994,   10970,   10971,   10995
    1271,   11131,   10928,   10929,   11130,   10970,   10913,   10912,   10971
    1272,   10886,   11250,   11249,   10885,   10851,   11091,   11092,   10852
    1273,   11250,   11226,   11225,   11249,   11091,   11067,   11068,   11092
    1274,   11226,   11202,   11201,   11225,   11067,   11043,   11044,   11068
    1275,   11202,   11178,   11177,   11201,   11043,   11019,   11020,   11044
    1276,   11178,   11154,   11153,   11177,   11019,   10995,   10996,   11020
    1277,   11154,   11130,   11129,   11153,   10995,   10971,   10972,   10996
    1278,   11130,   10929,   10930,   11129,   10971,   10912,   10911,   10972
    1279,   10885,   11249,   11248,   10884,   10852,   11092,   11093,   10853
    1280,   11249,   11225,   11224,   11248,   11092,   11068,   11069,   11093
    1281,   11225,   11201,   11200,   11224,   11068,   11044,   11045,   11069
    1282,   11201,   11177,   11176,   11200,   11044,   11020,   11021,   11045
    1283,   11177,   11153,   11152,   11176,   11020,   10996,   10997,   11021
    1284,   11153,   11129,   11128,   11152,   10996,   10972,   10973,   10997
    1285,   11129,   10930,   10931,   11128,   10972,   10911,   10910,   10973
    1286,   10884,   11248,   11247,   10883,   10853,   11093,   11094,   10854
    1287,   11248,   11224,   11223,   11247,   11093,   11069,   11070,   11094
    1288,   11224,   11200,   11199,   11223,   11069,   11045,   11046,   11070
    1289,   11200,   11176,   11175,   11199,   11045,   11021,   11022,   11046
    1290,   11176,   11152,   11151,   11175,   11021,   10997,   10998,   11022
    1291,   11152,   11128,   11127,   11151,   10997,   10973,   10974,   10998
    1292,   11128,   10931,   10932,   11127,   10973,   10910,   10909,   10974
    1293,   10883,   11247,   11246,   10882,   10854,   11094,   11095,   10855
    1294,   11247,   11223,   11222,   11246,   11094,   11070,   11071,   11095
    1295,   11223,   11199,   11198,   11222,   11070,   11046,   11047,   11071
    1296,   11199,   11175,   11174,   11198,   11046,   11022,   11023,   11047
    1297,   11175,   11151,   11150,   11174,   11022,   10998,   10999,   11023
    1298,   11151,   11127,   11126,   11150,   10998,   10974,   10975,   10999
    1299,   11127,   10932,   10933,   11126,   10974,   10909,   10908,   10975
    1300,   10882,   11246,   11245,   10881,   10855,   11095,   11096,   10856
    1301,   11246,   11222,   11221,   11245,   11095,   11071,   11072,   11096
    1302,   11222,   11198,   11197,   11221,   11071,   11047,   11048,   11072
    1303,   11198,   11174,   11173,   11197,   11047,   11023,   11024,   11048
    1304,   11174,   11150,   11149,   11173,   11023,   10999,   11000,   11024
    1305,   11150,   11126,   11125,   11149,   10999,   10975,   10976,   11000
    1306,   11126,   10933,   10934,   11125,   10975,   10908,   10907,   10976
    1307,   10881,   11245,   11244,   10880,   10856,   11096,   11097,   10857
    1308,   11245,   11221,   11220,   11244,   11096,   11072,   11073,   11097
    1309,   11221,   11197,   11196,   11220,   11072,   11048,   11049,   11073
    1310,   11197,   11173,   11172,   11196,   11048,   11024,   11025,   11049
    1311,   11173,   11149,   11148,   11172,   11024,   11000,   11001,   11025
    1312,   11149,   11125,   11124,   11148,   11000,   10976,   10977,   11001
    1313,   11125,   10934,   10935,   11124,   10976,   10907,   10906,   10977
    1314,   10880,   11244,   11243,   10879,   10857,   11097,   11098,   10858
    1315,   11244,   11220,   11219,   11243,   11097,   11073,   11074,   11098
    1316,   11220,   11196,   11195,   11219,   11073,   11049,   11050,   11074
    1317,   11196,   11172,   11171,   11195,   11049,   11025,   11026,   11050
    1318,   11172,   11148,   11147,   11171,   11025,   11001,   11002,   11026
    1319,   11148,   11124,   11123,   11147,   11001,   10977,   10978,   11002
    1320,   11124,   10935,   10936,   11123,   10977,   10906,   10905,   10978
    1321,   10879,   11243,   11242,   10878,   10858,   11098,   11099,   10859
    1322,   11243,   11219,   11218,   11242,   11098,   11074,   11075,   11099
    1323,   11219,   11195,   11194,   11218,   11074,   11050,   11051,   11075
    1324,   11195,   11171,   11170,   11194,   11050,   11026,   11027,   11051
    1325,   11171,   11147,   11146,   11170,   11026,   11002,   11003,   11027
    1326,   11147,   11123,   11122,   11146,   11002,   10978,   10979,   11003
    1327,   11123,   10936,   10937,   11122,   10978,   10905,   10904,   10979
    1328,   10878,   11242,   11241,   10877,   10859,   11099,   11100,   10860
    1329,   11242,   11218,   11217,   11241,   11099,   11075,   11076,   11100
    1330,   11218,   11194,   11193,   11217,   11075,   11051,   11052,   11076
    1331,   11194,   11170,   11169,   11193,   11051,   11027,   11028,   11052
    1332,   11170,   11146,   11145,   11169,   11027,   11003,   11004,   11028
    1333,   11146,   11122,   11121,   11145,   11003,   10979,   10980,   11004
    1334,   11122,   10937,   10938,   11121,   10979,   10904,   10903,   10980
    1335,   10877,   11241,   11240,   10876,   10860,   11100,   11101,   10861
    1336,   11241,   11217,   11216,   11240,   11100,   11076,   11077,   11101
    1337,   11217,   11193,   11192,   11216,   11076,   11052,   11053,   11077
    1338,   11193,   11169,   11168,   11192,   11052,   11028,   11029,   11053
    1339,   11169,   11145,   11144,   11168,   11028,   11004,   11005,   11029
    1340,   11145,   11121,   11120,   11144,   11004,   10980,   10981,   11005
    1341,   11121,   10938,   10939,   11120,   10980,   10903,   10902,   10981
    1342,   10876,   11240,   11239,   10875,   10861,   11101,   11102,   10862
    1343,   11240,   11216,   11215,   11239,   11101,   11077,   11078,   11102
    1344,   11216,   11192,   11191,   11215,   11077,   11053,   11054,   11078
    1345,   11192,   11168,   11167,   11191,   11053,   11029,   11030,   11054
    1346,   11168,   11144,   11143,   11167,   11029,   11005,   11006,   11030
    1347,   11144,   11120,   11119,   11143,   11005,   10981,   10982,   11006
    1348,   11120,   10939,   10940,   11119,   10981,   10902,   10901,   10982
    1349,   10875,   11239,   11238,   10874,   10862,   11102,   11103,   10863
    1350,   11239,   11215,   11214,   11238,   11102,   11078,   11079,   11103
    1351,   11215,   11191,   11190,   11214,   11078,   11054,   11055,   11079
    1352,   11191,   11167,   11166,   11190,   11054,   11030,   11031,   11055
    1353,   11167,   11143,   11142,   11166,   11030,   11006,   11007,   11031
    1354,   11143,   11119,   11118,   11142,   11006,   10982,   10983,   11007
    1355,   11119,   10940,   10941,   11118,   10982,   10901,   10900,   10983
    1356,   10874,   11238,   11237,   10873,   10863,   11103,   11104,   10864
    1357,   11238,   11214,   11213,   11237,   11103,   11079,   11080,   11104
    1358,   11214,   11190,   11189,   11213,   11079,   11055,   11056,   11080
    1359,   11190,   11166,   11165,   11189,   11055,   11031,   11032,   11056
    1360,   11166,   11142,   11141,   11165,   11031,   11007,   11008,   11032
    1361,   11142,   11118,   11117,   11141,   11007,   10983,   10984,   11008
    1362,   11118,   10941,   10942,   11117,   10983,   10900,   10899,   10984
    1363,   10873,   11237,   11236,   10872,   10864,   11104,   11105,   10865
    1364,   11237,   11213,   11212,   11236,   11104,   11080,   11081,   11105
    1365,   11213,   11189,   11188,   11212,   11080,   11056,   11057,   11081
    1366,   11189,   11165,   11164,   11188,   11056,   11032,   11033,   11057
    1367,   11165,   11141,   11140,   11164,   11032,   11008,   11009,   11033
    1368,   11141,   11117,   11116,   11140,   11008,   10984,   10985,   11009
    1369,   11117,   10942,   10943,   11116,   10984,   10899,   10898,   10985
    1370,   10872,   11236,   11235,   10871,   10865,   11105,   11106,   10866
    1371,   11236,   11212,   11211,   11235,   11105,   11081,   11082,   11106
    1372,   11212,   11188,   11187,   11211,   11081,   11057,   11058,   11082
    1373,   11188,   11164,   11163,   11187,   11057,   11033,   11034,   11058
    1374,   11164,   11140,   11139,   11163,   11033,   11009,   11010,   11034
    1375,   11140,   11116,   11115,   11139,   11009,   10985,   10986,   11010
    1376,   11116,   10943,   10944,   11115,   10985,   10898,   10897,   10986
    1377,   10871,   11235,   11234,   10870,   10866,   11106,   11107,   10867
    1378,   11235,   11211,   11210,   11234,   11106,   11082,   11083,   11107
    1379,   11211,   11187,   11186,   11210,   11082,   11058,   11059,   11083
    1380,   11187,   11163,   11162,   11186,   11058,   11034,   11035,   11059
    1381,   11163,   11139,   11138,   11162,   11034,   11010,   11011,   11035
    1382,   11139,   11115,   11114,   11138,   11010,   10986,   10987,   11011
    1383,   11115,   10944,   10945,   11114,   10986,   10897,   10896,   10987
    1384,   10870,   11234,   11113,   10868,   10867,   11107,   10958,   10843
    1385,   11234,   11210,   11112,   11113,   11107,   11083,   10959,   10958
    1386,   11210,   11186,   11111,   11112,   11083,   11059,   10960,   10959
    1387,   11186,   11162,   11110,   11111,   11059,   11035,   10961,   10960
    1388,   11162,   11138,   11109,   11110,   11035,   11011,   10962,   10961
    1389,   11138,   11114,   11108,   11109,   11011,   10987,   10963,   10962
    1390,   11114,   10945,   10921,   11108,   10987,   10896,   10894,   10963
********************************** N O D E S E T S **********************************
*NSET, NSET=shear_loading
    7816,    7836,    7837,    7838,    7839,    7840,
    7841,    7842,    7843,    7844,    7845,    8036,
    8044,    8045,    8090,    8091,    8092,    8150,
    8151,    8152,    8153,    8154,    8155,    8156,
    8157,    8158,    8159,    8160,    8161,    8162,
    8163,    8164,    8165,    8166,    8167,    8168,
    8169,    8170,    8171,    8172,    8173,    8174,
    8175,    8176,    8654,    8655,    8686,    8687,
    8688,    8689,    8690,    8691,    8692,    8693,
    8694,    8695,    8696,    8697,    8698,    8699,
    8700,    8701,    8702,    8703,    8704,    8705,
*NSET, NSET=z_symm
    7333,    7335,    7336,    7337,    7349,    7352,
    7378,    7399,    7428,    7438,    7439,    7440,
    7441,    7442,    7443,    7444,    7445,    7446,
    7447,    7448,    7449,    7450,    7451,    7452,
    7453,    7454,    7455,    7456,    7457,    7458,
    7459,    7460,    7461,    7462,    7463,    7464,
    7465,    7466,    7467,    7468,    7469,    7470,
    7471,    7472,    7473,    7474,    7475,    7476,
    7477,    7478,    7479,    7480,    7481,    7482,
    7483,    7484,    7485,    7486,    7487,    7488,
    7489,    7490,    7491,    7492,    7493,    7494,
    7495,    7496,    7497,    7498,    7499,    7500,
    7501,    7502,    7503,    7504,    7505,    7506,
    7507,    7508,    7509,    7510,    7511,    7512,
    7513,    7514,    7515,    7516,    7517,    7518,
    7519,    7520,    7521,    7522,    7523,    7524,
    7525,    7526,    7527,    7798,    7799,    7800,
    7801,    7802,    7803,    7804,    7805,    7836,
    7846,    7847,    7848,    7849,    7850,    7851,
    7852,    8012,    8013,    8014,    8015,    8016,
    8017,    8018,    8019,    8020,    8021,    8022,
    8023,    8024,    8025,    8026,    8027,    8028,
    8029,    8030,    8031,    8032,    8033,    8034,
    8035,    8036,    8037,    8038,    8039,    8040,
    8041,    8042,    8043,    8044,    8045,    8046,
    8047,    8048,    8049,    8050,    8051,    8052,
    8053,    8054,    8055,    8056,    8057,    8058,
    8059,    8654,    8655,    8656,    8657,    8658,
    8659,    8660,    8661,    8662,    8663,    8664,
    8665,    8666,    8667,    8668,    8669,    8670,
    8671,    8672,    8673,    8674,    8675,    8676,
    8677,    8678,    8679,    8680,    8681,    8682,
    8683,    8684,    8685,   10842,   10843,   10868,
   10869,
********************************** S I D E S E T S **********************************
*ELSET, ELSET=plate_bottom_S1
     460,     461,     462,     463,     464,     465,     466,     467,     468,     469,
     470,     471,     472,     473,     474,     475,     476,     477,     478,     479,
     480,     481,     482,     483,     484,     485,     486,     487,     488,     489,
     490,     491,     492,     493,     494,     495,     496,     497,     498,     499,
     500,     501,     502,     503,     504,     505,     506,     507,     508,     509,
     510,     511,     512,     513,     514,     515,     516,     517,     518,     519,
     520,     521,     522,     523,     524,     525,     526,     527,     528,     529,
     530,     531,     532,     533,     534,     535,     536,     537,     538,     539,
     540,     541,     542,     543,     544,     545,     546,     547,     548,     549,
     550,     551,     552,     553,     554,     555,     556,     557,     558,     559,
     560,     561,     562,     563,     564,     565,     566,     567,     568,     569,
     570,     571,     572,     573,     574,     575,     576,     577,     578,     579,
     580,     581,     582,     583,     584,     585,     586,     587,     588,     589,
     590,     591,     592,     593,     594,     595,     596,     597,     598,     599,
     600,     601,     602,     603,     604,     605,     606,     607,     608,     609,
     610,     611,     612,     613,     614,     615,     616,     617,     618,     619,
     620,     621,     622,     623,     624,     625,     626,     627,     628,     629,
     630,     631,     632,     633,     634,     635,     636,     637,     638,     639,
     640,     641,     642,     643,     644,     645,     646,     647,     648
*SURFACE, NAME=plate_bottom
plate_bottom_S1, S1
*ELSET, ELSET=mortar_to_anchor_S1
    1216,    1217,    1218,    1219,    1220,    1221,    1222,    1223,    1224,    1225,
    1226,    1227,    1228,    1229,    1230,    1231,    1232,    1233,    1234,    1235,
    1236,    1237,    1238,    1239,    1240,    1241,    1242,    1243,    1244,    1245,
    1246,    1247,    1248,    1249,    1250,    1251,    1252,    1253,    1254,    1255,
    1256,    1257,    1258,    1259,    1260,    1261,    1262,    1263,    1264,    1265,
    1266,    1267,    1268,    1269,    1270,    1271,    1272,    1273,    1274,    1275,
    1276,    1277,    1278,    1279,    1280,    1281,    1282,    1283,    1284,    1285,
    1286,    1287,    1288,    1289,    1290,    1291,    1292,    1293,    1294,    1295,
    1296,    1297,    1298,    1299,    1300,    1301,    1302,    1303,    1304,    1305,
    1306,    1307,    1308,    1309,    1310,    1311,    1312,    1313,    1314,    1315,
    1316,    1317,    1318,    1319,    1320,    1321,    1322,    1323,    1324,    1325,
    1326,    1327,    1328,    1329,    1330,    1331,    1332,    1333,    1334,    1335,
    1336,    1337,    1338,    1339,    1340,    1341,    1342,    1343,    1344,    1345,
    1346,    1347,    1348,    1349,    1350,    1351,    1352,    1353,    1354,    1355,
    1356,    1357,    1358,    1359,    1360,    1361,    1362,    1363,    1364,    1365,
    1366,    1367,    1368,    1369,    1370,    1371,    1372,    1373,    1374,    1375,
    1376,    1377,    1378,    1379,    1380,    1381,    1382,    1383,    1384,    1385,
    1386,    1387,    1388,    1389,    1390
*SURFACE, NAME=mortar_to_anchor
mortar_to_anchor_S1, S1
*ELSET, ELSET=anchor_to_mortar_S3
       2,       3,       6,      11,      12,      15,      20,      21,      24,      29,
      30,      33,      38,      39,      42,      47,      48,      51,      56,      57,
      60,      65,      66,      69,      74,      75,      78,      83,      84,      87,
      92,      93,      96,     101,     102,     105,     110,     111,     114,     119,
     120,     123,     128,     129,     132,     137,     138,     141,     146,     147,
     150,     155,     156,     159,     164,     165,     168,     173,     174,     177,
     182,     183,     186,     191,     192,     195,     200,     201,     204,     209,
     210,     213,     218,     219,     222,     403,     404,     405,     407,     592,
     593,     594,     596,     781,     782,     783,     785,     970,     971,     972,
     974,    1159,    1160,    1161,    1163
*ELSET, ELSET=anchor_to_mortar_S4
       7,      16,      25,      34,      43,      52,      61,      70,      79,      88,
      97,     106,     115,     124,     133,     142,     151,     160,     169,     178,
     187,     196,     205,     214,     223,     424,     613,     802,     991,    1180
*ELSET, ELSET=anchor_to_mortar_S6
       4,       5,      13,      14,      22,      23,      31,      32,      40,      41,
      49,      50,      58,      59,      67,      68,      76,      77,      85,      86,
      94,      95,     103,     104,     112,     113,     121,     122,     130,     131,
     139,     140,     148,     149,     157,     158,     166,     167,     175,     176,
     184,     185,     193,     194,     202,     203,     211,     212,     220,     221,
     459,     648,     837,    1026,    1215
*SURFACE, NAME=anchor_to_mortar
anchor_to_mortar_S3, S3
anchor_to_mortar_S4, S4
anchor_to_mortar_S6, S6
*ELSET, ELSET=mortar_to_concrete_S2
    1216,    1217,    1218,    1219,    1220,    1221,    1222,    1223,    1224,    1225,
    1226,    1227,    1228,    1229,    1230,    1231,    1232,    1233,    1234,    1235,
    1236,    1237,    1238,    1239,    1240,    1241,    1242,    1243,    1244,    1245,
    1246,    1247,    1248,    1249,    1250,    1251,    1252,    1253,    1254,    1255,
    1256,    1257,    1258,    1259,    1260,    1261,    1262,    1263,    1264,    1265,
    1266,    1267,    1268,    1269,    1270,    1271,    1272,    1273,    1274,    1275,
    1276,    1277,    1278,    1279,    1280,    1281,    1282,    1283,    1284,    1285,
    1286,    1287,    1288,    1289,    1290,    1291,    1292,    1293,    1294,    1295,
    1296,    1297,    1298,    1299,    1300,    1301,    1302,    1303,    1304,    1305,
    1306,    1307,    1308,    1309,    1310,    1311,    1312,    1313,    1314,    1315,
    1316,    1317,    1318,    1319,    1320,    1321,    1322,    1323,    1324,    1325,
    1326,    1327,    1328,    1329,    1330,    1331,    1332,    1333,    1334,    1335,
    1336,    1337,    1338,    1339,    1340,    1341,    1342,    1343,    1344,    1345,
    1346,    1347,    1348,    1349,    1350,    1351,    1352,    1353,    1354,    1355,
    1356,    1357,    1358,    1359,    1360,    1361,    1362,    1363,    1364,    1365,
    1366,    1367,    1368,    1369,    1370,    1371,    1372,    1373,    1374,    1375,
    1376,    1377,    1378,    1379,    1380,    1381,    1382,    1383,    1384,    1385,
    1386,    1387,    1388,    1389,    1390
*SURFACE, NAME=mortar_to_concrete
mortar_to_concrete_S2, S2
