********************************** N O D E S **********************************
*NODE, NSET=ALLNODES
    4489,    0.000000e+00,    0.000000e+00,   -1.000000e+01
    4490,    0.000000e+00,    0.000000e+00,    0.000000e+00
    4491,    0.000000e+00,    0.000000e+00,   -7.500000e+00
    4492,    0.000000e+00,    0.000000e+00,   -5.000000e+00
    4493,    0.000000e+00,    0.000000e+00,   -2.500000e+00
    4494,    1.000000e+01,    0.000000e+00,    0.000000e+00
    4495,    8.000000e+00,    0.000000e+00,    0.000000e+00
    4496,    6.000000e+00,    0.000000e+00,    0.000000e+00
    4497,    4.000000e+00,    0.000000e+00,    0.000000e+00
    4498,    2.000000e+00,    0.000000e+00,    0.000000e+00
    4499,    2.225209e+00,    0.000000e+00,   -9.749279e+00
    4500,    4.338837e+00,    0.000000e+00,   -9.009689e+00
    4501,    6.234898e+00,    0.000000e+00,   -7.818315e+00
    4502,    7.818315e+00,    0.000000e+00,   -6.234898e+00
    4503,    9.009689e+00,    0.000000e+00,   -4.338837e+00
    4504,    9.749279e+00,    0.000000e+00,   -2.225209e+00
    4505,    6.840806e+00,    0.000000e+00,   -5.309894e+00
    4506,    1.975763e+00,    0.000000e+00,   -7.049762e+00
    4507,    3.866234e+00,    0.000000e+00,   -6.482100e+00
    4508,    5.525158e+00,    0.000000e+00,   -5.824169e+00
    4509,    7.639957e+00,    0.000000e+00,   -2.024445e+00
    4510,    7.178946e+00,    0.000000e+00,   -3.870615e+00
    4511,    1.903308e+00,    0.000000e+00,   -4.640728e+00
    4512,    1.908332e+00,    0.000000e+00,   -2.295249e+00
    4513,    3.753719e+00,    0.000000e+00,   -4.285651e+00
    4514,    3.833892e+00,    0.000000e+00,   -2.139020e+00
    4515,    5.509063e+00,    0.000000e+00,   -3.978288e+00
    4516,    5.714397e+00,    0.000000e+00,   -2.015197e+00
    4517,    0.000000e+00,    6.666670e+00,   -1.000000e+01
    4518,    0.000000e+00,    4.444447e+00,   -1.000000e+01
    4519,    0.000000e+00,    2.222223e+00,   -1.000000e+01
    4520,    1.000000e+01,    6.666670e+00,    0.000000e+00
    4521,    1.000000e+01,    4.444447e+00,   -6.803597e-17
    4522,    1.000000e+01,    2.222223e+00,    6.803597e-17
    4523,    9.749279e+00,    6.666670e+00,   -2.225209e+00
    4524,    9.009689e+00,    6.666670e+00,   -4.338837e+00
    4525,    7.818315e+00,    6.666670e+00,   -6.234898e+00
    4526,    6.234898e+00,    6.666670e+00,   -7.818315e+00
    4527,    4.338837e+00,    6.666670e+00,   -9.009689e+00
    4528,    2.225209e+00,    6.666670e+00,   -9.749279e+00
    4529,    2.225209e+00,    4.444447e+00,   -9.749279e+00
    4530,    2.225209e+00,    2.222223e+00,   -9.749279e+00
    4531,    4.338837e+00,    4.444447e+00,   -9.009689e+00
    4532,    4.338837e+00,    2.222223e+00,   -9.009689e+00
    4533,    6.234898e+00,    4.444447e+00,   -7.818315e+00
    4534,    6.234898e+00,    2.222223e+00,   -7.818315e+00
    4535,    7.818315e+00,    4.444447e+00,   -6.234898e+00
    4536,    7.818315e+00,    2.222223e+00,   -6.234898e+00
    4537,    9.009689e+00,    4.444447e+00,   -4.338837e+00
    4538,    9.009689e+00,    2.222223e+00,   -4.338837e+00
    4539,    9.749279e+00,    4.444447e+00,   -2.225209e+00
    4540,    9.749279e+00,    2.222223e+00,   -2.225209e+00
    4541,    0.000000e+00,    2.000000e+01,    0.000000e+00
    4542,    0.000000e+00,    1.777778e+01,    0.000000e+00
    4543,    0.000000e+00,    1.555556e+01,    0.000000e+00
    4544,    0.000000e+00,    1.333333e+01,    0.000000e+00
    4545,    0.000000e+00,    1.111111e+01,    0.000000e+00
    4546,    0.000000e+00,    8.888889e+00,    0.000000e+00
    4547,    0.000000e+00,    6.666667e+00,    0.000000e+00
    4548,    0.000000e+00,    4.444444e+00,    0.000000e+00
    4549,    0.000000e+00,    2.222222e+00,    0.000000e+00
    4550,    0.000000e+00,    2.000000e+01,   -1.000000e+01
    4551,    0.000000e+00,    2.000000e+01,   -7.500000e+00
    4552,    0.000000e+00,    2.000000e+01,   -5.000000e+00
    4553,    0.000000e+00,    2.000000e+01,   -2.500000e+00
    4554,    0.000000e+00,    1.777778e+01,   -1.000000e+01
    4555,    0.000000e+00,    1.555556e+01,   -1.000000e+01
    4556,    0.000000e+00,    1.333333e+01,   -1.000000e+01
    4557,    0.000000e+00,    1.111111e+01,   -1.000000e+01
    4558,    0.000000e+00,    8.888892e+00,   -1.000000e+01
    4559,    0.000000e+00,    2.222223e+00,   -7.500000e+00
    4560,    0.000000e+00,    2.222223e+00,   -5.000000e+00
    4561,    0.000000e+00,    2.222222e+00,   -2.500000e+00
    4562,    0.000000e+00,    4.444446e+00,   -7.500000e+00
    4563,    0.000000e+00,    4.444446e+00,   -5.000000e+00
    4564,    0.000000e+00,    4.444445e+00,   -2.500000e+00
    4565,    0.000000e+00,    6.666669e+00,   -7.500000e+00
    4566,    0.000000e+00,    6.666668e+00,   -5.000000e+00
    4567,    0.000000e+00,    6.666667e+00,   -2.500000e+00
    4568,    0.000000e+00,    8.888891e+00,   -7.500000e+00
    4569,    0.000000e+00,    8.888890e+00,   -5.000000e+00
    4570,    0.000000e+00,    8.888890e+00,   -2.500000e+00
    4571,    0.000000e+00,    1.111111e+01,   -7.500000e+00
    4572,    0.000000e+00,    1.111111e+01,   -5.000000e+00
    4573,    0.000000e+00,    1.111111e+01,   -2.500000e+00
    4574,    0.000000e+00,    1.333333e+01,   -7.500000e+00
    4575,    0.000000e+00,    1.333333e+01,   -5.000000e+00
    4576,    0.000000e+00,    1.333333e+01,   -2.500000e+00
    4577,    0.000000e+00,    1.555556e+01,   -7.500000e+00
    4578,    0.000000e+00,    1.555556e+01,   -5.000000e+00
    4579,    0.000000e+00,    1.555556e+01,   -2.500000e+00
    4580,    0.000000e+00,    1.777778e+01,   -7.500000e+00
    4581,    0.000000e+00,    1.777778e+01,   -5.000000e+00
    4582,    0.000000e+00,    1.777778e+01,   -2.500000e+00
    4583,    1.000000e+01,    2.000000e+01,    0.000000e+00
    4584,    1.000000e+01,    1.777778e+01,   -4.762516e-16
    4585,    1.000000e+01,    1.555556e+01,   -3.401797e-16
    4586,    1.000000e+01,    1.333333e+01,   -2.041079e-16
    4587,    1.000000e+01,    1.111111e+01,   -6.803607e-17
    4588,    1.000000e+01,    8.888892e+00,    6.803576e-17
    4589,    8.000000e+00,    2.000000e+01,    0.000000e+00
    4590,    6.000000e+00,    2.000000e+01,    0.000000e+00
    4591,    4.000000e+00,    2.000000e+01,    0.000000e+00
    4592,    2.000000e+00,    2.000000e+01,    0.000000e+00
    4593,    2.000000e+00,    1.777778e+01,    0.000000e+00
    4594,    2.000000e+00,    1.555556e+01,    0.000000e+00
    4595,    2.000000e+00,    1.333333e+01,    0.000000e+00
    4596,    2.000000e+00,    1.111111e+01,    0.000000e+00
    4597,    2.000000e+00,    8.888889e+00,    0.000000e+00
    4598,    2.000000e+00,    6.666667e+00,    0.000000e+00
    4599,    2.000000e+00,    4.444445e+00,    0.000000e+00
    4600,    2.000000e+00,    2.222222e+00,    0.000000e+00
    4601,    4.000000e+00,    1.777778e+01,    0.000000e+00
    4602,    4.000000e+00,    1.555556e+01,    0.000000e+00
    4603,    4.000000e+00,    1.333333e+01,    0.000000e+00
    4604,    4.000000e+00,    1.111111e+01,    0.000000e+00
    4605,    4.000000e+00,    8.888890e+00,    0.000000e+00
    4606,    4.000000e+00,    6.666668e+00,    0.000000e+00
    4607,    4.000000e+00,    4.444445e+00,    0.000000e+00
    4608,    4.000000e+00,    2.222223e+00,    0.000000e+00
    4609,    6.000000e+00,    1.777778e+01,    0.000000e+00
    4610,    6.000000e+00,    1.555556e+01,    0.000000e+00
    4611,    6.000000e+00,    1.333333e+01,    0.000000e+00
    4612,    6.000000e+00,    1.111111e+01,    0.000000e+00
    4613,    6.000000e+00,    8.888891e+00,    0.000000e+00
    4614,    6.000000e+00,    6.666669e+00,    0.000000e+00
    4615,    6.000000e+00,    4.444446e+00,    0.000000e+00
    4616,    6.000000e+00,    2.222223e+00,    0.000000e+00
    4617,    8.000000e+00,    1.777778e+01,    0.000000e+00
    4618,    8.000000e+00,    1.555556e+01,    0.000000e+00
    4619,    8.000000e+00,    1.333333e+01,    0.000000e+00
    4620,    8.000000e+00,    1.111111e+01,    0.000000e+00
    4621,    8.000000e+00,    8.888891e+00,    0.000000e+00
    4622,    8.000000e+00,    6.666669e+00,    0.000000e+00
    4623,    8.000000e+00,    4.444446e+00,    0.000000e+00
    4624,    8.000000e+00,    2.222223e+00,    0.000000e+00
    4625,    2.225209e+00,    2.000000e+01,   -9.749279e+00
    4626,    4.338837e+00,    2.000000e+01,   -9.009689e+00
    4627,    6.234898e+00,    2.000000e+01,   -7.818315e+00
    4628,    7.818315e+00,    2.000000e+01,   -6.234898e+00
    4629,    9.009689e+00,    2.000000e+01,   -4.338837e+00
    4630,    9.749279e+00,    2.000000e+01,   -2.225209e+00
    4631,    2.225209e+00,    1.777778e+01,   -9.749279e+00
    4632,    2.225209e+00,    1.555556e+01,   -9.749279e+00
    4633,    2.225209e+00,    1.333334e+01,   -9.749279e+00
    4634,    2.225209e+00,    1.111111e+01,   -9.749279e+00
    4635,    2.225209e+00,    8.888892e+00,   -9.749279e+00
    4636,    4.338837e+00,    1.777778e+01,   -9.009689e+00
    4637,    4.338837e+00,    1.555556e+01,   -9.009689e+00
    4638,    4.338837e+00,    1.333334e+01,   -9.009689e+00
    4639,    4.338837e+00,    1.111111e+01,   -9.009689e+00
    4640,    4.338837e+00,    8.888892e+00,   -9.009689e+00
    4641,    6.234898e+00,    1.777778e+01,   -7.818315e+00
    4642,    6.234898e+00,    1.555556e+01,   -7.818315e+00
    4643,    6.234898e+00,    1.333334e+01,   -7.818315e+00
    4644,    6.234898e+00,    1.111111e+01,   -7.818315e+00
    4645,    6.234898e+00,    8.888892e+00,   -7.818315e+00
    4646,    7.818315e+00,    1.777778e+01,   -6.234898e+00
    4647,    7.818315e+00,    1.555556e+01,   -6.234898e+00
    4648,    7.818315e+00,    1.333334e+01,   -6.234898e+00
    4649,    7.818315e+00,    1.111111e+01,   -6.234898e+00
    4650,    7.818315e+00,    8.888892e+00,   -6.234898e+00
    4651,    9.009689e+00,    1.777778e+01,   -4.338837e+00
    4652,    9.009689e+00,    1.555556e+01,   -4.338837e+00
    4653,    9.009689e+00,    1.333333e+01,   -4.338837e+00
    4654,    9.009689e+00,    1.111111e+01,   -4.338837e+00
    4655,    9.009689e+00,    8.888892e+00,   -4.338837e+00
    4656,    9.749279e+00,    1.777778e+01,   -2.225209e+00
    4657,    9.749279e+00,    1.555556e+01,   -2.225209e+00
    4658,    9.749279e+00,    1.333333e+01,   -2.225209e+00
    4659,    9.749279e+00,    1.111111e+01,   -2.225209e+00
    4660,    9.749279e+00,    8.888892e+00,   -2.225209e+00
    4661,    6.840806e+00,    2.222223e+00,   -5.309894e+00
    4662,    5.525158e+00,    2.222223e+00,   -5.824169e+00
    4663,    3.866234e+00,    2.222223e+00,   -6.482100e+00
    4664,    1.975763e+00,    2.222223e+00,   -7.049762e+00
    4665,    1.903308e+00,    2.222223e+00,   -4.640728e+00
    4666,    1.908332e+00,    2.222223e+00,   -2.295249e+00
    4667,    3.753719e+00,    2.222223e+00,   -4.285651e+00
    4668,    3.833892e+00,    2.222223e+00,   -2.139020e+00
    4669,    5.509063e+00,    2.222223e+00,   -3.978288e+00
    4670,    5.714397e+00,    2.222223e+00,   -2.015197e+00
    4671,    7.178946e+00,    2.222223e+00,   -3.870615e+00
    4672,    7.639957e+00,    2.222223e+00,   -2.024445e+00
    4673,    6.840806e+00,    4.444447e+00,   -5.309894e+00
    4674,    5.525158e+00,    4.444447e+00,   -5.824169e+00
    4675,    3.866234e+00,    4.444446e+00,   -6.482100e+00
    4676,    1.975763e+00,    4.444446e+00,   -7.049762e+00
    4677,    1.903308e+00,    4.444446e+00,   -4.640728e+00
    4678,    1.908332e+00,    4.444445e+00,   -2.295249e+00
    4679,    3.753719e+00,    4.444446e+00,   -4.285651e+00
    4680,    3.833892e+00,    4.444446e+00,   -2.139020e+00
    4681,    5.509063e+00,    4.444446e+00,   -3.978288e+00
    4682,    5.714397e+00,    4.444446e+00,   -2.015197e+00
    4683,    7.178946e+00,    4.444446e+00,   -3.870615e+00
    4684,    7.639957e+00,    4.444446e+00,   -2.024445e+00
    4685,    6.840806e+00,    6.666670e+00,   -5.309894e+00
    4686,    5.525158e+00,    6.666670e+00,   -5.824169e+00
    4687,    3.866234e+00,    6.666670e+00,   -6.482100e+00
    4688,    1.975763e+00,    6.666669e+00,   -7.049762e+00
    4689,    1.903308e+00,    6.666669e+00,   -4.640728e+00
    4690,    1.908332e+00,    6.666668e+00,   -2.295249e+00
    4691,    3.753719e+00,    6.666669e+00,   -4.285651e+00
    4692,    3.833892e+00,    6.666668e+00,   -2.139020e+00
    4693,    5.509063e+00,    6.666669e+00,   -3.978288e+00
    4694,    5.714397e+00,    6.666669e+00,   -2.015197e+00
    4695,    7.178946e+00,    6.666670e+00,   -3.870615e+00
    4696,    7.639957e+00,    6.666669e+00,   -2.024445e+00
    4697,    6.840806e+00,    8.888892e+00,   -5.309894e+00
    4698,    5.525158e+00,    8.888891e+00,   -5.824169e+00
    4699,    3.866234e+00,    8.888891e+00,   -6.482100e+00
    4700,    1.975763e+00,    8.888891e+00,   -7.049762e+00
    4701,    1.903308e+00,    8.888891e+00,   -4.640728e+00
    4702,    1.908332e+00,    8.888890e+00,   -2.295249e+00
    4703,    3.753719e+00,    8.888891e+00,   -4.285651e+00
    4704,    3.833892e+00,    8.888890e+00,   -2.139020e+00
    4705,    5.509063e+00,    8.888891e+00,   -3.978288e+00
    4706,    5.714397e+00,    8.888891e+00,   -2.015197e+00
    4707,    7.178946e+00,    8.888891e+00,   -3.870615e+00
    4708,    7.639957e+00,    8.888891e+00,   -2.024445e+00
    4709,    6.840806e+00,    1.111111e+01,   -5.309894e+00
    4710,    5.525158e+00,    1.111111e+01,   -5.824169e+00
    4711,    3.866234e+00,    1.111111e+01,   -6.482100e+00
    4712,    1.975763e+00,    1.111111e+01,   -7.049762e+00
    4713,    1.903308e+00,    1.111111e+01,   -4.640728e+00
    4714,    1.908332e+00,    1.111111e+01,   -2.295249e+00
    4715,    3.753719e+00,    1.111111e+01,   -4.285651e+00
    4716,    3.833892e+00,    1.111111e+01,   -2.139020e+00
    4717,    5.509063e+00,    1.111111e+01,   -3.978288e+00
    4718,    5.714397e+00,    1.111111e+01,   -2.015197e+00
    4719,    7.178946e+00,    1.111111e+01,   -3.870615e+00
    4720,    7.639957e+00,    1.111111e+01,   -2.024445e+00
    4721,    6.840806e+00,    1.333333e+01,   -5.309894e+00
    4722,    5.525158e+00,    1.333333e+01,   -5.824169e+00
    4723,    3.866234e+00,    1.333333e+01,   -6.482100e+00
    4724,    1.975763e+00,    1.333333e+01,   -7.049762e+00
    4725,    1.903308e+00,    1.333333e+01,   -4.640728e+00
    4726,    1.908332e+00,    1.333333e+01,   -2.295249e+00
    4727,    3.753719e+00,    1.333333e+01,   -4.285651e+00
    4728,    3.833892e+00,    1.333333e+01,   -2.139020e+00
    4729,    5.509063e+00,    1.333333e+01,   -3.978288e+00
    4730,    5.714397e+00,    1.333333e+01,   -2.015197e+00
    4731,    7.178946e+00,    1.333333e+01,   -3.870615e+00
    4732,    7.639957e+00,    1.333333e+01,   -2.024445e+00
    4733,    6.840806e+00,    1.555556e+01,   -5.309894e+00
    4734,    5.525158e+00,    1.555556e+01,   -5.824169e+00
    4735,    3.866234e+00,    1.555556e+01,   -6.482100e+00
    4736,    1.975763e+00,    1.555556e+01,   -7.049762e+00
    4737,    1.903308e+00,    1.555556e+01,   -4.640728e+00
    4738,    1.908332e+00,    1.555556e+01,   -2.295249e+00
    4739,    3.753719e+00,    1.555556e+01,   -4.285651e+00
    4740,    3.833892e+00,    1.555556e+01,   -2.139020e+00
    4741,    5.509063e+00,    1.555556e+01,   -3.978288e+00
    4742,    5.714397e+00,    1.555556e+01,   -2.015197e+00
    4743,    7.178946e+00,    1.555556e+01,   -3.870615e+00
    4744,    7.639957e+00,    1.555556e+01,   -2.024445e+00
    4745,    6.840806e+00,    1.777778e+01,   -5.309894e+00
    4746,    5.525158e+00,    1.777778e+01,   -5.824169e+00
    4747,    3.866234e+00,    1.777778e+01,   -6.482100e+00
    4748,    1.975763e+00,    1.777778e+01,   -7.049762e+00
    4749,    1.903308e+00,    1.777778e+01,   -4.640728e+00
    4750,    1.908332e+00,    1.777778e+01,   -2.295249e+00
    4751,    3.753719e+00,    1.777778e+01,   -4.285651e+00
    4752,    3.833892e+00,    1.777778e+01,   -2.139020e+00
    4753,    5.509063e+00,    1.777778e+01,   -3.978288e+00
    4754,    5.714397e+00,    1.777778e+01,   -2.015197e+00
    4755,    7.178946e+00,    1.777778e+01,   -3.870615e+00
    4756,    7.639957e+00,    1.777778e+01,   -2.024445e+00
    4757,    6.840806e+00,    2.000000e+01,   -5.309894e+00
    4758,    5.525158e+00,    2.000000e+01,   -5.824169e+00
    4759,    3.866234e+00,    2.000000e+01,   -6.482100e+00
    4760,    1.975763e+00,    2.000000e+01,   -7.049762e+00
    4761,    1.903308e+00,    2.000000e+01,   -4.640728e+00
    4762,    1.908332e+00,    2.000000e+01,   -2.295249e+00
    4763,    3.753719e+00,    2.000000e+01,   -4.285651e+00
    4764,    3.833892e+00,    2.000000e+01,   -2.139020e+00
    4765,    5.509063e+00,    2.000000e+01,   -3.978288e+00
    4766,    5.714397e+00,    2.000000e+01,   -2.015197e+00
    4767,    7.178946e+00,    2.000000e+01,   -3.870615e+00
    4768,    7.639957e+00,    2.000000e+01,   -2.024445e+00
    4769,    0.000000e+00,   -8.000000e+01,   -1.000000e+01
    4770,    0.000000e+00,   -7.600000e+01,   -1.000000e+01
    4771,    0.000000e+00,   -7.200000e+01,   -1.000000e+01
    4772,    0.000000e+00,   -6.800000e+01,   -1.000000e+01
    4773,    0.000000e+00,   -6.400000e+01,   -1.000000e+01
    4774,    0.000000e+00,   -6.000000e+01,   -1.000000e+01
    4775,    0.000000e+00,   -5.600000e+01,   -1.000000e+01
    4776,    0.000000e+00,   -5.200000e+01,   -1.000000e+01
    4777,    0.000000e+00,   -4.800000e+01,   -1.000000e+01
    4778,    0.000000e+00,   -4.400000e+01,   -1.000000e+01
    4779,    0.000000e+00,   -4.000000e+01,   -1.000000e+01
    4780,    0.000000e+00,   -3.600000e+01,   -1.000000e+01
    4781,    0.000000e+00,   -3.200000e+01,   -1.000000e+01
    4782,    0.000000e+00,   -2.800000e+01,   -1.000000e+01
    4783,    0.000000e+00,   -2.400000e+01,   -1.000000e+01
    4784,    0.000000e+00,   -2.000000e+01,   -1.000000e+01
    4785,    0.000000e+00,   -1.600000e+01,   -1.000000e+01
    4786,    0.000000e+00,   -1.200000e+01,   -1.000000e+01
    4787,    0.000000e+00,   -8.000000e+00,   -1.000000e+01
    4788,    0.000000e+00,   -4.000000e+00,   -1.000000e+01
    4789,    0.000000e+00,   -8.000000e+01,    0.000000e+00
    4790,    0.000000e+00,   -8.000000e+01,   -2.500000e+00
    4791,    0.000000e+00,   -8.000000e+01,   -5.000000e+00
    4792,    0.000000e+00,   -8.000000e+01,   -7.500000e+00
    4793,    0.000000e+00,   -4.000000e+00,    0.000000e+00
    4794,    0.000000e+00,   -8.000000e+00,    0.000000e+00
    4795,    0.000000e+00,   -1.200000e+01,    0.000000e+00
    4796,    0.000000e+00,   -1.600000e+01,    0.000000e+00
    4797,    0.000000e+00,   -2.000000e+01,    0.000000e+00
    4798,    0.000000e+00,   -2.400000e+01,    0.000000e+00
    4799,    0.000000e+00,   -2.800000e+01,    0.000000e+00
    4800,    0.000000e+00,   -3.200000e+01,    0.000000e+00
    4801,    0.000000e+00,   -3.600000e+01,    0.000000e+00
    4802,    0.000000e+00,   -4.000000e+01,    0.000000e+00
    4803,    0.000000e+00,   -4.400000e+01,    0.000000e+00
    4804,    0.000000e+00,   -4.800000e+01,    0.000000e+00
    4805,    0.000000e+00,   -5.200000e+01,    0.000000e+00
    4806,    0.000000e+00,   -5.600000e+01,    0.000000e+00
    4807,    0.000000e+00,   -6.000000e+01,    0.000000e+00
    4808,    0.000000e+00,   -6.400000e+01,    0.000000e+00
    4809,    0.000000e+00,   -6.800000e+01,    0.000000e+00
    4810,    0.000000e+00,   -7.200000e+01,    0.000000e+00
    4811,    0.000000e+00,   -7.600000e+01,    0.000000e+00
    4812,    0.000000e+00,   -4.000000e+00,   -7.500000e+00
    4813,    0.000000e+00,   -8.000000e+00,   -7.500000e+00
    4814,    0.000000e+00,   -1.200000e+01,   -7.500000e+00
    4815,    0.000000e+00,   -1.600000e+01,   -7.500000e+00
    4816,    0.000000e+00,   -2.000000e+01,   -7.500000e+00
    4817,    0.000000e+00,   -2.400000e+01,   -7.500000e+00
    4818,    0.000000e+00,   -2.800000e+01,   -7.500000e+00
    4819,    0.000000e+00,   -3.200000e+01,   -7.500000e+00
    4820,    0.000000e+00,   -3.600000e+01,   -7.500000e+00
    4821,    0.000000e+00,   -4.000000e+01,   -7.500000e+00
    4822,    0.000000e+00,   -4.400000e+01,   -7.500000e+00
    4823,    0.000000e+00,   -4.800000e+01,   -7.500000e+00
    4824,    0.000000e+00,   -5.200000e+01,   -7.500000e+00
    4825,    0.000000e+00,   -5.600000e+01,   -7.500000e+00
    4826,    0.000000e+00,   -6.000000e+01,   -7.500000e+00
    4827,    0.000000e+00,   -6.400000e+01,   -7.500000e+00
    4828,    0.000000e+00,   -6.800000e+01,   -7.500000e+00
    4829,    0.000000e+00,   -7.200000e+01,   -7.500000e+00
    4830,    0.000000e+00,   -7.600000e+01,   -7.500000e+00
    4831,    0.000000e+00,   -4.000000e+00,   -5.000000e+00
    4832,    0.000000e+00,   -8.000000e+00,   -5.000000e+00
    4833,    0.000000e+00,   -1.200000e+01,   -5.000000e+00
    4834,    0.000000e+00,   -1.600000e+01,   -5.000000e+00
    4835,    0.000000e+00,   -2.000000e+01,   -5.000000e+00
    4836,    0.000000e+00,   -2.400000e+01,   -5.000000e+00
    4837,    0.000000e+00,   -2.800000e+01,   -5.000000e+00
    4838,    0.000000e+00,   -3.200000e+01,   -5.000000e+00
    4839,    0.000000e+00,   -3.600000e+01,   -5.000000e+00
    4840,    0.000000e+00,   -4.000000e+01,   -5.000000e+00
    4841,    0.000000e+00,   -4.400000e+01,   -5.000000e+00
    4842,    0.000000e+00,   -4.800000e+01,   -5.000000e+00
    4843,    0.000000e+00,   -5.200000e+01,   -5.000000e+00
    4844,    0.000000e+00,   -5.600000e+01,   -5.000000e+00
    4845,    0.000000e+00,   -6.000000e+01,   -5.000000e+00
    4846,    0.000000e+00,   -6.400000e+01,   -5.000000e+00
    4847,    0.000000e+00,   -6.800000e+01,   -5.000000e+00
    4848,    0.000000e+00,   -7.200000e+01,   -5.000000e+00
    4849,    0.000000e+00,   -7.600000e+01,   -5.000000e+00
    4850,    0.000000e+00,   -4.000000e+00,   -2.500000e+00
    4851,    0.000000e+00,   -8.000000e+00,   -2.500000e+00
    4852,    0.000000e+00,   -1.200000e+01,   -2.500000e+00
    4853,    0.000000e+00,   -1.600000e+01,   -2.500000e+00
    4854,    0.000000e+00,   -2.000000e+01,   -2.500000e+00
    4855,    0.000000e+00,   -2.400000e+01,   -2.500000e+00
    4856,    0.000000e+00,   -2.800000e+01,   -2.500000e+00
    4857,    0.000000e+00,   -3.200000e+01,   -2.500000e+00
    4858,    0.000000e+00,   -3.600000e+01,   -2.500000e+00
    4859,    0.000000e+00,   -4.000000e+01,   -2.500000e+00
    4860,    0.000000e+00,   -4.400000e+01,   -2.500000e+00
    4861,    0.000000e+00,   -4.800000e+01,   -2.500000e+00
    4862,    0.000000e+00,   -5.200000e+01,   -2.500000e+00
    4863,    0.000000e+00,   -5.600000e+01,   -2.500000e+00
    4864,    0.000000e+00,   -6.000000e+01,   -2.500000e+00
    4865,    0.000000e+00,   -6.400000e+01,   -2.500000e+00
    4866,    0.000000e+00,   -6.800000e+01,   -2.500000e+00
    4867,    0.000000e+00,   -7.200000e+01,   -2.500000e+00
    4868,    0.000000e+00,   -7.600000e+01,   -2.500000e+00
    4869,    1.000000e+01,   -8.000000e+01,    3.061617e-15
    4870,    2.000000e+00,   -8.000000e+01,    0.000000e+00
    4871,    4.000000e+00,   -8.000000e+01,    0.000000e+00
    4872,    6.000000e+00,   -8.000000e+01,    0.000000e+00
    4873,    8.000000e+00,   -8.000000e+01,    0.000000e+00
    4874,    1.000000e+01,   -7.600000e+01,    2.816688e-15
    4875,    1.000000e+01,   -7.200000e+01,    2.571758e-15
    4876,    1.000000e+01,   -6.800000e+01,    2.326829e-15
    4877,    1.000000e+01,   -6.400000e+01,    2.081900e-15
    4878,    1.000000e+01,   -6.000000e+01,    1.836970e-15
    4879,    1.000000e+01,   -5.600000e+01,    1.592041e-15
    4880,    1.000000e+01,   -5.200000e+01,    1.347111e-15
    4881,    1.000000e+01,   -4.800000e+01,    1.102182e-15
    4882,    1.000000e+01,   -4.400000e+01,    8.572528e-16
    4883,    1.000000e+01,   -4.000000e+01,    6.123234e-16
    4884,    1.000000e+01,   -3.600000e+01,    3.673940e-16
    4885,    1.000000e+01,   -3.200000e+01,    1.224647e-16
    4886,    1.000000e+01,   -2.800000e+01,   -1.224647e-16
    4887,    1.000000e+01,   -2.400000e+01,   -3.673940e-16
    4888,    1.000000e+01,   -2.000000e+01,   -6.123234e-16
    4889,    1.000000e+01,   -1.600000e+01,   -8.572528e-16
    4890,    1.000000e+01,   -1.200000e+01,   -1.102182e-15
    4891,    1.000000e+01,   -8.000000e+00,   -1.347111e-15
    4892,    1.000000e+01,   -4.000000e+00,   -1.592041e-15
    4893,    2.000000e+00,   -4.000000e+00,    0.000000e+00
    4894,    2.000000e+00,   -8.000000e+00,    0.000000e+00
    4895,    2.000000e+00,   -1.200000e+01,    0.000000e+00
    4896,    2.000000e+00,   -1.600000e+01,    0.000000e+00
    4897,    2.000000e+00,   -2.000000e+01,    0.000000e+00
    4898,    2.000000e+00,   -2.400000e+01,    0.000000e+00
    4899,    2.000000e+00,   -2.800000e+01,    0.000000e+00
    4900,    2.000000e+00,   -3.200000e+01,    0.000000e+00
    4901,    2.000000e+00,   -3.600000e+01,    0.000000e+00
    4902,    2.000000e+00,   -4.000000e+01,    0.000000e+00
    4903,    2.000000e+00,   -4.400000e+01,    0.000000e+00
    4904,    2.000000e+00,   -4.800000e+01,    0.000000e+00
    4905,    2.000000e+00,   -5.200000e+01,    0.000000e+00
    4906,    2.000000e+00,   -5.600000e+01,    0.000000e+00
    4907,    2.000000e+00,   -6.000000e+01,    0.000000e+00
    4908,    2.000000e+00,   -6.400000e+01,    0.000000e+00
    4909,    2.000000e+00,   -6.800000e+01,    0.000000e+00
    4910,    2.000000e+00,   -7.200000e+01,    0.000000e+00
    4911,    2.000000e+00,   -7.600000e+01,    0.000000e+00
    4912,    4.000000e+00,   -4.000000e+00,    0.000000e+00
    4913,    4.000000e+00,   -8.000000e+00,    0.000000e+00
    4914,    4.000000e+00,   -1.200000e+01,    0.000000e+00
    4915,    4.000000e+00,   -1.600000e+01,    0.000000e+00
    4916,    4.000000e+00,   -2.000000e+01,    0.000000e+00
    4917,    4.000000e+00,   -2.400000e+01,    0.000000e+00
    4918,    4.000000e+00,   -2.800000e+01,    0.000000e+00
    4919,    4.000000e+00,   -3.200000e+01,    0.000000e+00
    4920,    4.000000e+00,   -3.600000e+01,    0.000000e+00
    4921,    4.000000e+00,   -4.000000e+01,    0.000000e+00
    4922,    4.000000e+00,   -4.400000e+01,    0.000000e+00
    4923,    4.000000e+00,   -4.800000e+01,    0.000000e+00
    4924,    4.000000e+00,   -5.200000e+01,    0.000000e+00
    4925,    4.000000e+00,   -5.600000e+01,    0.000000e+00
    4926,    4.000000e+00,   -6.000000e+01,    0.000000e+00
    4927,    4.000000e+00,   -6.400000e+01,    0.000000e+00
    4928,    4.000000e+00,   -6.800000e+01,    0.000000e+00
    4929,    4.000000e+00,   -7.200000e+01,    0.000000e+00
    4930,    4.000000e+00,   -7.600000e+01,    0.000000e+00
    4931,    6.000000e+00,   -4.000000e+00,    0.000000e+00
    4932,    6.000000e+00,   -8.000000e+00,    0.000000e+00
    4933,    6.000000e+00,   -1.200000e+01,    0.000000e+00
    4934,    6.000000e+00,   -1.600000e+01,    0.000000e+00
    4935,    6.000000e+00,   -2.000000e+01,    0.000000e+00
    4936,    6.000000e+00,   -2.400000e+01,    0.000000e+00
    4937,    6.000000e+00,   -2.800000e+01,    0.000000e+00
    4938,    6.000000e+00,   -3.200000e+01,    0.000000e+00
    4939,    6.000000e+00,   -3.600000e+01,    0.000000e+00
    4940,    6.000000e+00,   -4.000000e+01,    0.000000e+00
    4941,    6.000000e+00,   -4.400000e+01,    0.000000e+00
    4942,    6.000000e+00,   -4.800000e+01,    0.000000e+00
    4943,    6.000000e+00,   -5.200000e+01,    0.000000e+00
    4944,    6.000000e+00,   -5.600000e+01,    0.000000e+00
    4945,    6.000000e+00,   -6.000000e+01,    0.000000e+00
    4946,    6.000000e+00,   -6.400000e+01,    0.000000e+00
    4947,    6.000000e+00,   -6.800000e+01,    0.000000e+00
    4948,    6.000000e+00,   -7.200000e+01,    0.000000e+00
    4949,    6.000000e+00,   -7.600000e+01,    0.000000e+00
    4950,    8.000000e+00,   -4.000000e+00,    0.000000e+00
    4951,    8.000000e+00,   -8.000000e+00,    0.000000e+00
    4952,    8.000000e+00,   -1.200000e+01,    0.000000e+00
    4953,    8.000000e+00,   -1.600000e+01,    0.000000e+00
    4954,    8.000000e+00,   -2.000000e+01,    0.000000e+00
    4955,    8.000000e+00,   -2.400000e+01,    0.000000e+00
    4956,    8.000000e+00,   -2.800000e+01,    0.000000e+00
    4957,    8.000000e+00,   -3.200000e+01,    0.000000e+00
    4958,    8.000000e+00,   -3.600000e+01,    0.000000e+00
    4959,    8.000000e+00,   -4.000000e+01,    0.000000e+00
    4960,    8.000000e+00,   -4.400000e+01,    0.000000e+00
    4961,    8.000000e+00,   -4.800000e+01,    0.000000e+00
    4962,    8.000000e+00,   -5.200000e+01,    0.000000e+00
    4963,    8.000000e+00,   -5.600000e+01,    0.000000e+00
    4964,    8.000000e+00,   -6.000000e+01,    0.000000e+00
    4965,    8.000000e+00,   -6.400000e+01,    0.000000e+00
    4966,    8.000000e+00,   -6.800000e+01,    0.000000e+00
    4967,    8.000000e+00,   -7.200000e+01,    0.000000e+00
    4968,    8.000000e+00,   -7.600000e+01,    0.000000e+00
    4969,    2.225209e+00,   -8.000000e+01,   -9.749279e+00
    4970,    4.338837e+00,   -8.000000e+01,   -9.009689e+00
    4971,    6.234898e+00,   -8.000000e+01,   -7.818315e+00
    4972,    7.818315e+00,   -8.000000e+01,   -6.234898e+00
    4973,    9.009689e+00,   -8.000000e+01,   -4.338837e+00
    4974,    9.749279e+00,   -8.000000e+01,   -2.225209e+00
    4975,    2.225209e+00,   -7.600000e+01,   -9.749279e+00
    4976,    2.225209e+00,   -7.200000e+01,   -9.749279e+00
    4977,    2.225209e+00,   -6.800000e+01,   -9.749279e+00
    4978,    2.225209e+00,   -6.400000e+01,   -9.749279e+00
    4979,    2.225209e+00,   -6.000000e+01,   -9.749279e+00
    4980,    2.225209e+00,   -5.600000e+01,   -9.749279e+00
    4981,    2.225209e+00,   -5.200000e+01,   -9.749279e+00
    4982,    2.225209e+00,   -4.800000e+01,   -9.749279e+00
    4983,    2.225209e+00,   -4.400000e+01,   -9.749279e+00
    4984,    2.225209e+00,   -4.000000e+01,   -9.749279e+00
    4985,    2.225209e+00,   -3.600000e+01,   -9.749279e+00
    4986,    2.225209e+00,   -3.200000e+01,   -9.749279e+00
    4987,    2.225209e+00,   -2.800000e+01,   -9.749279e+00
    4988,    2.225209e+00,   -2.400000e+01,   -9.749279e+00
    4989,    2.225209e+00,   -2.000000e+01,   -9.749279e+00
    4990,    2.225209e+00,   -1.600000e+01,   -9.749279e+00
    4991,    2.225209e+00,   -1.200000e+01,   -9.749279e+00
    4992,    2.225209e+00,   -8.000000e+00,   -9.749279e+00
    4993,    2.225209e+00,   -4.000000e+00,   -9.749279e+00
    4994,    4.338837e+00,   -7.600000e+01,   -9.009689e+00
    4995,    4.338837e+00,   -7.200000e+01,   -9.009689e+00
    4996,    4.338837e+00,   -6.800000e+01,   -9.009689e+00
    4997,    4.338837e+00,   -6.400000e+01,   -9.009689e+00
    4998,    4.338837e+00,   -6.000000e+01,   -9.009689e+00
    4999,    4.338837e+00,   -5.600000e+01,   -9.009689e+00
    5000,    4.338837e+00,   -5.200000e+01,   -9.009689e+00
    5001,    4.338837e+00,   -4.800000e+01,   -9.009689e+00
    5002,    4.338837e+00,   -4.400000e+01,   -9.009689e+00
    5003,    4.338837e+00,   -4.000000e+01,   -9.009689e+00
    5004,    4.338837e+00,   -3.600000e+01,   -9.009689e+00
    5005,    4.338837e+00,   -3.200000e+01,   -9.009689e+00
    5006,    4.338837e+00,   -2.800000e+01,   -9.009689e+00
    5007,    4.338837e+00,   -2.400000e+01,   -9.009689e+00
    5008,    4.338837e+00,   -2.000000e+01,   -9.009689e+00
    5009,    4.338837e+00,   -1.600000e+01,   -9.009689e+00
    5010,    4.338837e+00,   -1.200000e+01,   -9.009689e+00
    5011,    4.338837e+00,   -8.000000e+00,   -9.009689e+00
    5012,    4.338837e+00,   -4.000000e+00,   -9.009689e+00
    5013,    6.234898e+00,   -7.600000e+01,   -7.818315e+00
    5014,    6.234898e+00,   -7.200000e+01,   -7.818315e+00
    5015,    6.234898e+00,   -6.800000e+01,   -7.818315e+00
    5016,    6.234898e+00,   -6.400000e+01,   -7.818315e+00
    5017,    6.234898e+00,   -6.000000e+01,   -7.818315e+00
    5018,    6.234898e+00,   -5.600000e+01,   -7.818315e+00
    5019,    6.234898e+00,   -5.200000e+01,   -7.818315e+00
    5020,    6.234898e+00,   -4.800000e+01,   -7.818315e+00
    5021,    6.234898e+00,   -4.400000e+01,   -7.818315e+00
    5022,    6.234898e+00,   -4.000000e+01,   -7.818315e+00
    5023,    6.234898e+00,   -3.600000e+01,   -7.818315e+00
    5024,    6.234898e+00,   -3.200000e+01,   -7.818315e+00
    5025,    6.234898e+00,   -2.800000e+01,   -7.818315e+00
    5026,    6.234898e+00,   -2.400000e+01,   -7.818315e+00
    5027,    6.234898e+00,   -2.000000e+01,   -7.818315e+00
    5028,    6.234898e+00,   -1.600000e+01,   -7.818315e+00
    5029,    6.234898e+00,   -1.200000e+01,   -7.818315e+00
    5030,    6.234898e+00,   -8.000000e+00,   -7.818315e+00
    5031,    6.234898e+00,   -4.000000e+00,   -7.818315e+00
    5032,    7.818315e+00,   -7.600000e+01,   -6.234898e+00
    5033,    7.818315e+00,   -7.200000e+01,   -6.234898e+00
    5034,    7.818315e+00,   -6.800000e+01,   -6.234898e+00
    5035,    7.818315e+00,   -6.400000e+01,   -6.234898e+00
    5036,    7.818315e+00,   -6.000000e+01,   -6.234898e+00
    5037,    7.818315e+00,   -5.600000e+01,   -6.234898e+00
    5038,    7.818315e+00,   -5.200000e+01,   -6.234898e+00
    5039,    7.818315e+00,   -4.800000e+01,   -6.234898e+00
    5040,    7.818315e+00,   -4.400000e+01,   -6.234898e+00
    5041,    7.818315e+00,   -4.000000e+01,   -6.234898e+00
    5042,    7.818315e+00,   -3.600000e+01,   -6.234898e+00
    5043,    7.818315e+00,   -3.200000e+01,   -6.234898e+00
    5044,    7.818315e+00,   -2.800000e+01,   -6.234898e+00
    5045,    7.818315e+00,   -2.400000e+01,   -6.234898e+00
    5046,    7.818315e+00,   -2.000000e+01,   -6.234898e+00
    5047,    7.818315e+00,   -1.600000e+01,   -6.234898e+00
    5048,    7.818315e+00,   -1.200000e+01,   -6.234898e+00
    5049,    7.818315e+00,   -8.000000e+00,   -6.234898e+00
    5050,    7.818315e+00,   -4.000000e+00,   -6.234898e+00
    5051,    9.009689e+00,   -7.600000e+01,   -4.338837e+00
    5052,    9.009689e+00,   -7.200000e+01,   -4.338837e+00
    5053,    9.009689e+00,   -6.800000e+01,   -4.338837e+00
    5054,    9.009689e+00,   -6.400000e+01,   -4.338837e+00
    5055,    9.009689e+00,   -6.000000e+01,   -4.338837e+00
    5056,    9.009689e+00,   -5.600000e+01,   -4.338837e+00
    5057,    9.009689e+00,   -5.200000e+01,   -4.338837e+00
    5058,    9.009689e+00,   -4.800000e+01,   -4.338837e+00
    5059,    9.009689e+00,   -4.400000e+01,   -4.338837e+00
    5060,    9.009689e+00,   -4.000000e+01,   -4.338837e+00
    5061,    9.009689e+00,   -3.600000e+01,   -4.338837e+00
    5062,    9.009689e+00,   -3.200000e+01,   -4.338837e+00
    5063,    9.009689e+00,   -2.800000e+01,   -4.338837e+00
    5064,    9.009689e+00,   -2.400000e+01,   -4.338837e+00
    5065,    9.009689e+00,   -2.000000e+01,   -4.338837e+00
    5066,    9.009689e+00,   -1.600000e+01,   -4.338837e+00
    5067,    9.009689e+00,   -1.200000e+01,   -4.338837e+00
    5068,    9.009689e+00,   -8.000000e+00,   -4.338837e+00
    5069,    9.009689e+00,   -4.000000e+00,   -4.338837e+00
    5070,    9.749279e+00,   -7.600000e+01,   -2.225209e+00
    5071,    9.749279e+00,   -7.200000e+01,   -2.225209e+00
    5072,    9.749279e+00,   -6.800000e+01,   -2.225209e+00
    5073,    9.749279e+00,   -6.400000e+01,   -2.225209e+00
    5074,    9.749279e+00,   -6.000000e+01,   -2.225209e+00
    5075,    9.749279e+00,   -5.600000e+01,   -2.225209e+00
    5076,    9.749279e+00,   -5.200000e+01,   -2.225209e+00
    5077,    9.749279e+00,   -4.800000e+01,   -2.225209e+00
    5078,    9.749279e+00,   -4.400000e+01,   -2.225209e+00
    5079,    9.749279e+00,   -4.000000e+01,   -2.225209e+00
    5080,    9.749279e+00,   -3.600000e+01,   -2.225209e+00
    5081,    9.749279e+00,   -3.200000e+01,   -2.225209e+00
    5082,    9.749279e+00,   -2.800000e+01,   -2.225209e+00
    5083,    9.749279e+00,   -2.400000e+01,   -2.225209e+00
    5084,    9.749279e+00,   -2.000000e+01,   -2.225209e+00
    5085,    9.749279e+00,   -1.600000e+01,   -2.225209e+00
    5086,    9.749279e+00,   -1.200000e+01,   -2.225209e+00
    5087,    9.749279e+00,   -8.000000e+00,   -2.225209e+00
    5088,    9.749279e+00,   -4.000000e+00,   -2.225209e+00
    5089,    5.525158e+00,   -4.000000e+00,   -5.824169e+00
    5090,    6.840806e+00,   -4.000000e+00,   -5.309894e+00
    5091,    3.866234e+00,   -4.000000e+00,   -6.482100e+00
    5092,    1.975763e+00,   -4.000000e+00,   -7.049762e+00
    5093,    1.903308e+00,   -4.000000e+00,   -4.640728e+00
    5094,    1.908332e+00,   -4.000000e+00,   -2.295249e+00
    5095,    3.753719e+00,   -4.000000e+00,   -4.285651e+00
    5096,    3.833892e+00,   -4.000000e+00,   -2.139020e+00
    5097,    5.509063e+00,   -4.000000e+00,   -3.978288e+00
    5098,    5.714397e+00,   -4.000000e+00,   -2.015197e+00
    5099,    7.178946e+00,   -4.000000e+00,   -3.870615e+00
    5100,    7.639957e+00,   -4.000000e+00,   -2.024445e+00
    5101,    5.525158e+00,   -8.000000e+00,   -5.824169e+00
    5102,    6.840806e+00,   -8.000000e+00,   -5.309894e+00
    5103,    3.866234e+00,   -8.000000e+00,   -6.482100e+00
    5104,    1.975763e+00,   -8.000000e+00,   -7.049762e+00
    5105,    1.903308e+00,   -8.000000e+00,   -4.640728e+00
    5106,    1.908332e+00,   -8.000000e+00,   -2.295249e+00
    5107,    3.753719e+00,   -8.000000e+00,   -4.285651e+00
    5108,    3.833892e+00,   -8.000000e+00,   -2.139020e+00
    5109,    5.509063e+00,   -8.000000e+00,   -3.978288e+00
    5110,    5.714397e+00,   -8.000000e+00,   -2.015197e+00
    5111,    7.178946e+00,   -8.000000e+00,   -3.870615e+00
    5112,    7.639957e+00,   -8.000000e+00,   -2.024445e+00
    5113,    5.525158e+00,   -1.200000e+01,   -5.824169e+00
    5114,    6.840806e+00,   -1.200000e+01,   -5.309894e+00
    5115,    3.866234e+00,   -1.200000e+01,   -6.482100e+00
    5116,    1.975763e+00,   -1.200000e+01,   -7.049762e+00
    5117,    1.903308e+00,   -1.200000e+01,   -4.640728e+00
    5118,    1.908332e+00,   -1.200000e+01,   -2.295249e+00
    5119,    3.753719e+00,   -1.200000e+01,   -4.285651e+00
    5120,    3.833892e+00,   -1.200000e+01,   -2.139020e+00
    5121,    5.509063e+00,   -1.200000e+01,   -3.978288e+00
    5122,    5.714397e+00,   -1.200000e+01,   -2.015197e+00
    5123,    7.178946e+00,   -1.200000e+01,   -3.870615e+00
    5124,    7.639957e+00,   -1.200000e+01,   -2.024445e+00
    5125,    5.525158e+00,   -1.600000e+01,   -5.824169e+00
    5126,    6.840806e+00,   -1.600000e+01,   -5.309894e+00
    5127,    3.866234e+00,   -1.600000e+01,   -6.482100e+00
    5128,    1.975763e+00,   -1.600000e+01,   -7.049762e+00
    5129,    1.903308e+00,   -1.600000e+01,   -4.640728e+00
    5130,    1.908332e+00,   -1.600000e+01,   -2.295249e+00
    5131,    3.753719e+00,   -1.600000e+01,   -4.285651e+00
    5132,    3.833892e+00,   -1.600000e+01,   -2.139020e+00
    5133,    5.509063e+00,   -1.600000e+01,   -3.978288e+00
    5134,    5.714397e+00,   -1.600000e+01,   -2.015197e+00
    5135,    7.178946e+00,   -1.600000e+01,   -3.870615e+00
    5136,    7.639957e+00,   -1.600000e+01,   -2.024445e+00
    5137,    5.525158e+00,   -2.000000e+01,   -5.824169e+00
    5138,    6.840806e+00,   -2.000000e+01,   -5.309894e+00
    5139,    3.866234e+00,   -2.000000e+01,   -6.482100e+00
    5140,    1.975763e+00,   -2.000000e+01,   -7.049762e+00
    5141,    1.903308e+00,   -2.000000e+01,   -4.640728e+00
    5142,    1.908332e+00,   -2.000000e+01,   -2.295249e+00
    5143,    3.753719e+00,   -2.000000e+01,   -4.285651e+00
    5144,    3.833892e+00,   -2.000000e+01,   -2.139020e+00
    5145,    5.509063e+00,   -2.000000e+01,   -3.978288e+00
    5146,    5.714397e+00,   -2.000000e+01,   -2.015197e+00
    5147,    7.178946e+00,   -2.000000e+01,   -3.870615e+00
    5148,    7.639957e+00,   -2.000000e+01,   -2.024445e+00
    5149,    5.525158e+00,   -2.400000e+01,   -5.824169e+00
    5150,    6.840806e+00,   -2.400000e+01,   -5.309894e+00
    5151,    3.866234e+00,   -2.400000e+01,   -6.482100e+00
    5152,    1.975763e+00,   -2.400000e+01,   -7.049762e+00
    5153,    1.903308e+00,   -2.400000e+01,   -4.640728e+00
    5154,    1.908332e+00,   -2.400000e+01,   -2.295249e+00
    5155,    3.753719e+00,   -2.400000e+01,   -4.285651e+00
    5156,    3.833892e+00,   -2.400000e+01,   -2.139020e+00
    5157,    5.509063e+00,   -2.400000e+01,   -3.978288e+00
    5158,    5.714397e+00,   -2.400000e+01,   -2.015197e+00
    5159,    7.178946e+00,   -2.400000e+01,   -3.870615e+00
    5160,    7.639957e+00,   -2.400000e+01,   -2.024445e+00
    5161,    5.525158e+00,   -2.800000e+01,   -5.824169e+00
    5162,    6.840806e+00,   -2.800000e+01,   -5.309894e+00
    5163,    3.866234e+00,   -2.800000e+01,   -6.482100e+00
    5164,    1.975763e+00,   -2.800000e+01,   -7.049762e+00
    5165,    1.903308e+00,   -2.800000e+01,   -4.640728e+00
    5166,    1.908332e+00,   -2.800000e+01,   -2.295249e+00
    5167,    3.753719e+00,   -2.800000e+01,   -4.285651e+00
    5168,    3.833892e+00,   -2.800000e+01,   -2.139020e+00
    5169,    5.509063e+00,   -2.800000e+01,   -3.978288e+00
    5170,    5.714397e+00,   -2.800000e+01,   -2.015197e+00
    5171,    7.178946e+00,   -2.800000e+01,   -3.870615e+00
    5172,    7.639957e+00,   -2.800000e+01,   -2.024445e+00
    5173,    5.525158e+00,   -3.200000e+01,   -5.824169e+00
    5174,    6.840806e+00,   -3.200000e+01,   -5.309894e+00
    5175,    3.866234e+00,   -3.200000e+01,   -6.482100e+00
    5176,    1.975763e+00,   -3.200000e+01,   -7.049762e+00
    5177,    1.903308e+00,   -3.200000e+01,   -4.640728e+00
    5178,    1.908332e+00,   -3.200000e+01,   -2.295249e+00
    5179,    3.753719e+00,   -3.200000e+01,   -4.285651e+00
    5180,    3.833892e+00,   -3.200000e+01,   -2.139020e+00
    5181,    5.509063e+00,   -3.200000e+01,   -3.978288e+00
    5182,    5.714397e+00,   -3.200000e+01,   -2.015197e+00
    5183,    7.178946e+00,   -3.200000e+01,   -3.870615e+00
    5184,    7.639957e+00,   -3.200000e+01,   -2.024445e+00
    5185,    5.525158e+00,   -3.600000e+01,   -5.824169e+00
    5186,    6.840806e+00,   -3.600000e+01,   -5.309894e+00
    5187,    3.866234e+00,   -3.600000e+01,   -6.482100e+00
    5188,    1.975763e+00,   -3.600000e+01,   -7.049762e+00
    5189,    1.903308e+00,   -3.600000e+01,   -4.640728e+00
    5190,    1.908332e+00,   -3.600000e+01,   -2.295249e+00
    5191,    3.753719e+00,   -3.600000e+01,   -4.285651e+00
    5192,    3.833892e+00,   -3.600000e+01,   -2.139020e+00
    5193,    5.509063e+00,   -3.600000e+01,   -3.978288e+00
    5194,    5.714397e+00,   -3.600000e+01,   -2.015197e+00
    5195,    7.178946e+00,   -3.600000e+01,   -3.870615e+00
    5196,    7.639957e+00,   -3.600000e+01,   -2.024445e+00
    5197,    5.525158e+00,   -4.000000e+01,   -5.824169e+00
    5198,    6.840806e+00,   -4.000000e+01,   -5.309894e+00
    5199,    3.866234e+00,   -4.000000e+01,   -6.482100e+00
    5200,    1.975763e+00,   -4.000000e+01,   -7.049762e+00
    5201,    1.903308e+00,   -4.000000e+01,   -4.640728e+00
    5202,    1.908332e+00,   -4.000000e+01,   -2.295249e+00
    5203,    3.753719e+00,   -4.000000e+01,   -4.285651e+00
    5204,    3.833892e+00,   -4.000000e+01,   -2.139020e+00
    5205,    5.509063e+00,   -4.000000e+01,   -3.978288e+00
    5206,    5.714397e+00,   -4.000000e+01,   -2.015197e+00
    5207,    7.178946e+00,   -4.000000e+01,   -3.870615e+00
    5208,    7.639957e+00,   -4.000000e+01,   -2.024445e+00
    5209,    5.525158e+00,   -4.400000e+01,   -5.824169e+00
    5210,    6.840806e+00,   -4.400000e+01,   -5.309894e+00
    5211,    3.866234e+00,   -4.400000e+01,   -6.482100e+00
    5212,    1.975763e+00,   -4.400000e+01,   -7.049762e+00
    5213,    1.903308e+00,   -4.400000e+01,   -4.640728e+00
    5214,    1.908332e+00,   -4.400000e+01,   -2.295249e+00
    5215,    3.753719e+00,   -4.400000e+01,   -4.285651e+00
    5216,    3.833892e+00,   -4.400000e+01,   -2.139020e+00
    5217,    5.509063e+00,   -4.400000e+01,   -3.978288e+00
    5218,    5.714397e+00,   -4.400000e+01,   -2.015197e+00
    5219,    7.178946e+00,   -4.400000e+01,   -3.870615e+00
    5220,    7.639957e+00,   -4.400000e+01,   -2.024445e+00
    5221,    5.525158e+00,   -4.800000e+01,   -5.824169e+00
    5222,    6.840806e+00,   -4.800000e+01,   -5.309894e+00
    5223,    3.866234e+00,   -4.800000e+01,   -6.482100e+00
    5224,    1.975763e+00,   -4.800000e+01,   -7.049762e+00
    5225,    1.903308e+00,   -4.800000e+01,   -4.640728e+00
    5226,    1.908332e+00,   -4.800000e+01,   -2.295249e+00
    5227,    3.753719e+00,   -4.800000e+01,   -4.285651e+00
    5228,    3.833892e+00,   -4.800000e+01,   -2.139020e+00
    5229,    5.509063e+00,   -4.800000e+01,   -3.978288e+00
    5230,    5.714397e+00,   -4.800000e+01,   -2.015197e+00
    5231,    7.178946e+00,   -4.800000e+01,   -3.870615e+00
    5232,    7.639957e+00,   -4.800000e+01,   -2.024445e+00
    5233,    5.525158e+00,   -5.200000e+01,   -5.824169e+00
    5234,    6.840806e+00,   -5.200000e+01,   -5.309894e+00
    5235,    3.866234e+00,   -5.200000e+01,   -6.482100e+00
    5236,    1.975763e+00,   -5.200000e+01,   -7.049762e+00
    5237,    1.903308e+00,   -5.200000e+01,   -4.640728e+00
    5238,    1.908332e+00,   -5.200000e+01,   -2.295249e+00
    5239,    3.753719e+00,   -5.200000e+01,   -4.285651e+00
    5240,    3.833892e+00,   -5.200000e+01,   -2.139020e+00
    5241,    5.509063e+00,   -5.200000e+01,   -3.978288e+00
    5242,    5.714397e+00,   -5.200000e+01,   -2.015197e+00
    5243,    7.178946e+00,   -5.200000e+01,   -3.870615e+00
    5244,    7.639957e+00,   -5.200000e+01,   -2.024445e+00
    5245,    5.525158e+00,   -5.600000e+01,   -5.824169e+00
    5246,    6.840806e+00,   -5.600000e+01,   -5.309894e+00
    5247,    3.866234e+00,   -5.600000e+01,   -6.482100e+00
    5248,    1.975763e+00,   -5.600000e+01,   -7.049762e+00
    5249,    1.903308e+00,   -5.600000e+01,   -4.640728e+00
    5250,    1.908332e+00,   -5.600000e+01,   -2.295249e+00
    5251,    3.753719e+00,   -5.600000e+01,   -4.285651e+00
    5252,    3.833892e+00,   -5.600000e+01,   -2.139020e+00
    5253,    5.509063e+00,   -5.600000e+01,   -3.978288e+00
    5254,    5.714397e+00,   -5.600000e+01,   -2.015197e+00
    5255,    7.178946e+00,   -5.600000e+01,   -3.870615e+00
    5256,    7.639957e+00,   -5.600000e+01,   -2.024445e+00
    5257,    5.525158e+00,   -6.000000e+01,   -5.824169e+00
    5258,    6.840806e+00,   -6.000000e+01,   -5.309894e+00
    5259,    3.866234e+00,   -6.000000e+01,   -6.482100e+00
    5260,    1.975763e+00,   -6.000000e+01,   -7.049762e+00
    5261,    1.903308e+00,   -6.000000e+01,   -4.640728e+00
    5262,    1.908332e+00,   -6.000000e+01,   -2.295249e+00
    5263,    3.753719e+00,   -6.000000e+01,   -4.285651e+00
    5264,    3.833892e+00,   -6.000000e+01,   -2.139020e+00
    5265,    5.509063e+00,   -6.000000e+01,   -3.978288e+00
    5266,    5.714397e+00,   -6.000000e+01,   -2.015197e+00
    5267,    7.178946e+00,   -6.000000e+01,   -3.870615e+00
    5268,    7.639957e+00,   -6.000000e+01,   -2.024445e+00
    5269,    5.525158e+00,   -6.400000e+01,   -5.824169e+00
    5270,    6.840806e+00,   -6.400000e+01,   -5.309894e+00
    5271,    3.866234e+00,   -6.400000e+01,   -6.482100e+00
    5272,    1.975763e+00,   -6.400000e+01,   -7.049762e+00
    5273,    1.903308e+00,   -6.400000e+01,   -4.640728e+00
    5274,    1.908332e+00,   -6.400000e+01,   -2.295249e+00
    5275,    3.753719e+00,   -6.400000e+01,   -4.285651e+00
    5276,    3.833892e+00,   -6.400000e+01,   -2.139020e+00
    5277,    5.509063e+00,   -6.400000e+01,   -3.978288e+00
    5278,    5.714397e+00,   -6.400000e+01,   -2.015197e+00
    5279,    7.178946e+00,   -6.400000e+01,   -3.870615e+00
    5280,    7.639957e+00,   -6.400000e+01,   -2.024445e+00
    5281,    5.525158e+00,   -6.800000e+01,   -5.824169e+00
    5282,    6.840806e+00,   -6.800000e+01,   -5.309894e+00
    5283,    3.866234e+00,   -6.800000e+01,   -6.482100e+00
    5284,    1.975763e+00,   -6.800000e+01,   -7.049762e+00
    5285,    1.903308e+00,   -6.800000e+01,   -4.640728e+00
    5286,    1.908332e+00,   -6.800000e+01,   -2.295249e+00
    5287,    3.753719e+00,   -6.800000e+01,   -4.285651e+00
    5288,    3.833892e+00,   -6.800000e+01,   -2.139020e+00
    5289,    5.509063e+00,   -6.800000e+01,   -3.978288e+00
    5290,    5.714397e+00,   -6.800000e+01,   -2.015197e+00
    5291,    7.178946e+00,   -6.800000e+01,   -3.870615e+00
    5292,    7.639957e+00,   -6.800000e+01,   -2.024445e+00
    5293,    5.525158e+00,   -7.200000e+01,   -5.824169e+00
    5294,    6.840806e+00,   -7.200000e+01,   -5.309894e+00
    5295,    3.866234e+00,   -7.200000e+01,   -6.482100e+00
    5296,    1.975763e+00,   -7.200000e+01,   -7.049762e+00
    5297,    1.903308e+00,   -7.200000e+01,   -4.640728e+00
    5298,    1.908332e+00,   -7.200000e+01,   -2.295249e+00
    5299,    3.753719e+00,   -7.200000e+01,   -4.285651e+00
    5300,    3.833892e+00,   -7.200000e+01,   -2.139020e+00
    5301,    5.509063e+00,   -7.200000e+01,   -3.978288e+00
    5302,    5.714397e+00,   -7.200000e+01,   -2.015197e+00
    5303,    7.178946e+00,   -7.200000e+01,   -3.870615e+00
    5304,    7.639957e+00,   -7.200000e+01,   -2.024445e+00
    5305,    5.525158e+00,   -7.600000e+01,   -5.824169e+00
    5306,    6.840806e+00,   -7.600000e+01,   -5.309894e+00
    5307,    3.866234e+00,   -7.600000e+01,   -6.482100e+00
    5308,    1.975763e+00,   -7.600000e+01,   -7.049762e+00
    5309,    1.903308e+00,   -7.600000e+01,   -4.640728e+00
    5310,    1.908332e+00,   -7.600000e+01,   -2.295249e+00
    5311,    3.753719e+00,   -7.600000e+01,   -4.285651e+00
    5312,    3.833892e+00,   -7.600000e+01,   -2.139020e+00
    5313,    5.509063e+00,   -7.600000e+01,   -3.978288e+00
    5314,    5.714397e+00,   -7.600000e+01,   -2.015197e+00
    5315,    7.178946e+00,   -7.600000e+01,   -3.870615e+00
    5316,    7.639957e+00,   -7.600000e+01,   -2.024445e+00
    5317,    5.525158e+00,   -8.000000e+01,   -5.824169e+00
    5318,    6.840806e+00,   -8.000000e+01,   -5.309894e+00
    5319,    3.866234e+00,   -8.000000e+01,   -6.482100e+00
    5320,    1.975763e+00,   -8.000000e+01,   -7.049762e+00
    5321,    1.903308e+00,   -8.000000e+01,   -4.640728e+00
    5322,    1.908332e+00,   -8.000000e+01,   -2.295249e+00
    5323,    3.753719e+00,   -8.000000e+01,   -4.285651e+00
    5324,    3.833892e+00,   -8.000000e+01,   -2.139020e+00
    5325,    5.509063e+00,   -8.000000e+01,   -3.978288e+00
    5326,    5.714397e+00,   -8.000000e+01,   -2.015197e+00
    5327,    7.178946e+00,   -8.000000e+01,   -3.870615e+00
    5328,    7.639957e+00,   -8.000000e+01,   -2.024445e+00
    5329,    0.000000e+00,    6.666670e+00,   -4.000000e+01
    5330,    0.000000e+00,    6.666670e+00,   -1.900000e+01
    5331,    0.000000e+00,    6.666670e+00,   -3.580000e+01
    5332,    0.000000e+00,    6.666670e+00,   -3.160000e+01
    5333,    0.000000e+00,    6.666670e+00,   -2.740000e+01
    5334,    0.000000e+00,    6.666670e+00,   -2.320000e+01
    5335,    1.900000e+01,    6.666670e+00,    0.000000e+00
    5336,    4.227898e+00,    6.666670e+00,   -1.852363e+01
    5337,    8.243791e+00,    6.666670e+00,   -1.711841e+01
    5338,    1.184631e+01,    6.666670e+00,   -1.485480e+01
    5339,    1.485480e+01,    6.666670e+00,   -1.184631e+01
    5340,    1.711841e+01,    6.666670e+00,   -8.243791e+00
    5341,    1.852363e+01,    6.666670e+00,   -4.227898e+00
    5342,    4.000000e+01,    6.666670e+00,    0.000000e+00
    5343,    3.580000e+01,    6.666670e+00,    0.000000e+00
    5344,    3.160000e+01,    6.666670e+00,    0.000000e+00
    5345,    2.740000e+01,    6.666670e+00,    0.000000e+00
    5346,    2.320000e+01,    6.666670e+00,    0.000000e+00
    5347,    4.000000e+01,    6.666670e+00,   -4.000000e+01
    5348,    4.000000e+01,    6.666670e+00,   -3.600000e+01
    5349,    4.000000e+01,    6.666670e+00,   -3.200000e+01
    5350,    4.000000e+01,    6.666670e+00,   -2.800000e+01
    5351,    4.000000e+01,    6.666670e+00,   -2.400000e+01
    5352,    4.000000e+01,    6.666670e+00,   -2.000000e+01
    5353,    4.000000e+01,    6.666670e+00,   -1.600000e+01
    5354,    4.000000e+01,    6.666670e+00,   -1.200000e+01
    5355,    4.000000e+01,    6.666670e+00,   -8.000000e+00
    5356,    4.000000e+01,    6.666670e+00,   -4.000000e+00
    5357,    3.636364e+00,    6.666670e+00,   -4.000000e+01
    5358,    7.272727e+00,    6.666670e+00,   -4.000000e+01
    5359,    1.090909e+01,    6.666670e+00,   -4.000000e+01
    5360,    1.454545e+01,    6.666670e+00,   -4.000000e+01
    5361,    1.818182e+01,    6.666670e+00,   -4.000000e+01
    5362,    2.181818e+01,    6.666670e+00,   -4.000000e+01
    5363,    2.545455e+01,    6.666670e+00,   -4.000000e+01
    5364,    2.909091e+01,    6.666670e+00,   -4.000000e+01
    5365,    3.272727e+01,    6.666670e+00,   -4.000000e+01
    5366,    3.636364e+01,    6.666670e+00,   -4.000000e+01
    5367,    3.639712e+01,    6.666670e+00,   -3.624367e+01
    5368,    3.284509e+01,    6.666670e+00,   -3.644839e+01
    5369,    2.936308e+01,    6.666670e+00,   -3.659695e+01
    5370,    2.594283e+01,    6.666670e+00,   -3.656202e+01
    5371,    2.254465e+01,    6.666670e+00,   -3.617658e+01
    5372,    1.900366e+01,    6.666670e+00,   -3.594828e+01
    5373,    1.535769e+01,    6.666670e+00,   -3.586157e+01
    5374,    1.167305e+01,    6.666670e+00,   -3.584761e+01
    5375,    7.919852e+00,    6.666670e+00,   -3.569397e+01
    5376,    3.979377e+00,    6.666670e+00,   -3.572141e+01
    5377,    3.560389e+01,    6.666670e+00,   -4.226933e+00
    5378,    3.539948e+01,    6.666670e+00,   -8.452204e+00
    5379,    3.525943e+01,    6.666670e+00,   -1.266405e+01
    5380,    3.530468e+01,    6.666670e+00,   -1.683226e+01
    5381,    3.552760e+01,    6.666670e+00,   -2.090966e+01
    5382,    3.589053e+01,    6.666670e+00,   -2.485636e+01
    5383,    3.621377e+01,    6.666670e+00,   -2.869912e+01
    5384,    3.637076e+01,    6.666670e+00,   -3.247776e+01
    5385,    4.395812e+00,    6.666670e+00,   -3.136268e+01
    5386,    4.809782e+00,    6.666670e+00,   -2.689537e+01
    5387,    4.662276e+00,    6.666670e+00,   -2.249871e+01
    5388,    2.249863e+01,    6.666670e+00,   -4.525042e+00
    5389,    2.679440e+01,    6.666670e+00,   -4.618936e+00
    5390,    3.119820e+01,    6.666670e+00,   -4.435636e+00
    5391,    9.318076e+00,    6.666670e+00,   -2.115943e+01
    5392,    1.393936e+01,    6.666670e+00,   -1.872042e+01
    5393,    1.919381e+01,    6.666670e+00,   -1.503012e+01
    5394,    2.133649e+01,    6.666670e+00,   -9.227202e+00
    5395,    3.286150e+01,    6.666670e+00,   -3.291354e+01
    5396,    2.951481e+01,    6.666670e+00,   -3.328261e+01
    5397,    2.641675e+01,    6.666670e+00,   -3.332395e+01
    5398,    2.346026e+01,    6.666670e+00,   -3.256025e+01
    5399,    1.996635e+01,    6.666670e+00,   -3.176743e+01
    5400,    1.609635e+01,    6.666670e+00,   -3.180269e+01
    5401,    1.239733e+01,    6.666670e+00,   -3.184121e+01
    5402,    8.707388e+00,    6.666670e+00,   -3.127485e+01
    5403,    3.075609e+01,    6.666670e+00,   -8.909690e+00
    5404,    3.052266e+01,    6.666670e+00,   -1.334101e+01
    5405,    3.055190e+01,    6.666670e+00,   -1.781626e+01
    5406,    3.113023e+01,    6.666670e+00,   -2.200602e+01
    5407,    3.189109e+01,    6.666670e+00,   -2.583863e+01
    5408,    3.258760e+01,    6.666670e+00,   -2.940716e+01
    5409,    2.612164e+01,    6.666670e+00,   -9.190593e+00
    5410,    1.005785e+01,    6.666670e+00,   -2.615848e+01
    5411,    1.524067e+01,    6.666670e+00,   -2.342587e+01
    5412,    2.037391e+01,    6.666670e+00,   -2.103803e+01
    5413,    2.543150e+01,    6.666670e+00,   -1.409902e+01
    5414,    2.572735e+01,    6.666670e+00,   -1.902704e+01
    5415,    2.927555e+01,    6.666670e+00,   -3.015961e+01
    5416,    2.688673e+01,    6.666670e+00,   -3.090787e+01
    5417,    2.496789e+01,    6.666670e+00,   -2.924004e+01
    5418,    2.158465e+01,    6.666670e+00,   -2.658704e+01
    5419,    1.643459e+01,    6.666670e+00,   -2.766011e+01
    5420,    1.304440e+01,    6.666670e+00,   -2.852490e+01
    5421,    2.662476e+01,    6.666670e+00,   -2.357939e+01
    5422,    2.812816e+01,    6.666670e+00,   -2.719913e+01
    5423,    0.000000e+00,    2.000000e+01,   -1.900000e+01
    5424,    0.000000e+00,    1.777778e+01,   -1.900000e+01
    5425,    0.000000e+00,    1.555556e+01,   -1.900000e+01
    5426,    0.000000e+00,    1.333333e+01,   -1.900000e+01
    5427,    0.000000e+00,    1.111111e+01,   -1.900000e+01
    5428,    0.000000e+00,    8.888892e+00,   -1.900000e+01
    5429,    0.000000e+00,    2.000000e+01,   -4.000000e+01
    5430,    0.000000e+00,    2.000000e+01,   -3.580000e+01
    5431,    0.000000e+00,    2.000000e+01,   -3.160000e+01
    5432,    0.000000e+00,    2.000000e+01,   -2.740000e+01
    5433,    0.000000e+00,    2.000000e+01,   -2.320000e+01
    5434,    0.000000e+00,    8.888892e+00,   -4.000000e+01
    5435,    0.000000e+00,    1.111111e+01,   -4.000000e+01
    5436,    0.000000e+00,    1.333333e+01,   -4.000000e+01
    5437,    0.000000e+00,    1.555556e+01,   -4.000000e+01
    5438,    0.000000e+00,    1.777778e+01,   -4.000000e+01
    5439,    0.000000e+00,    8.888892e+00,   -3.580000e+01
    5440,    0.000000e+00,    8.888892e+00,   -3.160000e+01
    5441,    0.000000e+00,    8.888892e+00,   -2.740000e+01
    5442,    0.000000e+00,    8.888892e+00,   -2.320000e+01
    5443,    0.000000e+00,    1.111111e+01,   -3.580000e+01
    5444,    0.000000e+00,    1.111111e+01,   -3.160000e+01
    5445,    0.000000e+00,    1.111111e+01,   -2.740000e+01
    5446,    0.000000e+00,    1.111111e+01,   -2.320000e+01
    5447,    0.000000e+00,    1.333333e+01,   -3.580000e+01
    5448,    0.000000e+00,    1.333333e+01,   -3.160000e+01
    5449,    0.000000e+00,    1.333333e+01,   -2.740000e+01
    5450,    0.000000e+00,    1.333333e+01,   -2.320000e+01
    5451,    0.000000e+00,    1.555556e+01,   -3.580000e+01
    5452,    0.000000e+00,    1.555556e+01,   -3.160000e+01
    5453,    0.000000e+00,    1.555556e+01,   -2.740000e+01
    5454,    0.000000e+00,    1.555556e+01,   -2.320000e+01
    5455,    0.000000e+00,    1.777778e+01,   -3.580000e+01
    5456,    0.000000e+00,    1.777778e+01,   -3.160000e+01
    5457,    0.000000e+00,    1.777778e+01,   -2.740000e+01
    5458,    0.000000e+00,    1.777778e+01,   -2.320000e+01
    5459,    1.900000e+01,    2.000000e+01,    0.000000e+00
    5460,    1.900000e+01,    1.777778e+01,    2.721437e-16
    5461,    1.900000e+01,    1.555556e+01,    1.360718e-16
    5462,    1.900000e+01,    1.333333e+01,    0.000000e+00
    5463,    1.900000e+01,    1.111111e+01,   -1.360718e-16
    5464,    1.900000e+01,    8.888892e+00,   -2.721437e-16
    5465,    4.227898e+00,    2.000000e+01,   -1.852363e+01
    5466,    8.243791e+00,    2.000000e+01,   -1.711841e+01
    5467,    1.184631e+01,    2.000000e+01,   -1.485480e+01
    5468,    1.485480e+01,    2.000000e+01,   -1.184631e+01
    5469,    1.711841e+01,    2.000000e+01,   -8.243791e+00
    5470,    1.852363e+01,    2.000000e+01,   -4.227898e+00
    5471,    4.227898e+00,    1.777778e+01,   -1.852363e+01
    5472,    4.227898e+00,    1.555556e+01,   -1.852363e+01
    5473,    4.227898e+00,    1.333333e+01,   -1.852363e+01
    5474,    4.227898e+00,    1.111111e+01,   -1.852363e+01
    5475,    4.227898e+00,    8.888892e+00,   -1.852363e+01
    5476,    8.243791e+00,    1.777778e+01,   -1.711841e+01
    5477,    8.243791e+00,    1.555556e+01,   -1.711841e+01
    5478,    8.243791e+00,    1.333333e+01,   -1.711841e+01
    5479,    8.243791e+00,    1.111111e+01,   -1.711841e+01
    5480,    8.243791e+00,    8.888892e+00,   -1.711841e+01
    5481,    1.184631e+01,    1.777778e+01,   -1.485480e+01
    5482,    1.184631e+01,    1.555556e+01,   -1.485480e+01
    5483,    1.184631e+01,    1.333334e+01,   -1.485480e+01
    5484,    1.184631e+01,    1.111111e+01,   -1.485480e+01
    5485,    1.184631e+01,    8.888892e+00,   -1.485480e+01
    5486,    1.485480e+01,    1.777778e+01,   -1.184631e+01
    5487,    1.485480e+01,    1.555556e+01,   -1.184631e+01
    5488,    1.485480e+01,    1.333333e+01,   -1.184631e+01
    5489,    1.485480e+01,    1.111111e+01,   -1.184631e+01
    5490,    1.485480e+01,    8.888892e+00,   -1.184631e+01
    5491,    1.711841e+01,    1.777778e+01,   -8.243791e+00
    5492,    1.711841e+01,    1.555556e+01,   -8.243791e+00
    5493,    1.711841e+01,    1.333333e+01,   -8.243791e+00
    5494,    1.711841e+01,    1.111111e+01,   -8.243791e+00
    5495,    1.711841e+01,    8.888892e+00,   -8.243791e+00
    5496,    1.852363e+01,    1.777778e+01,   -4.227898e+00
    5497,    1.852363e+01,    1.555556e+01,   -4.227898e+00
    5498,    1.852363e+01,    1.333333e+01,   -4.227898e+00
    5499,    1.852363e+01,    1.111111e+01,   -4.227898e+00
    5500,    1.852363e+01,    8.888892e+00,   -4.227898e+00
    5501,    4.000000e+01,    2.000000e+01,    0.000000e+00
    5502,    4.000000e+01,    8.888892e+00,    0.000000e+00
    5503,    4.000000e+01,    1.111111e+01,    0.000000e+00
    5504,    4.000000e+01,    1.333333e+01,    0.000000e+00
    5505,    4.000000e+01,    1.555556e+01,    0.000000e+00
    5506,    4.000000e+01,    1.777778e+01,    0.000000e+00
    5507,    3.580000e+01,    2.000000e+01,    0.000000e+00
    5508,    3.160000e+01,    2.000000e+01,    0.000000e+00
    5509,    2.740000e+01,    2.000000e+01,    0.000000e+00
    5510,    2.320000e+01,    2.000000e+01,    0.000000e+00
    5511,    2.320000e+01,    1.777778e+01,    0.000000e+00
    5512,    2.320000e+01,    1.555556e+01,    0.000000e+00
    5513,    2.320000e+01,    1.333334e+01,    0.000000e+00
    5514,    2.320000e+01,    1.111111e+01,    0.000000e+00
    5515,    2.320000e+01,    8.888892e+00,    0.000000e+00
    5516,    2.740000e+01,    1.777778e+01,    0.000000e+00
    5517,    2.740000e+01,    1.555556e+01,    0.000000e+00
    5518,    2.740000e+01,    1.333333e+01,    0.000000e+00
    5519,    2.740000e+01,    1.111111e+01,    0.000000e+00
    5520,    2.740000e+01,    8.888892e+00,    0.000000e+00
    5521,    3.160000e+01,    1.777778e+01,    0.000000e+00
    5522,    3.160000e+01,    1.555556e+01,    0.000000e+00
    5523,    3.160000e+01,    1.333333e+01,    0.000000e+00
    5524,    3.160000e+01,    1.111111e+01,    0.000000e+00
    5525,    3.160000e+01,    8.888892e+00,    0.000000e+00
    5526,    3.580000e+01,    1.777778e+01,    0.000000e+00
    5527,    3.580000e+01,    1.555556e+01,    0.000000e+00
    5528,    3.580000e+01,    1.333333e+01,    0.000000e+00
    5529,    3.580000e+01,    1.111111e+01,    0.000000e+00
    5530,    3.580000e+01,    8.888892e+00,    0.000000e+00
    5531,    4.000000e+01,    2.000000e+01,   -4.000000e+01
    5532,    4.000000e+01,    1.777778e+01,   -4.000000e+01
    5533,    4.000000e+01,    1.555556e+01,   -4.000000e+01
    5534,    4.000000e+01,    1.333333e+01,   -4.000000e+01
    5535,    4.000000e+01,    1.111111e+01,   -4.000000e+01
    5536,    4.000000e+01,    8.888892e+00,   -4.000000e+01
    5537,    4.000000e+01,    2.000000e+01,   -4.000000e+00
    5538,    4.000000e+01,    2.000000e+01,   -8.000000e+00
    5539,    4.000000e+01,    2.000000e+01,   -1.200000e+01
    5540,    4.000000e+01,    2.000000e+01,   -1.600000e+01
    5541,    4.000000e+01,    2.000000e+01,   -2.000000e+01
    5542,    4.000000e+01,    2.000000e+01,   -2.400000e+01
    5543,    4.000000e+01,    2.000000e+01,   -2.800000e+01
    5544,    4.000000e+01,    2.000000e+01,   -3.200000e+01
    5545,    4.000000e+01,    2.000000e+01,   -3.600000e+01
    5546,    4.000000e+01,    1.777778e+01,   -4.000000e+00
    5547,    4.000000e+01,    1.555556e+01,   -4.000000e+00
    5548,    4.000000e+01,    1.333333e+01,   -4.000000e+00
    5549,    4.000000e+01,    1.111111e+01,   -4.000000e+00
    5550,    4.000000e+01,    8.888892e+00,   -4.000000e+00
    5551,    4.000000e+01,    1.777778e+01,   -8.000000e+00
    5552,    4.000000e+01,    1.555556e+01,   -8.000000e+00
    5553,    4.000000e+01,    1.333333e+01,   -8.000000e+00
    5554,    4.000000e+01,    1.111111e+01,   -8.000000e+00
    5555,    4.000000e+01,    8.888892e+00,   -8.000000e+00
    5556,    4.000000e+01,    1.777778e+01,   -1.200000e+01
    5557,    4.000000e+01,    1.555556e+01,   -1.200000e+01
    5558,    4.000000e+01,    1.333333e+01,   -1.200000e+01
    5559,    4.000000e+01,    1.111111e+01,   -1.200000e+01
    5560,    4.000000e+01,    8.888892e+00,   -1.200000e+01
    5561,    4.000000e+01,    1.777778e+01,   -1.600000e+01
    5562,    4.000000e+01,    1.555556e+01,   -1.600000e+01
    5563,    4.000000e+01,    1.333333e+01,   -1.600000e+01
    5564,    4.000000e+01,    1.111111e+01,   -1.600000e+01
    5565,    4.000000e+01,    8.888892e+00,   -1.600000e+01
    5566,    4.000000e+01,    1.777778e+01,   -2.000000e+01
    5567,    4.000000e+01,    1.555556e+01,   -2.000000e+01
    5568,    4.000000e+01,    1.333333e+01,   -2.000000e+01
    5569,    4.000000e+01,    1.111111e+01,   -2.000000e+01
    5570,    4.000000e+01,    8.888892e+00,   -2.000000e+01
    5571,    4.000000e+01,    1.777778e+01,   -2.400000e+01
    5572,    4.000000e+01,    1.555556e+01,   -2.400000e+01
    5573,    4.000000e+01,    1.333333e+01,   -2.400000e+01
    5574,    4.000000e+01,    1.111111e+01,   -2.400000e+01
    5575,    4.000000e+01,    8.888892e+00,   -2.400000e+01
    5576,    4.000000e+01,    1.777778e+01,   -2.800000e+01
    5577,    4.000000e+01,    1.555556e+01,   -2.800000e+01
    5578,    4.000000e+01,    1.333333e+01,   -2.800000e+01
    5579,    4.000000e+01,    1.111111e+01,   -2.800000e+01
    5580,    4.000000e+01,    8.888892e+00,   -2.800000e+01
    5581,    4.000000e+01,    1.777778e+01,   -3.200000e+01
    5582,    4.000000e+01,    1.555556e+01,   -3.200000e+01
    5583,    4.000000e+01,    1.333333e+01,   -3.200000e+01
    5584,    4.000000e+01,    1.111111e+01,   -3.200000e+01
    5585,    4.000000e+01,    8.888892e+00,   -3.200000e+01
    5586,    4.000000e+01,    1.777778e+01,   -3.600000e+01
    5587,    4.000000e+01,    1.555556e+01,   -3.600000e+01
    5588,    4.000000e+01,    1.333333e+01,   -3.600000e+01
    5589,    4.000000e+01,    1.111111e+01,   -3.600000e+01
    5590,    4.000000e+01,    8.888892e+00,   -3.600000e+01
    5591,    3.636364e+00,    2.000000e+01,   -4.000000e+01
    5592,    7.272727e+00,    2.000000e+01,   -4.000000e+01
    5593,    1.090909e+01,    2.000000e+01,   -4.000000e+01
    5594,    1.454545e+01,    2.000000e+01,   -4.000000e+01
    5595,    1.818182e+01,    2.000000e+01,   -4.000000e+01
    5596,    2.181818e+01,    2.000000e+01,   -4.000000e+01
    5597,    2.545455e+01,    2.000000e+01,   -4.000000e+01
    5598,    2.909091e+01,    2.000000e+01,   -4.000000e+01
    5599,    3.272727e+01,    2.000000e+01,   -4.000000e+01
    5600,    3.636364e+01,    2.000000e+01,   -4.000000e+01
    5601,    3.636364e+00,    8.888892e+00,   -4.000000e+01
    5602,    3.636364e+00,    1.111111e+01,   -4.000000e+01
    5603,    3.636364e+00,    1.333333e+01,   -4.000000e+01
    5604,    3.636364e+00,    1.555556e+01,   -4.000000e+01
    5605,    3.636364e+00,    1.777778e+01,   -4.000000e+01
    5606,    7.272727e+00,    8.888892e+00,   -4.000000e+01
    5607,    7.272727e+00,    1.111111e+01,   -4.000000e+01
    5608,    7.272727e+00,    1.333333e+01,   -4.000000e+01
    5609,    7.272727e+00,    1.555556e+01,   -4.000000e+01
    5610,    7.272727e+00,    1.777778e+01,   -4.000000e+01
    5611,    1.090909e+01,    8.888892e+00,   -4.000000e+01
    5612,    1.090909e+01,    1.111111e+01,   -4.000000e+01
    5613,    1.090909e+01,    1.333333e+01,   -4.000000e+01
    5614,    1.090909e+01,    1.555556e+01,   -4.000000e+01
    5615,    1.090909e+01,    1.777778e+01,   -4.000000e+01
    5616,    1.454545e+01,    8.888892e+00,   -4.000000e+01
    5617,    1.454545e+01,    1.111111e+01,   -4.000000e+01
    5618,    1.454545e+01,    1.333333e+01,   -4.000000e+01
    5619,    1.454545e+01,    1.555556e+01,   -4.000000e+01
    5620,    1.454545e+01,    1.777778e+01,   -4.000000e+01
    5621,    1.818182e+01,    8.888892e+00,   -4.000000e+01
    5622,    1.818182e+01,    1.111111e+01,   -4.000000e+01
    5623,    1.818182e+01,    1.333333e+01,   -4.000000e+01
    5624,    1.818182e+01,    1.555556e+01,   -4.000000e+01
    5625,    1.818182e+01,    1.777778e+01,   -4.000000e+01
    5626,    2.181818e+01,    8.888892e+00,   -4.000000e+01
    5627,    2.181818e+01,    1.111111e+01,   -4.000000e+01
    5628,    2.181818e+01,    1.333333e+01,   -4.000000e+01
    5629,    2.181818e+01,    1.555556e+01,   -4.000000e+01
    5630,    2.181818e+01,    1.777778e+01,   -4.000000e+01
    5631,    2.545455e+01,    8.888892e+00,   -4.000000e+01
    5632,    2.545455e+01,    1.111111e+01,   -4.000000e+01
    5633,    2.545455e+01,    1.333333e+01,   -4.000000e+01
    5634,    2.545455e+01,    1.555556e+01,   -4.000000e+01
    5635,    2.545455e+01,    1.777778e+01,   -4.000000e+01
    5636,    2.909091e+01,    8.888892e+00,   -4.000000e+01
    5637,    2.909091e+01,    1.111111e+01,   -4.000000e+01
    5638,    2.909091e+01,    1.333333e+01,   -4.000000e+01
    5639,    2.909091e+01,    1.555556e+01,   -4.000000e+01
    5640,    2.909091e+01,    1.777778e+01,   -4.000000e+01
    5641,    3.272727e+01,    8.888892e+00,   -4.000000e+01
    5642,    3.272727e+01,    1.111111e+01,   -4.000000e+01
    5643,    3.272727e+01,    1.333333e+01,   -4.000000e+01
    5644,    3.272727e+01,    1.555556e+01,   -4.000000e+01
    5645,    3.272727e+01,    1.777778e+01,   -4.000000e+01
    5646,    3.636364e+01,    8.888892e+00,   -4.000000e+01
    5647,    3.636364e+01,    1.111111e+01,   -4.000000e+01
    5648,    3.636364e+01,    1.333333e+01,   -4.000000e+01
    5649,    3.636364e+01,    1.555556e+01,   -4.000000e+01
    5650,    3.636364e+01,    1.777778e+01,   -4.000000e+01
    5651,    3.639712e+01,    8.888892e+00,   -3.624367e+01
    5652,    3.284509e+01,    8.888892e+00,   -3.644839e+01
    5653,    2.936308e+01,    8.888892e+00,   -3.659695e+01
    5654,    2.594283e+01,    8.888892e+00,   -3.656202e+01
    5655,    2.254465e+01,    8.888892e+00,   -3.617658e+01
    5656,    1.900366e+01,    8.888892e+00,   -3.594828e+01
    5657,    1.535769e+01,    8.888892e+00,   -3.586157e+01
    5658,    1.167305e+01,    8.888892e+00,   -3.584761e+01
    5659,    7.919852e+00,    8.888892e+00,   -3.569397e+01
    5660,    3.979377e+00,    8.888892e+00,   -3.572141e+01
    5661,    3.560389e+01,    8.888892e+00,   -4.226933e+00
    5662,    3.539948e+01,    8.888892e+00,   -8.452204e+00
    5663,    3.525943e+01,    8.888892e+00,   -1.266405e+01
    5664,    3.530468e+01,    8.888892e+00,   -1.683226e+01
    5665,    3.552760e+01,    8.888892e+00,   -2.090966e+01
    5666,    3.589053e+01,    8.888892e+00,   -2.485636e+01
    5667,    3.621377e+01,    8.888892e+00,   -2.869912e+01
    5668,    3.637076e+01,    8.888892e+00,   -3.247776e+01
    5669,    4.395812e+00,    8.888892e+00,   -3.136268e+01
    5670,    4.809782e+00,    8.888892e+00,   -2.689537e+01
    5671,    4.662276e+00,    8.888892e+00,   -2.249871e+01
    5672,    2.249863e+01,    8.888892e+00,   -4.525042e+00
    5673,    2.679440e+01,    8.888892e+00,   -4.618936e+00
    5674,    3.119820e+01,    8.888892e+00,   -4.435636e+00
    5675,    9.318076e+00,    8.888892e+00,   -2.115943e+01
    5676,    1.393936e+01,    8.888892e+00,   -1.872042e+01
    5677,    1.919381e+01,    8.888892e+00,   -1.503012e+01
    5678,    2.133649e+01,    8.888892e+00,   -9.227202e+00
    5679,    3.286150e+01,    8.888892e+00,   -3.291354e+01
    5680,    2.951481e+01,    8.888892e+00,   -3.328261e+01
    5681,    2.641675e+01,    8.888892e+00,   -3.332395e+01
    5682,    2.346026e+01,    8.888892e+00,   -3.256025e+01
    5683,    1.996635e+01,    8.888892e+00,   -3.176743e+01
    5684,    1.609635e+01,    8.888892e+00,   -3.180269e+01
    5685,    1.239733e+01,    8.888892e+00,   -3.184121e+01
    5686,    8.707388e+00,    8.888892e+00,   -3.127485e+01
    5687,    3.075609e+01,    8.888892e+00,   -8.909690e+00
    5688,    3.052266e+01,    8.888892e+00,   -1.334101e+01
    5689,    3.055190e+01,    8.888892e+00,   -1.781626e+01
    5690,    3.113023e+01,    8.888892e+00,   -2.200602e+01
    5691,    3.189109e+01,    8.888892e+00,   -2.583863e+01
    5692,    3.258760e+01,    8.888892e+00,   -2.940716e+01
    5693,    2.612164e+01,    8.888892e+00,   -9.190593e+00
    5694,    1.005785e+01,    8.888892e+00,   -2.615848e+01
    5695,    1.524067e+01,    8.888892e+00,   -2.342587e+01
    5696,    2.037391e+01,    8.888892e+00,   -2.103803e+01
    5697,    2.543150e+01,    8.888892e+00,   -1.409902e+01
    5698,    2.572735e+01,    8.888892e+00,   -1.902704e+01
    5699,    2.927555e+01,    8.888892e+00,   -3.015961e+01
    5700,    2.688673e+01,    8.888892e+00,   -3.090787e+01
    5701,    2.496789e+01,    8.888892e+00,   -2.924004e+01
    5702,    2.158465e+01,    8.888892e+00,   -2.658704e+01
    5703,    1.643459e+01,    8.888892e+00,   -2.766011e+01
    5704,    1.304440e+01,    8.888892e+00,   -2.852490e+01
    5705,    2.662476e+01,    8.888892e+00,   -2.357939e+01
    5706,    2.812816e+01,    8.888892e+00,   -2.719913e+01
    5707,    3.639712e+01,    1.111111e+01,   -3.624367e+01
    5708,    3.284509e+01,    1.111111e+01,   -3.644839e+01
    5709,    2.936308e+01,    1.111111e+01,   -3.659695e+01
    5710,    2.594283e+01,    1.111111e+01,   -3.656202e+01
    5711,    2.254465e+01,    1.111111e+01,   -3.617658e+01
    5712,    1.900366e+01,    1.111111e+01,   -3.594828e+01
    5713,    1.535769e+01,    1.111111e+01,   -3.586157e+01
    5714,    1.167305e+01,    1.111111e+01,   -3.584761e+01
    5715,    7.919852e+00,    1.111111e+01,   -3.569397e+01
    5716,    3.979377e+00,    1.111111e+01,   -3.572141e+01
    5717,    3.560389e+01,    1.111111e+01,   -4.226933e+00
    5718,    3.539948e+01,    1.111111e+01,   -8.452204e+00
    5719,    3.525943e+01,    1.111111e+01,   -1.266405e+01
    5720,    3.530468e+01,    1.111111e+01,   -1.683226e+01
    5721,    3.552760e+01,    1.111111e+01,   -2.090966e+01
    5722,    3.589053e+01,    1.111111e+01,   -2.485636e+01
    5723,    3.621377e+01,    1.111111e+01,   -2.869912e+01
    5724,    3.637076e+01,    1.111111e+01,   -3.247776e+01
    5725,    4.395812e+00,    1.111111e+01,   -3.136268e+01
    5726,    4.809782e+00,    1.111111e+01,   -2.689537e+01
    5727,    4.662276e+00,    1.111111e+01,   -2.249871e+01
    5728,    2.249863e+01,    1.111111e+01,   -4.525042e+00
    5729,    2.679440e+01,    1.111111e+01,   -4.618936e+00
    5730,    3.119820e+01,    1.111111e+01,   -4.435636e+00
    5731,    9.318076e+00,    1.111111e+01,   -2.115943e+01
    5732,    1.393936e+01,    1.111111e+01,   -1.872042e+01
    5733,    1.919381e+01,    1.111111e+01,   -1.503012e+01
    5734,    2.133649e+01,    1.111111e+01,   -9.227202e+00
    5735,    3.286150e+01,    1.111111e+01,   -3.291354e+01
    5736,    2.951481e+01,    1.111111e+01,   -3.328261e+01
    5737,    2.641675e+01,    1.111111e+01,   -3.332395e+01
    5738,    2.346026e+01,    1.111111e+01,   -3.256025e+01
    5739,    1.996635e+01,    1.111111e+01,   -3.176743e+01
    5740,    1.609635e+01,    1.111111e+01,   -3.180269e+01
    5741,    1.239733e+01,    1.111111e+01,   -3.184121e+01
    5742,    8.707388e+00,    1.111111e+01,   -3.127485e+01
    5743,    3.075609e+01,    1.111111e+01,   -8.909690e+00
    5744,    3.052266e+01,    1.111111e+01,   -1.334101e+01
    5745,    3.055190e+01,    1.111111e+01,   -1.781626e+01
    5746,    3.113023e+01,    1.111111e+01,   -2.200602e+01
    5747,    3.189109e+01,    1.111111e+01,   -2.583863e+01
    5748,    3.258760e+01,    1.111111e+01,   -2.940716e+01
    5749,    2.612164e+01,    1.111111e+01,   -9.190593e+00
    5750,    1.005785e+01,    1.111111e+01,   -2.615848e+01
    5751,    1.524067e+01,    1.111111e+01,   -2.342587e+01
    5752,    2.037391e+01,    1.111111e+01,   -2.103803e+01
    5753,    2.543150e+01,    1.111111e+01,   -1.409902e+01
    5754,    2.572735e+01,    1.111111e+01,   -1.902704e+01
    5755,    2.927555e+01,    1.111111e+01,   -3.015961e+01
    5756,    2.688673e+01,    1.111111e+01,   -3.090787e+01
    5757,    2.496789e+01,    1.111111e+01,   -2.924004e+01
    5758,    2.158465e+01,    1.111111e+01,   -2.658704e+01
    5759,    1.643459e+01,    1.111111e+01,   -2.766011e+01
    5760,    1.304440e+01,    1.111111e+01,   -2.852490e+01
    5761,    2.662476e+01,    1.111111e+01,   -2.357939e+01
    5762,    2.812816e+01,    1.111111e+01,   -2.719913e+01
    5763,    3.639712e+01,    1.333333e+01,   -3.624367e+01
    5764,    3.284509e+01,    1.333333e+01,   -3.644839e+01
    5765,    2.936308e+01,    1.333333e+01,   -3.659695e+01
    5766,    2.594283e+01,    1.333333e+01,   -3.656202e+01
    5767,    2.254465e+01,    1.333333e+01,   -3.617658e+01
    5768,    1.900366e+01,    1.333333e+01,   -3.594828e+01
    5769,    1.535769e+01,    1.333333e+01,   -3.586157e+01
    5770,    1.167305e+01,    1.333333e+01,   -3.584761e+01
    5771,    7.919852e+00,    1.333333e+01,   -3.569397e+01
    5772,    3.979377e+00,    1.333333e+01,   -3.572141e+01
    5773,    3.560389e+01,    1.333333e+01,   -4.226933e+00
    5774,    3.539948e+01,    1.333333e+01,   -8.452204e+00
    5775,    3.525943e+01,    1.333333e+01,   -1.266405e+01
    5776,    3.530468e+01,    1.333333e+01,   -1.683226e+01
    5777,    3.552760e+01,    1.333333e+01,   -2.090966e+01
    5778,    3.589053e+01,    1.333333e+01,   -2.485636e+01
    5779,    3.621377e+01,    1.333333e+01,   -2.869912e+01
    5780,    3.637076e+01,    1.333333e+01,   -3.247776e+01
    5781,    4.395812e+00,    1.333333e+01,   -3.136268e+01
    5782,    4.809782e+00,    1.333333e+01,   -2.689537e+01
    5783,    4.662276e+00,    1.333333e+01,   -2.249871e+01
    5784,    2.249863e+01,    1.333333e+01,   -4.525042e+00
    5785,    2.679440e+01,    1.333333e+01,   -4.618936e+00
    5786,    3.119820e+01,    1.333333e+01,   -4.435636e+00
    5787,    9.318076e+00,    1.333333e+01,   -2.115943e+01
    5788,    1.393936e+01,    1.333333e+01,   -1.872042e+01
    5789,    1.919381e+01,    1.333333e+01,   -1.503012e+01
    5790,    2.133649e+01,    1.333333e+01,   -9.227202e+00
    5791,    3.286150e+01,    1.333333e+01,   -3.291354e+01
    5792,    2.951481e+01,    1.333333e+01,   -3.328261e+01
    5793,    2.641675e+01,    1.333333e+01,   -3.332395e+01
    5794,    2.346026e+01,    1.333333e+01,   -3.256025e+01
    5795,    1.996635e+01,    1.333333e+01,   -3.176743e+01
    5796,    1.609635e+01,    1.333333e+01,   -3.180269e+01
    5797,    1.239733e+01,    1.333333e+01,   -3.184121e+01
    5798,    8.707388e+00,    1.333333e+01,   -3.127485e+01
    5799,    3.075609e+01,    1.333333e+01,   -8.909690e+00
    5800,    3.052266e+01,    1.333333e+01,   -1.334101e+01
    5801,    3.055190e+01,    1.333333e+01,   -1.781626e+01
    5802,    3.113023e+01,    1.333333e+01,   -2.200602e+01
    5803,    3.189109e+01,    1.333333e+01,   -2.583863e+01
    5804,    3.258760e+01,    1.333333e+01,   -2.940716e+01
    5805,    2.612164e+01,    1.333333e+01,   -9.190593e+00
    5806,    1.005785e+01,    1.333333e+01,   -2.615848e+01
    5807,    1.524067e+01,    1.333333e+01,   -2.342587e+01
    5808,    2.037391e+01,    1.333333e+01,   -2.103803e+01
    5809,    2.543150e+01,    1.333333e+01,   -1.409902e+01
    5810,    2.572735e+01,    1.333333e+01,   -1.902704e+01
    5811,    2.927555e+01,    1.333333e+01,   -3.015961e+01
    5812,    2.688673e+01,    1.333333e+01,   -3.090787e+01
    5813,    2.496789e+01,    1.333333e+01,   -2.924004e+01
    5814,    2.158465e+01,    1.333333e+01,   -2.658704e+01
    5815,    1.643459e+01,    1.333333e+01,   -2.766011e+01
    5816,    1.304440e+01,    1.333333e+01,   -2.852490e+01
    5817,    2.662476e+01,    1.333333e+01,   -2.357939e+01
    5818,    2.812816e+01,    1.333333e+01,   -2.719913e+01
    5819,    3.639712e+01,    1.555556e+01,   -3.624367e+01
    5820,    3.284509e+01,    1.555556e+01,   -3.644839e+01
    5821,    2.936308e+01,    1.555556e+01,   -3.659695e+01
    5822,    2.594283e+01,    1.555556e+01,   -3.656202e+01
    5823,    2.254465e+01,    1.555556e+01,   -3.617658e+01
    5824,    1.900366e+01,    1.555556e+01,   -3.594828e+01
    5825,    1.535769e+01,    1.555556e+01,   -3.586157e+01
    5826,    1.167305e+01,    1.555556e+01,   -3.584761e+01
    5827,    7.919852e+00,    1.555556e+01,   -3.569397e+01
    5828,    3.979377e+00,    1.555556e+01,   -3.572141e+01
    5829,    3.560389e+01,    1.555556e+01,   -4.226933e+00
    5830,    3.539948e+01,    1.555556e+01,   -8.452204e+00
    5831,    3.525943e+01,    1.555556e+01,   -1.266405e+01
    5832,    3.530468e+01,    1.555556e+01,   -1.683226e+01
    5833,    3.552760e+01,    1.555556e+01,   -2.090966e+01
    5834,    3.589053e+01,    1.555556e+01,   -2.485636e+01
    5835,    3.621377e+01,    1.555556e+01,   -2.869912e+01
    5836,    3.637076e+01,    1.555556e+01,   -3.247776e+01
    5837,    4.395812e+00,    1.555556e+01,   -3.136268e+01
    5838,    4.809782e+00,    1.555556e+01,   -2.689537e+01
    5839,    4.662276e+00,    1.555556e+01,   -2.249871e+01
    5840,    2.249863e+01,    1.555556e+01,   -4.525042e+00
    5841,    2.679440e+01,    1.555556e+01,   -4.618936e+00
    5842,    3.119820e+01,    1.555556e+01,   -4.435636e+00
    5843,    9.318076e+00,    1.555556e+01,   -2.115943e+01
    5844,    1.393936e+01,    1.555556e+01,   -1.872042e+01
    5845,    1.919381e+01,    1.555556e+01,   -1.503012e+01
    5846,    2.133649e+01,    1.555556e+01,   -9.227202e+00
    5847,    3.286150e+01,    1.555556e+01,   -3.291354e+01
    5848,    2.951481e+01,    1.555556e+01,   -3.328261e+01
    5849,    2.641675e+01,    1.555556e+01,   -3.332395e+01
    5850,    2.346026e+01,    1.555556e+01,   -3.256025e+01
    5851,    1.996635e+01,    1.555556e+01,   -3.176743e+01
    5852,    1.609635e+01,    1.555556e+01,   -3.180269e+01
    5853,    1.239733e+01,    1.555556e+01,   -3.184121e+01
    5854,    8.707388e+00,    1.555556e+01,   -3.127485e+01
    5855,    3.075609e+01,    1.555556e+01,   -8.909690e+00
    5856,    3.052266e+01,    1.555556e+01,   -1.334101e+01
    5857,    3.055190e+01,    1.555556e+01,   -1.781626e+01
    5858,    3.113023e+01,    1.555556e+01,   -2.200602e+01
    5859,    3.189109e+01,    1.555556e+01,   -2.583863e+01
    5860,    3.258760e+01,    1.555556e+01,   -2.940716e+01
    5861,    2.612164e+01,    1.555556e+01,   -9.190593e+00
    5862,    1.005785e+01,    1.555556e+01,   -2.615848e+01
    5863,    1.524067e+01,    1.555556e+01,   -2.342587e+01
    5864,    2.037391e+01,    1.555556e+01,   -2.103803e+01
    5865,    2.543150e+01,    1.555556e+01,   -1.409902e+01
    5866,    2.572735e+01,    1.555556e+01,   -1.902704e+01
    5867,    2.927555e+01,    1.555556e+01,   -3.015961e+01
    5868,    2.688673e+01,    1.555556e+01,   -3.090787e+01
    5869,    2.496789e+01,    1.555556e+01,   -2.924004e+01
    5870,    2.158465e+01,    1.555556e+01,   -2.658704e+01
    5871,    1.643459e+01,    1.555556e+01,   -2.766011e+01
    5872,    1.304440e+01,    1.555556e+01,   -2.852490e+01
    5873,    2.662476e+01,    1.555556e+01,   -2.357939e+01
    5874,    2.812816e+01,    1.555556e+01,   -2.719913e+01
    5875,    3.639712e+01,    1.777778e+01,   -3.624367e+01
    5876,    3.284509e+01,    1.777778e+01,   -3.644839e+01
    5877,    2.936308e+01,    1.777778e+01,   -3.659695e+01
    5878,    2.594283e+01,    1.777778e+01,   -3.656202e+01
    5879,    2.254465e+01,    1.777778e+01,   -3.617658e+01
    5880,    1.900366e+01,    1.777778e+01,   -3.594828e+01
    5881,    1.535769e+01,    1.777778e+01,   -3.586157e+01
    5882,    1.167305e+01,    1.777778e+01,   -3.584761e+01
    5883,    7.919852e+00,    1.777778e+01,   -3.569397e+01
    5884,    3.979377e+00,    1.777778e+01,   -3.572141e+01
    5885,    3.560389e+01,    1.777778e+01,   -4.226933e+00
    5886,    3.539948e+01,    1.777778e+01,   -8.452204e+00
    5887,    3.525943e+01,    1.777778e+01,   -1.266405e+01
    5888,    3.530468e+01,    1.777778e+01,   -1.683226e+01
    5889,    3.552760e+01,    1.777778e+01,   -2.090966e+01
    5890,    3.589053e+01,    1.777778e+01,   -2.485636e+01
    5891,    3.621377e+01,    1.777778e+01,   -2.869912e+01
    5892,    3.637076e+01,    1.777778e+01,   -3.247776e+01
    5893,    4.395812e+00,    1.777778e+01,   -3.136268e+01
    5894,    4.809782e+00,    1.777778e+01,   -2.689537e+01
    5895,    4.662276e+00,    1.777778e+01,   -2.249871e+01
    5896,    2.249863e+01,    1.777778e+01,   -4.525042e+00
    5897,    2.679440e+01,    1.777778e+01,   -4.618936e+00
    5898,    3.119820e+01,    1.777778e+01,   -4.435636e+00
    5899,    9.318076e+00,    1.777778e+01,   -2.115943e+01
    5900,    1.393936e+01,    1.777778e+01,   -1.872042e+01
    5901,    1.919381e+01,    1.777778e+01,   -1.503012e+01
    5902,    2.133649e+01,    1.777778e+01,   -9.227202e+00
    5903,    3.286150e+01,    1.777778e+01,   -3.291354e+01
    5904,    2.951481e+01,    1.777778e+01,   -3.328261e+01
    5905,    2.641675e+01,    1.777778e+01,   -3.332395e+01
    5906,    2.346026e+01,    1.777778e+01,   -3.256025e+01
    5907,    1.996635e+01,    1.777778e+01,   -3.176743e+01
    5908,    1.609635e+01,    1.777778e+01,   -3.180269e+01
    5909,    1.239733e+01,    1.777778e+01,   -3.184121e+01
    5910,    8.707388e+00,    1.777778e+01,   -3.127485e+01
    5911,    3.075609e+01,    1.777778e+01,   -8.909690e+00
    5912,    3.052266e+01,    1.777778e+01,   -1.334101e+01
    5913,    3.055190e+01,    1.777778e+01,   -1.781626e+01
    5914,    3.113023e+01,    1.777778e+01,   -2.200602e+01
    5915,    3.189109e+01,    1.777778e+01,   -2.583863e+01
    5916,    3.258760e+01,    1.777778e+01,   -2.940716e+01
    5917,    2.612164e+01,    1.777778e+01,   -9.190593e+00
    5918,    1.005785e+01,    1.777778e+01,   -2.615848e+01
    5919,    1.524067e+01,    1.777778e+01,   -2.342587e+01
    5920,    2.037391e+01,    1.777778e+01,   -2.103803e+01
    5921,    2.543150e+01,    1.777778e+01,   -1.409902e+01
    5922,    2.572735e+01,    1.777778e+01,   -1.902704e+01
    5923,    2.927555e+01,    1.777778e+01,   -3.015961e+01
    5924,    2.688673e+01,    1.777778e+01,   -3.090787e+01
    5925,    2.496789e+01,    1.777778e+01,   -2.924004e+01
    5926,    2.158465e+01,    1.777778e+01,   -2.658704e+01
    5927,    1.643459e+01,    1.777778e+01,   -2.766011e+01
    5928,    1.304440e+01,    1.777778e+01,   -2.852490e+01
    5929,    2.662476e+01,    1.777778e+01,   -2.357939e+01
    5930,    2.812816e+01,    1.777778e+01,   -2.719913e+01
    5931,    3.639712e+01,    2.000000e+01,   -3.624367e+01
    5932,    3.284509e+01,    2.000000e+01,   -3.644839e+01
    5933,    2.936308e+01,    2.000000e+01,   -3.659695e+01
    5934,    2.594283e+01,    2.000000e+01,   -3.656202e+01
    5935,    2.254465e+01,    2.000000e+01,   -3.617658e+01
    5936,    1.900366e+01,    2.000000e+01,   -3.594828e+01
    5937,    1.535769e+01,    2.000000e+01,   -3.586157e+01
    5938,    1.167305e+01,    2.000000e+01,   -3.584761e+01
    5939,    7.919852e+00,    2.000000e+01,   -3.569397e+01
    5940,    3.979377e+00,    2.000000e+01,   -3.572141e+01
    5941,    3.560389e+01,    2.000000e+01,   -4.226933e+00
    5942,    3.539948e+01,    2.000000e+01,   -8.452204e+00
    5943,    3.525943e+01,    2.000000e+01,   -1.266405e+01
    5944,    3.530468e+01,    2.000000e+01,   -1.683226e+01
    5945,    3.552760e+01,    2.000000e+01,   -2.090966e+01
    5946,    3.589053e+01,    2.000000e+01,   -2.485636e+01
    5947,    3.621377e+01,    2.000000e+01,   -2.869912e+01
    5948,    3.637076e+01,    2.000000e+01,   -3.247776e+01
    5949,    4.395812e+00,    2.000000e+01,   -3.136268e+01
    5950,    4.809782e+00,    2.000000e+01,   -2.689537e+01
    5951,    4.662276e+00,    2.000000e+01,   -2.249871e+01
    5952,    2.249863e+01,    2.000000e+01,   -4.525042e+00
    5953,    2.679440e+01,    2.000000e+01,   -4.618936e+00
    5954,    3.119820e+01,    2.000000e+01,   -4.435636e+00
    5955,    9.318076e+00,    2.000000e+01,   -2.115943e+01
    5956,    1.393936e+01,    2.000000e+01,   -1.872042e+01
    5957,    1.919381e+01,    2.000000e+01,   -1.503012e+01
    5958,    2.133649e+01,    2.000000e+01,   -9.227202e+00
    5959,    3.286150e+01,    2.000000e+01,   -3.291354e+01
    5960,    2.951481e+01,    2.000000e+01,   -3.328261e+01
    5961,    2.641675e+01,    2.000000e+01,   -3.332395e+01
    5962,    2.346026e+01,    2.000000e+01,   -3.256025e+01
    5963,    1.996635e+01,    2.000000e+01,   -3.176743e+01
    5964,    1.609635e+01,    2.000000e+01,   -3.180269e+01
    5965,    1.239733e+01,    2.000000e+01,   -3.184121e+01
    5966,    8.707388e+00,    2.000000e+01,   -3.127485e+01
    5967,    3.075609e+01,    2.000000e+01,   -8.909690e+00
    5968,    3.052266e+01,    2.000000e+01,   -1.334101e+01
    5969,    3.055190e+01,    2.000000e+01,   -1.781626e+01
    5970,    3.113023e+01,    2.000000e+01,   -2.200602e+01
    5971,    3.189109e+01,    2.000000e+01,   -2.583863e+01
    5972,    3.258760e+01,    2.000000e+01,   -2.940716e+01
    5973,    2.612164e+01,    2.000000e+01,   -9.190593e+00
    5974,    1.005785e+01,    2.000000e+01,   -2.615848e+01
    5975,    1.524067e+01,    2.000000e+01,   -2.342587e+01
    5976,    2.037391e+01,    2.000000e+01,   -2.103803e+01
    5977,    2.543150e+01,    2.000000e+01,   -1.409902e+01
    5978,    2.572735e+01,    2.000000e+01,   -1.902704e+01
    5979,    2.927555e+01,    2.000000e+01,   -3.015961e+01
    5980,    2.688673e+01,    2.000000e+01,   -3.090787e+01
    5981,    2.496789e+01,    2.000000e+01,   -2.924004e+01
    5982,    2.158465e+01,    2.000000e+01,   -2.658704e+01
    5983,    1.643459e+01,    2.000000e+01,   -2.766011e+01
    5984,    1.304440e+01,    2.000000e+01,   -2.852490e+01
    5985,    2.662476e+01,    2.000000e+01,   -2.357939e+01
    5986,    2.812816e+01,    2.000000e+01,   -2.719913e+01
    5987,    0.000000e+00,    0.000000e+00,   -1.900000e+01
    5988,    0.000000e+00,    0.000000e+00,   -4.000000e+01
    5989,    0.000000e+00,    0.000000e+00,   -2.320000e+01
    5990,    0.000000e+00,    0.000000e+00,   -2.740000e+01
    5991,    0.000000e+00,    0.000000e+00,   -3.160000e+01
    5992,    0.000000e+00,    0.000000e+00,   -3.580000e+01
    5993,    0.000000e+00,    4.444447e+00,   -1.900000e+01
    5994,    0.000000e+00,    2.222223e+00,   -1.900000e+01
    5995,    0.000000e+00,    2.222223e+00,   -4.000000e+01
    5996,    0.000000e+00,    4.444447e+00,   -4.000000e+01
    5997,    0.000000e+00,    2.222223e+00,   -3.580000e+01
    5998,    0.000000e+00,    2.222223e+00,   -3.160000e+01
    5999,    0.000000e+00,    2.222223e+00,   -2.740000e+01
    6000,    0.000000e+00,    2.222223e+00,   -2.320000e+01
    6001,    0.000000e+00,    4.444447e+00,   -3.580000e+01
    6002,    0.000000e+00,    4.444447e+00,   -3.160000e+01
    6003,    0.000000e+00,    4.444447e+00,   -2.740000e+01
    6004,    0.000000e+00,    4.444447e+00,   -2.320000e+01
    6005,    1.900000e+01,    0.000000e+00,    0.000000e+00
    6006,    1.852363e+01,    0.000000e+00,   -4.227898e+00
    6007,    1.711841e+01,    0.000000e+00,   -8.243791e+00
    6008,    1.485480e+01,    0.000000e+00,   -1.184631e+01
    6009,    1.184631e+01,    0.000000e+00,   -1.485480e+01
    6010,    8.243791e+00,    0.000000e+00,   -1.711841e+01
    6011,    4.227898e+00,    0.000000e+00,   -1.852363e+01
    6012,    1.900000e+01,    4.444447e+00,    2.721439e-16
    6013,    1.900000e+01,    2.222223e+00,    1.360719e-16
    6014,    4.227898e+00,    4.444447e+00,   -1.852363e+01
    6015,    4.227898e+00,    2.222223e+00,   -1.852363e+01
    6016,    8.243791e+00,    4.444447e+00,   -1.711841e+01
    6017,    8.243791e+00,    2.222223e+00,   -1.711841e+01
    6018,    1.184631e+01,    4.444447e+00,   -1.485480e+01
    6019,    1.184631e+01,    2.222223e+00,   -1.485480e+01
    6020,    1.485480e+01,    4.444447e+00,   -1.184631e+01
    6021,    1.485480e+01,    2.222223e+00,   -1.184631e+01
    6022,    1.711841e+01,    4.444447e+00,   -8.243791e+00
    6023,    1.711841e+01,    2.222223e+00,   -8.243791e+00
    6024,    1.852363e+01,    4.444447e+00,   -4.227898e+00
    6025,    1.852363e+01,    2.222223e+00,   -4.227898e+00
    6026,    4.000000e+01,    0.000000e+00,    0.000000e+00
    6027,    2.320000e+01,    0.000000e+00,    0.000000e+00
    6028,    2.740000e+01,    0.000000e+00,    0.000000e+00
    6029,    3.160000e+01,    0.000000e+00,    0.000000e+00
    6030,    3.580000e+01,    0.000000e+00,    0.000000e+00
    6031,    4.000000e+01,    2.222223e+00,    0.000000e+00
    6032,    4.000000e+01,    4.444447e+00,    0.000000e+00
    6033,    2.320000e+01,    4.444447e+00,    0.000000e+00
    6034,    2.320000e+01,    2.222223e+00,    0.000000e+00
    6035,    2.740000e+01,    4.444447e+00,    0.000000e+00
    6036,    2.740000e+01,    2.222223e+00,    0.000000e+00
    6037,    3.160000e+01,    4.444447e+00,    0.000000e+00
    6038,    3.160000e+01,    2.222223e+00,    0.000000e+00
    6039,    3.580000e+01,    4.444447e+00,    0.000000e+00
    6040,    3.580000e+01,    2.222223e+00,    0.000000e+00
    6041,    4.000000e+01,    0.000000e+00,   -4.000000e+01
    6042,    4.000000e+01,    4.444447e+00,   -4.000000e+01
    6043,    4.000000e+01,    2.222223e+00,   -4.000000e+01
    6044,    3.636364e+01,    0.000000e+00,   -4.000000e+01
    6045,    3.272727e+01,    0.000000e+00,   -4.000000e+01
    6046,    2.909091e+01,    0.000000e+00,   -4.000000e+01
    6047,    2.545455e+01,    0.000000e+00,   -4.000000e+01
    6048,    2.181818e+01,    0.000000e+00,   -4.000000e+01
    6049,    1.818182e+01,    0.000000e+00,   -4.000000e+01
    6050,    1.454545e+01,    0.000000e+00,   -4.000000e+01
    6051,    1.090909e+01,    0.000000e+00,   -4.000000e+01
    6052,    7.272727e+00,    0.000000e+00,   -4.000000e+01
    6053,    3.636364e+00,    0.000000e+00,   -4.000000e+01
    6054,    3.636364e+00,    2.222223e+00,   -4.000000e+01
    6055,    3.636364e+00,    4.444447e+00,   -4.000000e+01
    6056,    7.272727e+00,    2.222223e+00,   -4.000000e+01
    6057,    7.272727e+00,    4.444447e+00,   -4.000000e+01
    6058,    1.090909e+01,    2.222223e+00,   -4.000000e+01
    6059,    1.090909e+01,    4.444447e+00,   -4.000000e+01
    6060,    1.454545e+01,    2.222223e+00,   -4.000000e+01
    6061,    1.454545e+01,    4.444447e+00,   -4.000000e+01
    6062,    1.818182e+01,    2.222223e+00,   -4.000000e+01
    6063,    1.818182e+01,    4.444447e+00,   -4.000000e+01
    6064,    2.181818e+01,    2.222223e+00,   -4.000000e+01
    6065,    2.181818e+01,    4.444447e+00,   -4.000000e+01
    6066,    2.545455e+01,    2.222223e+00,   -4.000000e+01
    6067,    2.545455e+01,    4.444447e+00,   -4.000000e+01
    6068,    2.909091e+01,    2.222223e+00,   -4.000000e+01
    6069,    2.909091e+01,    4.444447e+00,   -4.000000e+01
    6070,    3.272727e+01,    2.222223e+00,   -4.000000e+01
    6071,    3.272727e+01,    4.444447e+00,   -4.000000e+01
    6072,    3.636364e+01,    2.222223e+00,   -4.000000e+01
    6073,    3.636364e+01,    4.444447e+00,   -4.000000e+01
    6074,    4.000000e+01,    0.000000e+00,   -4.000000e+00
    6075,    4.000000e+01,    0.000000e+00,   -8.000000e+00
    6076,    4.000000e+01,    0.000000e+00,   -1.200000e+01
    6077,    4.000000e+01,    0.000000e+00,   -1.600000e+01
    6078,    4.000000e+01,    0.000000e+00,   -2.000000e+01
    6079,    4.000000e+01,    0.000000e+00,   -2.400000e+01
    6080,    4.000000e+01,    0.000000e+00,   -2.800000e+01
    6081,    4.000000e+01,    0.000000e+00,   -3.200000e+01
    6082,    4.000000e+01,    0.000000e+00,   -3.600000e+01
    6083,    4.000000e+01,    4.444447e+00,   -4.000000e+00
    6084,    4.000000e+01,    2.222223e+00,   -4.000000e+00
    6085,    4.000000e+01,    4.444447e+00,   -8.000000e+00
    6086,    4.000000e+01,    2.222223e+00,   -8.000000e+00
    6087,    4.000000e+01,    4.444447e+00,   -1.200000e+01
    6088,    4.000000e+01,    2.222223e+00,   -1.200000e+01
    6089,    4.000000e+01,    4.444447e+00,   -1.600000e+01
    6090,    4.000000e+01,    2.222223e+00,   -1.600000e+01
    6091,    4.000000e+01,    4.444447e+00,   -2.000000e+01
    6092,    4.000000e+01,    2.222223e+00,   -2.000000e+01
    6093,    4.000000e+01,    4.444447e+00,   -2.400000e+01
    6094,    4.000000e+01,    2.222223e+00,   -2.400000e+01
    6095,    4.000000e+01,    4.444447e+00,   -2.800000e+01
    6096,    4.000000e+01,    2.222223e+00,   -2.800000e+01
    6097,    4.000000e+01,    4.444447e+00,   -3.200000e+01
    6098,    4.000000e+01,    2.222223e+00,   -3.200000e+01
    6099,    4.000000e+01,    4.444447e+00,   -3.600000e+01
    6100,    4.000000e+01,    2.222223e+00,   -3.600000e+01
    6101,    3.639712e+01,    4.444447e+00,   -3.624367e+01
    6102,    3.284509e+01,    4.444447e+00,   -3.644839e+01
    6103,    2.936308e+01,    4.444447e+00,   -3.659695e+01
    6104,    2.594283e+01,    4.444447e+00,   -3.656202e+01
    6105,    2.254465e+01,    4.444447e+00,   -3.617658e+01
    6106,    1.900366e+01,    4.444447e+00,   -3.594828e+01
    6107,    1.535769e+01,    4.444447e+00,   -3.586157e+01
    6108,    1.167305e+01,    4.444447e+00,   -3.584761e+01
    6109,    7.919852e+00,    4.444447e+00,   -3.569397e+01
    6110,    3.979377e+00,    4.444447e+00,   -3.572141e+01
    6111,    3.560389e+01,    4.444447e+00,   -4.226933e+00
    6112,    3.539948e+01,    4.444447e+00,   -8.452204e+00
    6113,    3.525943e+01,    4.444447e+00,   -1.266405e+01
    6114,    3.530468e+01,    4.444447e+00,   -1.683226e+01
    6115,    3.552760e+01,    4.444447e+00,   -2.090966e+01
    6116,    3.589053e+01,    4.444447e+00,   -2.485636e+01
    6117,    3.621377e+01,    4.444447e+00,   -2.869912e+01
    6118,    3.637076e+01,    4.444447e+00,   -3.247776e+01
    6119,    4.395812e+00,    4.444447e+00,   -3.136268e+01
    6120,    4.809782e+00,    4.444447e+00,   -2.689537e+01
    6121,    4.662276e+00,    4.444447e+00,   -2.249871e+01
    6122,    2.249863e+01,    4.444447e+00,   -4.525042e+00
    6123,    2.679440e+01,    4.444447e+00,   -4.618936e+00
    6124,    3.119820e+01,    4.444447e+00,   -4.435636e+00
    6125,    9.318076e+00,    4.444447e+00,   -2.115943e+01
    6126,    1.393936e+01,    4.444447e+00,   -1.872042e+01
    6127,    1.919381e+01,    4.444447e+00,   -1.503012e+01
    6128,    2.133649e+01,    4.444447e+00,   -9.227202e+00
    6129,    3.286150e+01,    4.444447e+00,   -3.291354e+01
    6130,    2.951481e+01,    4.444447e+00,   -3.328261e+01
    6131,    2.641675e+01,    4.444447e+00,   -3.332395e+01
    6132,    2.346026e+01,    4.444447e+00,   -3.256025e+01
    6133,    1.996635e+01,    4.444447e+00,   -3.176743e+01
    6134,    1.609635e+01,    4.444447e+00,   -3.180269e+01
    6135,    1.239733e+01,    4.444447e+00,   -3.184121e+01
    6136,    8.707388e+00,    4.444447e+00,   -3.127485e+01
    6137,    3.075609e+01,    4.444447e+00,   -8.909690e+00
    6138,    3.052266e+01,    4.444447e+00,   -1.334101e+01
    6139,    3.055190e+01,    4.444447e+00,   -1.781626e+01
    6140,    3.113023e+01,    4.444447e+00,   -2.200602e+01
    6141,    3.189109e+01,    4.444447e+00,   -2.583863e+01
    6142,    3.258760e+01,    4.444447e+00,   -2.940716e+01
    6143,    2.612164e+01,    4.444447e+00,   -9.190593e+00
    6144,    1.005785e+01,    4.444447e+00,   -2.615848e+01
    6145,    1.524067e+01,    4.444447e+00,   -2.342587e+01
    6146,    2.037391e+01,    4.444447e+00,   -2.103803e+01
    6147,    2.543150e+01,    4.444447e+00,   -1.409902e+01
    6148,    2.572735e+01,    4.444447e+00,   -1.902704e+01
    6149,    2.927555e+01,    4.444447e+00,   -3.015961e+01
    6150,    2.688673e+01,    4.444447e+00,   -3.090787e+01
    6151,    2.496789e+01,    4.444447e+00,   -2.924004e+01
    6152,    2.158465e+01,    4.444447e+00,   -2.658704e+01
    6153,    1.643459e+01,    4.444447e+00,   -2.766011e+01
    6154,    1.304440e+01,    4.444447e+00,   -2.852490e+01
    6155,    2.662476e+01,    4.444447e+00,   -2.357939e+01
    6156,    2.812816e+01,    4.444447e+00,   -2.719913e+01
    6157,    3.639712e+01,    2.222223e+00,   -3.624367e+01
    6158,    3.284509e+01,    2.222223e+00,   -3.644839e+01
    6159,    2.936308e+01,    2.222223e+00,   -3.659695e+01
    6160,    2.594283e+01,    2.222223e+00,   -3.656202e+01
    6161,    2.254465e+01,    2.222223e+00,   -3.617658e+01
    6162,    1.900366e+01,    2.222223e+00,   -3.594828e+01
    6163,    1.535769e+01,    2.222223e+00,   -3.586157e+01
    6164,    1.167305e+01,    2.222223e+00,   -3.584761e+01
    6165,    7.919852e+00,    2.222223e+00,   -3.569397e+01
    6166,    3.979377e+00,    2.222223e+00,   -3.572141e+01
    6167,    3.560389e+01,    2.222223e+00,   -4.226933e+00
    6168,    3.539948e+01,    2.222223e+00,   -8.452204e+00
    6169,    3.525943e+01,    2.222223e+00,   -1.266405e+01
    6170,    3.530468e+01,    2.222223e+00,   -1.683226e+01
    6171,    3.552760e+01,    2.222223e+00,   -2.090966e+01
    6172,    3.589053e+01,    2.222223e+00,   -2.485636e+01
    6173,    3.621377e+01,    2.222223e+00,   -2.869912e+01
    6174,    3.637076e+01,    2.222223e+00,   -3.247776e+01
    6175,    4.395812e+00,    2.222223e+00,   -3.136268e+01
    6176,    4.809782e+00,    2.222223e+00,   -2.689537e+01
    6177,    4.662276e+00,    2.222223e+00,   -2.249871e+01
    6178,    2.249863e+01,    2.222223e+00,   -4.525042e+00
    6179,    2.679440e+01,    2.222223e+00,   -4.618936e+00
    6180,    3.119820e+01,    2.222223e+00,   -4.435636e+00
    6181,    9.318076e+00,    2.222223e+00,   -2.115943e+01
    6182,    1.393936e+01,    2.222223e+00,   -1.872042e+01
    6183,    1.919381e+01,    2.222223e+00,   -1.503012e+01
    6184,    2.133649e+01,    2.222223e+00,   -9.227202e+00
    6185,    3.286150e+01,    2.222223e+00,   -3.291354e+01
    6186,    2.951481e+01,    2.222223e+00,   -3.328261e+01
    6187,    2.641675e+01,    2.222223e+00,   -3.332395e+01
    6188,    2.346026e+01,    2.222223e+00,   -3.256025e+01
    6189,    1.996635e+01,    2.222223e+00,   -3.176743e+01
    6190,    1.609635e+01,    2.222223e+00,   -3.180269e+01
    6191,    1.239733e+01,    2.222223e+00,   -3.184121e+01
    6192,    8.707388e+00,    2.222223e+00,   -3.127485e+01
    6193,    3.075609e+01,    2.222223e+00,   -8.909690e+00
    6194,    3.052266e+01,    2.222223e+00,   -1.334101e+01
    6195,    3.055190e+01,    2.222223e+00,   -1.781626e+01
    6196,    3.113023e+01,    2.222223e+00,   -2.200602e+01
    6197,    3.189109e+01,    2.222223e+00,   -2.583863e+01
    6198,    3.258760e+01,    2.222223e+00,   -2.940716e+01
    6199,    2.612164e+01,    2.222223e+00,   -9.190593e+00
    6200,    1.005785e+01,    2.222223e+00,   -2.615848e+01
    6201,    1.524067e+01,    2.222223e+00,   -2.342587e+01
    6202,    2.037391e+01,    2.222223e+00,   -2.103803e+01
    6203,    2.543150e+01,    2.222223e+00,   -1.409902e+01
    6204,    2.572735e+01,    2.222223e+00,   -1.902704e+01
    6205,    2.927555e+01,    2.222223e+00,   -3.015961e+01
    6206,    2.688673e+01,    2.222223e+00,   -3.090787e+01
    6207,    2.496789e+01,    2.222223e+00,   -2.924004e+01
    6208,    2.158465e+01,    2.222223e+00,   -2.658704e+01
    6209,    1.643459e+01,    2.222223e+00,   -2.766011e+01
    6210,    1.304440e+01,    2.222223e+00,   -2.852490e+01
    6211,    2.662476e+01,    2.222223e+00,   -2.357939e+01
    6212,    2.812816e+01,    2.222223e+00,   -2.719913e+01
    6213,    3.639712e+01,    0.000000e+00,   -3.624367e+01
    6214,    3.284509e+01,    0.000000e+00,   -3.644839e+01
    6215,    2.936308e+01,    0.000000e+00,   -3.659695e+01
    6216,    2.594283e+01,    0.000000e+00,   -3.656202e+01
    6217,    2.254465e+01,    0.000000e+00,   -3.617658e+01
    6218,    1.900366e+01,    0.000000e+00,   -3.594828e+01
    6219,    1.535769e+01,    0.000000e+00,   -3.586157e+01
    6220,    1.167305e+01,    0.000000e+00,   -3.584761e+01
    6221,    7.919852e+00,    0.000000e+00,   -3.569397e+01
    6222,    3.979377e+00,    0.000000e+00,   -3.572141e+01
    6223,    3.560389e+01,    0.000000e+00,   -4.226933e+00
    6224,    3.539948e+01,    0.000000e+00,   -8.452204e+00
    6225,    3.525943e+01,    0.000000e+00,   -1.266405e+01
    6226,    3.530468e+01,    0.000000e+00,   -1.683226e+01
    6227,    3.552760e+01,    0.000000e+00,   -2.090966e+01
    6228,    3.589053e+01,    0.000000e+00,   -2.485636e+01
    6229,    3.621377e+01,    0.000000e+00,   -2.869912e+01
    6230,    3.637076e+01,    0.000000e+00,   -3.247776e+01
    6231,    4.395812e+00,    0.000000e+00,   -3.136268e+01
    6232,    4.809782e+00,    0.000000e+00,   -2.689537e+01
    6233,    4.662276e+00,    0.000000e+00,   -2.249871e+01
    6234,    2.249863e+01,    0.000000e+00,   -4.525042e+00
    6235,    2.679440e+01,    0.000000e+00,   -4.618936e+00
    6236,    3.119820e+01,    0.000000e+00,   -4.435636e+00
    6237,    9.318076e+00,    0.000000e+00,   -2.115943e+01
    6238,    1.393936e+01,    0.000000e+00,   -1.872042e+01
    6239,    1.919381e+01,    0.000000e+00,   -1.503012e+01
    6240,    2.133649e+01,    0.000000e+00,   -9.227202e+00
    6241,    3.286150e+01,    0.000000e+00,   -3.291354e+01
    6242,    2.951481e+01,    0.000000e+00,   -3.328261e+01
    6243,    2.641675e+01,    0.000000e+00,   -3.332395e+01
    6244,    2.346026e+01,    0.000000e+00,   -3.256025e+01
    6245,    1.996635e+01,    0.000000e+00,   -3.176743e+01
    6246,    1.609635e+01,    0.000000e+00,   -3.180269e+01
    6247,    1.239733e+01,    0.000000e+00,   -3.184121e+01
    6248,    8.707388e+00,    0.000000e+00,   -3.127485e+01
    6249,    3.075609e+01,    0.000000e+00,   -8.909690e+00
    6250,    3.052266e+01,    0.000000e+00,   -1.334101e+01
    6251,    3.055190e+01,    0.000000e+00,   -1.781626e+01
    6252,    3.113023e+01,    0.000000e+00,   -2.200602e+01
    6253,    3.189109e+01,    0.000000e+00,   -2.583863e+01
    6254,    3.258760e+01,    0.000000e+00,   -2.940716e+01
    6255,    2.612164e+01,    0.000000e+00,   -9.190593e+00
    6256,    1.005785e+01,    0.000000e+00,   -2.615848e+01
    6257,    1.524067e+01,    0.000000e+00,   -2.342587e+01
    6258,    2.037391e+01,    0.000000e+00,   -2.103803e+01
    6259,    2.543150e+01,    0.000000e+00,   -1.409902e+01
    6260,    2.572735e+01,    0.000000e+00,   -1.902704e+01
    6261,    2.927555e+01,    0.000000e+00,   -3.015961e+01
    6262,    2.688673e+01,    0.000000e+00,   -3.090787e+01
    6263,    2.496789e+01,    0.000000e+00,   -2.924004e+01
    6264,    2.158465e+01,    0.000000e+00,   -2.658704e+01
    6265,    1.643459e+01,    0.000000e+00,   -2.766011e+01
    6266,    1.304440e+01,    0.000000e+00,   -2.852490e+01
    6267,    2.662476e+01,    0.000000e+00,   -2.357939e+01
    6268,    2.812816e+01,    0.000000e+00,   -2.719913e+01
   10899,   -1.000000e+01,    0.000000e+00,   -3.061617e-15
   10900,   -9.749279e+00,    0.000000e+00,   -2.225209e+00
   10901,   -9.009689e+00,    0.000000e+00,   -4.338837e+00
   10902,   -7.818315e+00,    0.000000e+00,   -6.234898e+00
   10903,   -6.234898e+00,    0.000000e+00,   -7.818315e+00
   10904,   -4.338837e+00,    0.000000e+00,   -9.009689e+00
   10905,   -2.225209e+00,    0.000000e+00,   -9.749279e+00
   10906,   -2.000000e+00,    0.000000e+00,    0.000000e+00
   10907,   -4.000000e+00,    0.000000e+00,    0.000000e+00
   10908,   -6.000000e+00,    0.000000e+00,    0.000000e+00
   10909,   -8.000000e+00,    0.000000e+00,    0.000000e+00
   10910,   -6.830325e+00,    0.000000e+00,   -5.307483e+00
   10911,   -1.975771e+00,    0.000000e+00,   -7.050566e+00
   10912,   -3.870860e+00,    0.000000e+00,   -6.487469e+00
   10913,   -5.539967e+00,    0.000000e+00,   -5.836899e+00
   10914,   -7.639033e+00,    0.000000e+00,   -2.024699e+00
   10915,   -7.208559e+00,    0.000000e+00,   -3.898144e+00
   10916,   -5.713434e+00,    0.000000e+00,   -2.015796e+00
   10917,   -3.835050e+00,    0.000000e+00,   -2.141056e+00
   10918,   -1.907728e+00,    0.000000e+00,   -2.295649e+00
   10919,   -5.521504e+00,    0.000000e+00,   -3.990354e+00
   10920,   -3.758587e+00,    0.000000e+00,   -4.291406e+00
   10921,   -1.904575e+00,    0.000000e+00,   -4.642807e+00
   10922,   -1.000000e+01,    6.666670e+00,    1.428754e-15
   10923,   -2.225209e+00,    6.666670e+00,   -9.749279e+00
   10924,   -4.338837e+00,    6.666670e+00,   -9.009689e+00
   10925,   -6.234898e+00,    6.666670e+00,   -7.818315e+00
   10926,   -7.818315e+00,    6.666670e+00,   -6.234898e+00
   10927,   -9.009689e+00,    6.666670e+00,   -4.338837e+00
   10928,   -9.749279e+00,    6.666670e+00,   -2.225209e+00
   10929,   -1.000000e+01,    2.222223e+00,    6.803597e-17
   10930,   -1.000000e+01,    4.444447e+00,   -6.803597e-17
   10931,   -2.225209e+00,    2.222223e+00,   -9.749279e+00
   10932,   -2.225209e+00,    4.444447e+00,   -9.749279e+00
   10933,   -4.338837e+00,    2.222223e+00,   -9.009689e+00
   10934,   -4.338837e+00,    4.444447e+00,   -9.009689e+00
   10935,   -6.234898e+00,    2.222223e+00,   -7.818315e+00
   10936,   -6.234898e+00,    4.444447e+00,   -7.818315e+00
   10937,   -7.818315e+00,    2.222223e+00,   -6.234898e+00
   10938,   -7.818315e+00,    4.444447e+00,   -6.234898e+00
   10939,   -9.009689e+00,    2.222223e+00,   -4.338837e+00
   10940,   -9.009689e+00,    4.444447e+00,   -4.338837e+00
   10941,   -9.749279e+00,    2.222223e+00,   -2.225209e+00
   10942,   -9.749279e+00,    4.444447e+00,   -2.225209e+00
   10943,   -1.000000e+01,    2.000000e+01,   -1.836970e-15
   10944,   -9.749279e+00,    2.000000e+01,   -2.225209e+00
   10945,   -9.009689e+00,    2.000000e+01,   -4.338837e+00
   10946,   -7.818315e+00,    2.000000e+01,   -6.234898e+00
   10947,   -6.234898e+00,    2.000000e+01,   -7.818315e+00
   10948,   -4.338837e+00,    2.000000e+01,   -9.009689e+00
   10949,   -2.225209e+00,    2.000000e+01,   -9.749279e+00
   10950,   -1.000000e+01,    8.888892e+00,    6.803576e-17
   10951,   -1.000000e+01,    1.111111e+01,   -6.803607e-17
   10952,   -1.000000e+01,    1.333333e+01,   -2.041079e-16
   10953,   -1.000000e+01,    1.555556e+01,   -3.401797e-16
   10954,   -1.000000e+01,    1.777778e+01,   -4.762516e-16
   10955,   -2.225209e+00,    8.888892e+00,   -9.749279e+00
   10956,   -2.225209e+00,    1.111111e+01,   -9.749279e+00
   10957,   -2.225209e+00,    1.333334e+01,   -9.749279e+00
   10958,   -2.225209e+00,    1.555556e+01,   -9.749279e+00
   10959,   -2.225209e+00,    1.777778e+01,   -9.749279e+00
   10960,   -4.338837e+00,    8.888892e+00,   -9.009689e+00
   10961,   -4.338837e+00,    1.111111e+01,   -9.009689e+00
   10962,   -4.338837e+00,    1.333334e+01,   -9.009689e+00
   10963,   -4.338837e+00,    1.555556e+01,   -9.009689e+00
   10964,   -4.338837e+00,    1.777778e+01,   -9.009689e+00
   10965,   -6.234898e+00,    8.888892e+00,   -7.818315e+00
   10966,   -6.234898e+00,    1.111111e+01,   -7.818315e+00
   10967,   -6.234898e+00,    1.333334e+01,   -7.818315e+00
   10968,   -6.234898e+00,    1.555556e+01,   -7.818315e+00
   10969,   -6.234898e+00,    1.777778e+01,   -7.818315e+00
   10970,   -7.818315e+00,    8.888892e+00,   -6.234898e+00
   10971,   -7.818315e+00,    1.111111e+01,   -6.234898e+00
   10972,   -7.818315e+00,    1.333334e+01,   -6.234898e+00
   10973,   -7.818315e+00,    1.555556e+01,   -6.234898e+00
   10974,   -7.818315e+00,    1.777778e+01,   -6.234898e+00
   10975,   -9.009689e+00,    8.888892e+00,   -4.338837e+00
   10976,   -9.009689e+00,    1.111111e+01,   -4.338837e+00
   10977,   -9.009689e+00,    1.333333e+01,   -4.338837e+00
   10978,   -9.009689e+00,    1.555556e+01,   -4.338837e+00
   10979,   -9.009689e+00,    1.777778e+01,   -4.338837e+00
   10980,   -9.749279e+00,    8.888892e+00,   -2.225209e+00
   10981,   -9.749279e+00,    1.111111e+01,   -2.225209e+00
   10982,   -9.749279e+00,    1.333333e+01,   -2.225209e+00
   10983,   -9.749279e+00,    1.555556e+01,   -2.225209e+00
   10984,   -9.749279e+00,    1.777778e+01,   -2.225209e+00
   10985,   -2.000000e+00,    2.000000e+01,    0.000000e+00
   10986,   -4.000000e+00,    2.000000e+01,    0.000000e+00
   10987,   -6.000000e+00,    2.000000e+01,    0.000000e+00
   10988,   -8.000000e+00,    2.000000e+01,    0.000000e+00
   10989,   -2.000000e+00,    2.222222e+00,    0.000000e+00
   10990,   -2.000000e+00,    4.444445e+00,    0.000000e+00
   10991,   -2.000000e+00,    6.666667e+00,    0.000000e+00
   10992,   -2.000000e+00,    8.888889e+00,    0.000000e+00
   10993,   -2.000000e+00,    1.111111e+01,    0.000000e+00
   10994,   -2.000000e+00,    1.333333e+01,    0.000000e+00
   10995,   -2.000000e+00,    1.555556e+01,    0.000000e+00
   10996,   -2.000000e+00,    1.777778e+01,    0.000000e+00
   10997,   -4.000000e+00,    2.222223e+00,    0.000000e+00
   10998,   -4.000000e+00,    4.444445e+00,    0.000000e+00
   10999,   -4.000000e+00,    6.666668e+00,    0.000000e+00
   11000,   -4.000000e+00,    8.888890e+00,    0.000000e+00
   11001,   -4.000000e+00,    1.111111e+01,    0.000000e+00
   11002,   -4.000000e+00,    1.333333e+01,    0.000000e+00
   11003,   -4.000000e+00,    1.555556e+01,    0.000000e+00
   11004,   -4.000000e+00,    1.777778e+01,    0.000000e+00
   11005,   -6.000000e+00,    2.222223e+00,    0.000000e+00
   11006,   -6.000000e+00,    4.444446e+00,    0.000000e+00
   11007,   -6.000000e+00,    6.666669e+00,    0.000000e+00
   11008,   -6.000000e+00,    8.888891e+00,    0.000000e+00
   11009,   -6.000000e+00,    1.111111e+01,    0.000000e+00
   11010,   -6.000000e+00,    1.333333e+01,    0.000000e+00
   11011,   -6.000000e+00,    1.555556e+01,    0.000000e+00
   11012,   -6.000000e+00,    1.777778e+01,    0.000000e+00
   11013,   -8.000000e+00,    2.222223e+00,    0.000000e+00
   11014,   -8.000000e+00,    4.444446e+00,    0.000000e+00
   11015,   -8.000000e+00,    6.666669e+00,    0.000000e+00
   11016,   -8.000000e+00,    8.888891e+00,    0.000000e+00
   11017,   -8.000000e+00,    1.111111e+01,    0.000000e+00
   11018,   -8.000000e+00,    1.333333e+01,    0.000000e+00
   11019,   -8.000000e+00,    1.555556e+01,    0.000000e+00
   11020,   -8.000000e+00,    1.777778e+01,    0.000000e+00
   11021,   -7.639033e+00,    2.222223e+00,   -2.024699e+00
   11022,   -5.713434e+00,    2.222223e+00,   -2.015796e+00
   11023,   -3.835050e+00,    2.222223e+00,   -2.141056e+00
   11024,   -1.907728e+00,    2.222223e+00,   -2.295649e+00
   11025,   -7.208559e+00,    2.222223e+00,   -3.898144e+00
   11026,   -5.521504e+00,    2.222223e+00,   -3.990354e+00
   11027,   -3.758587e+00,    2.222223e+00,   -4.291406e+00
   11028,   -1.904575e+00,    2.222223e+00,   -4.642807e+00
   11029,   -6.830325e+00,    2.222223e+00,   -5.307483e+00
   11030,   -5.539967e+00,    2.222223e+00,   -5.836899e+00
   11031,   -3.870860e+00,    2.222223e+00,   -6.487469e+00
   11032,   -1.975771e+00,    2.222223e+00,   -7.050566e+00
   11033,   -7.639033e+00,    4.444446e+00,   -2.024699e+00
   11034,   -5.713434e+00,    4.444446e+00,   -2.015796e+00
   11035,   -3.835050e+00,    4.444446e+00,   -2.141056e+00
   11036,   -1.907728e+00,    4.444445e+00,   -2.295649e+00
   11037,   -7.208559e+00,    4.444446e+00,   -3.898144e+00
   11038,   -5.521504e+00,    4.444446e+00,   -3.990354e+00
   11039,   -3.758587e+00,    4.444446e+00,   -4.291406e+00
   11040,   -1.904575e+00,    4.444446e+00,   -4.642807e+00
   11041,   -6.830325e+00,    4.444447e+00,   -5.307483e+00
   11042,   -5.539967e+00,    4.444447e+00,   -5.836899e+00
   11043,   -3.870860e+00,    4.444446e+00,   -6.487469e+00
   11044,   -1.975771e+00,    4.444446e+00,   -7.050566e+00
   11045,   -7.639033e+00,    6.666669e+00,   -2.024699e+00
   11046,   -5.713434e+00,    6.666669e+00,   -2.015796e+00
   11047,   -3.835050e+00,    6.666668e+00,   -2.141056e+00
   11048,   -1.907728e+00,    6.666668e+00,   -2.295649e+00
   11049,   -7.208559e+00,    6.666670e+00,   -3.898144e+00
   11050,   -5.521504e+00,    6.666669e+00,   -3.990354e+00
   11051,   -3.758587e+00,    6.666669e+00,   -4.291406e+00
   11052,   -1.904575e+00,    6.666669e+00,   -4.642807e+00
   11053,   -6.830325e+00,    6.666670e+00,   -5.307483e+00
   11054,   -5.539967e+00,    6.666670e+00,   -5.836899e+00
   11055,   -3.870860e+00,    6.666670e+00,   -6.487469e+00
   11056,   -1.975771e+00,    6.666669e+00,   -7.050566e+00
   11057,   -7.639033e+00,    8.888891e+00,   -2.024699e+00
   11058,   -5.713434e+00,    8.888891e+00,   -2.015796e+00
   11059,   -3.835050e+00,    8.888890e+00,   -2.141056e+00
   11060,   -1.907728e+00,    8.888890e+00,   -2.295649e+00
   11061,   -7.208559e+00,    8.888891e+00,   -3.898144e+00
   11062,   -5.521504e+00,    8.888891e+00,   -3.990354e+00
   11063,   -3.758587e+00,    8.888891e+00,   -4.291406e+00
   11064,   -1.904575e+00,    8.888891e+00,   -4.642807e+00
   11065,   -6.830325e+00,    8.888892e+00,   -5.307483e+00
   11066,   -5.539967e+00,    8.888891e+00,   -5.836899e+00
   11067,   -3.870860e+00,    8.888891e+00,   -6.487469e+00
   11068,   -1.975771e+00,    8.888891e+00,   -7.050566e+00
   11069,   -7.639033e+00,    1.111111e+01,   -2.024699e+00
   11070,   -5.713434e+00,    1.111111e+01,   -2.015796e+00
   11071,   -3.835050e+00,    1.111111e+01,   -2.141056e+00
   11072,   -1.907728e+00,    1.111111e+01,   -2.295649e+00
   11073,   -7.208559e+00,    1.111111e+01,   -3.898144e+00
   11074,   -5.521504e+00,    1.111111e+01,   -3.990354e+00
   11075,   -3.758587e+00,    1.111111e+01,   -4.291406e+00
   11076,   -1.904575e+00,    1.111111e+01,   -4.642807e+00
   11077,   -6.830325e+00,    1.111111e+01,   -5.307483e+00
   11078,   -5.539967e+00,    1.111111e+01,   -5.836899e+00
   11079,   -3.870860e+00,    1.111111e+01,   -6.487469e+00
   11080,   -1.975771e+00,    1.111111e+01,   -7.050566e+00
   11081,   -7.639033e+00,    1.333333e+01,   -2.024699e+00
   11082,   -5.713434e+00,    1.333333e+01,   -2.015796e+00
   11083,   -3.835050e+00,    1.333333e+01,   -2.141056e+00
   11084,   -1.907728e+00,    1.333333e+01,   -2.295649e+00
   11085,   -7.208559e+00,    1.333333e+01,   -3.898144e+00
   11086,   -5.521504e+00,    1.333333e+01,   -3.990354e+00
   11087,   -3.758587e+00,    1.333333e+01,   -4.291406e+00
   11088,   -1.904575e+00,    1.333333e+01,   -4.642807e+00
   11089,   -6.830325e+00,    1.333333e+01,   -5.307483e+00
   11090,   -5.539967e+00,    1.333333e+01,   -5.836899e+00
   11091,   -3.870860e+00,    1.333333e+01,   -6.487469e+00
   11092,   -1.975771e+00,    1.333333e+01,   -7.050566e+00
   11093,   -7.639033e+00,    1.555556e+01,   -2.024699e+00
   11094,   -5.713434e+00,    1.555556e+01,   -2.015796e+00
   11095,   -3.835050e+00,    1.555556e+01,   -2.141056e+00
   11096,   -1.907728e+00,    1.555556e+01,   -2.295649e+00
   11097,   -7.208559e+00,    1.555556e+01,   -3.898144e+00
   11098,   -5.521504e+00,    1.555556e+01,   -3.990354e+00
   11099,   -3.758587e+00,    1.555556e+01,   -4.291406e+00
   11100,   -1.904575e+00,    1.555556e+01,   -4.642807e+00
   11101,   -6.830325e+00,    1.555556e+01,   -5.307483e+00
   11102,   -5.539967e+00,    1.555556e+01,   -5.836899e+00
   11103,   -3.870860e+00,    1.555556e+01,   -6.487469e+00
   11104,   -1.975771e+00,    1.555556e+01,   -7.050566e+00
   11105,   -7.639033e+00,    1.777778e+01,   -2.024699e+00
   11106,   -5.713434e+00,    1.777778e+01,   -2.015796e+00
   11107,   -3.835050e+00,    1.777778e+01,   -2.141056e+00
   11108,   -1.907728e+00,    1.777778e+01,   -2.295649e+00
   11109,   -7.208559e+00,    1.777778e+01,   -3.898144e+00
   11110,   -5.521504e+00,    1.777778e+01,   -3.990354e+00
   11111,   -3.758587e+00,    1.777778e+01,   -4.291406e+00
   11112,   -1.904575e+00,    1.777778e+01,   -4.642807e+00
   11113,   -6.830325e+00,    1.777778e+01,   -5.307483e+00
   11114,   -5.539967e+00,    1.777778e+01,   -5.836899e+00
   11115,   -3.870860e+00,    1.777778e+01,   -6.487469e+00
   11116,   -1.975771e+00,    1.777778e+01,   -7.050566e+00
   11117,   -7.639033e+00,    2.000000e+01,   -2.024699e+00
   11118,   -5.713434e+00,    2.000000e+01,   -2.015796e+00
   11119,   -3.835050e+00,    2.000000e+01,   -2.141056e+00
   11120,   -1.907728e+00,    2.000000e+01,   -2.295649e+00
   11121,   -7.208559e+00,    2.000000e+01,   -3.898144e+00
   11122,   -5.521504e+00,    2.000000e+01,   -3.990354e+00
   11123,   -3.758587e+00,    2.000000e+01,   -4.291406e+00
   11124,   -1.904575e+00,    2.000000e+01,   -4.642807e+00
   11125,   -6.830325e+00,    2.000000e+01,   -5.307483e+00
   11126,   -5.539967e+00,    2.000000e+01,   -5.836899e+00
   11127,   -3.870860e+00,    2.000000e+01,   -6.487469e+00
   11128,   -1.975771e+00,    2.000000e+01,   -7.050566e+00
   11129,   -1.000000e+01,   -8.000000e+01,    0.000000e+00
   11130,   -9.749279e+00,   -8.000000e+01,   -2.225209e+00
   11131,   -9.009689e+00,   -8.000000e+01,   -4.338837e+00
   11132,   -7.818315e+00,   -8.000000e+01,   -6.234898e+00
   11133,   -6.234898e+00,   -8.000000e+01,   -7.818315e+00
   11134,   -4.338837e+00,   -8.000000e+01,   -9.009689e+00
   11135,   -2.225209e+00,   -8.000000e+01,   -9.749279e+00
   11136,   -1.000000e+01,   -4.000000e+00,   -1.592041e-15
   11137,   -1.000000e+01,   -8.000000e+00,   -1.347111e-15
   11138,   -1.000000e+01,   -1.200000e+01,   -1.102182e-15
   11139,   -1.000000e+01,   -1.600000e+01,   -8.572528e-16
   11140,   -1.000000e+01,   -2.000000e+01,   -6.123234e-16
   11141,   -1.000000e+01,   -2.400000e+01,   -3.673940e-16
   11142,   -1.000000e+01,   -2.800000e+01,   -1.224647e-16
   11143,   -1.000000e+01,   -3.200000e+01,    1.224647e-16
   11144,   -1.000000e+01,   -3.600000e+01,    3.673940e-16
   11145,   -1.000000e+01,   -4.000000e+01,    6.123234e-16
   11146,   -1.000000e+01,   -4.400000e+01,    8.572528e-16
   11147,   -1.000000e+01,   -4.800000e+01,    1.102182e-15
   11148,   -1.000000e+01,   -5.200000e+01,    1.347111e-15
   11149,   -1.000000e+01,   -5.600000e+01,    1.592041e-15
   11150,   -1.000000e+01,   -6.000000e+01,    1.836970e-15
   11151,   -1.000000e+01,   -6.400000e+01,    2.081900e-15
   11152,   -1.000000e+01,   -6.800000e+01,    2.326829e-15
   11153,   -1.000000e+01,   -7.200000e+01,    2.571758e-15
   11154,   -1.000000e+01,   -7.600000e+01,    2.816688e-15
   11155,   -2.225209e+00,   -4.000000e+00,   -9.749279e+00
   11156,   -2.225209e+00,   -8.000000e+00,   -9.749279e+00
   11157,   -2.225209e+00,   -1.200000e+01,   -9.749279e+00
   11158,   -2.225209e+00,   -1.600000e+01,   -9.749279e+00
   11159,   -2.225209e+00,   -2.000000e+01,   -9.749279e+00
   11160,   -2.225209e+00,   -2.400000e+01,   -9.749279e+00
   11161,   -2.225209e+00,   -2.800000e+01,   -9.749279e+00
   11162,   -2.225209e+00,   -3.200000e+01,   -9.749279e+00
   11163,   -2.225209e+00,   -3.600000e+01,   -9.749279e+00
   11164,   -2.225209e+00,   -4.000000e+01,   -9.749279e+00
   11165,   -2.225209e+00,   -4.400000e+01,   -9.749279e+00
   11166,   -2.225209e+00,   -4.800000e+01,   -9.749279e+00
   11167,   -2.225209e+00,   -5.200000e+01,   -9.749279e+00
   11168,   -2.225209e+00,   -5.600000e+01,   -9.749279e+00
   11169,   -2.225209e+00,   -6.000000e+01,   -9.749279e+00
   11170,   -2.225209e+00,   -6.400000e+01,   -9.749279e+00
   11171,   -2.225209e+00,   -6.800000e+01,   -9.749279e+00
   11172,   -2.225209e+00,   -7.200000e+01,   -9.749279e+00
   11173,   -2.225209e+00,   -7.600000e+01,   -9.749279e+00
   11174,   -4.338837e+00,   -4.000000e+00,   -9.009689e+00
   11175,   -4.338837e+00,   -8.000000e+00,   -9.009689e+00
   11176,   -4.338837e+00,   -1.200000e+01,   -9.009689e+00
   11177,   -4.338837e+00,   -1.600000e+01,   -9.009689e+00
   11178,   -4.338837e+00,   -2.000000e+01,   -9.009689e+00
   11179,   -4.338837e+00,   -2.400000e+01,   -9.009689e+00
   11180,   -4.338837e+00,   -2.800000e+01,   -9.009689e+00
   11181,   -4.338837e+00,   -3.200000e+01,   -9.009689e+00
   11182,   -4.338837e+00,   -3.600000e+01,   -9.009689e+00
   11183,   -4.338837e+00,   -4.000000e+01,   -9.009689e+00
   11184,   -4.338837e+00,   -4.400000e+01,   -9.009689e+00
   11185,   -4.338837e+00,   -4.800000e+01,   -9.009689e+00
   11186,   -4.338837e+00,   -5.200000e+01,   -9.009689e+00
   11187,   -4.338837e+00,   -5.600000e+01,   -9.009689e+00
   11188,   -4.338837e+00,   -6.000000e+01,   -9.009689e+00
   11189,   -4.338837e+00,   -6.400000e+01,   -9.009689e+00
   11190,   -4.338837e+00,   -6.800000e+01,   -9.009689e+00
   11191,   -4.338837e+00,   -7.200000e+01,   -9.009689e+00
   11192,   -4.338837e+00,   -7.600000e+01,   -9.009689e+00
   11193,   -6.234898e+00,   -4.000000e+00,   -7.818315e+00
   11194,   -6.234898e+00,   -8.000000e+00,   -7.818315e+00
   11195,   -6.234898e+00,   -1.200000e+01,   -7.818315e+00
   11196,   -6.234898e+00,   -1.600000e+01,   -7.818315e+00
   11197,   -6.234898e+00,   -2.000000e+01,   -7.818315e+00
   11198,   -6.234898e+00,   -2.400000e+01,   -7.818315e+00
   11199,   -6.234898e+00,   -2.800000e+01,   -7.818315e+00
   11200,   -6.234898e+00,   -3.200000e+01,   -7.818315e+00
   11201,   -6.234898e+00,   -3.600000e+01,   -7.818315e+00
   11202,   -6.234898e+00,   -4.000000e+01,   -7.818315e+00
   11203,   -6.234898e+00,   -4.400000e+01,   -7.818315e+00
   11204,   -6.234898e+00,   -4.800000e+01,   -7.818315e+00
   11205,   -6.234898e+00,   -5.200000e+01,   -7.818315e+00
   11206,   -6.234898e+00,   -5.600000e+01,   -7.818315e+00
   11207,   -6.234898e+00,   -6.000000e+01,   -7.818315e+00
   11208,   -6.234898e+00,   -6.400000e+01,   -7.818315e+00
   11209,   -6.234898e+00,   -6.800000e+01,   -7.818315e+00
   11210,   -6.234898e+00,   -7.200000e+01,   -7.818315e+00
   11211,   -6.234898e+00,   -7.600000e+01,   -7.818315e+00
   11212,   -7.818315e+00,   -4.000000e+00,   -6.234898e+00
   11213,   -7.818315e+00,   -8.000000e+00,   -6.234898e+00
   11214,   -7.818315e+00,   -1.200000e+01,   -6.234898e+00
   11215,   -7.818315e+00,   -1.600000e+01,   -6.234898e+00
   11216,   -7.818315e+00,   -2.000000e+01,   -6.234898e+00
   11217,   -7.818315e+00,   -2.400000e+01,   -6.234898e+00
   11218,   -7.818315e+00,   -2.800000e+01,   -6.234898e+00
   11219,   -7.818315e+00,   -3.200000e+01,   -6.234898e+00
   11220,   -7.818315e+00,   -3.600000e+01,   -6.234898e+00
   11221,   -7.818315e+00,   -4.000000e+01,   -6.234898e+00
   11222,   -7.818315e+00,   -4.400000e+01,   -6.234898e+00
   11223,   -7.818315e+00,   -4.800000e+01,   -6.234898e+00
   11224,   -7.818315e+00,   -5.200000e+01,   -6.234898e+00
   11225,   -7.818315e+00,   -5.600000e+01,   -6.234898e+00
   11226,   -7.818315e+00,   -6.000000e+01,   -6.234898e+00
   11227,   -7.818315e+00,   -6.400000e+01,   -6.234898e+00
   11228,   -7.818315e+00,   -6.800000e+01,   -6.234898e+00
   11229,   -7.818315e+00,   -7.200000e+01,   -6.234898e+00
   11230,   -7.818315e+00,   -7.600000e+01,   -6.234898e+00
   11231,   -9.009689e+00,   -4.000000e+00,   -4.338837e+00
   11232,   -9.009689e+00,   -8.000000e+00,   -4.338837e+00
   11233,   -9.009689e+00,   -1.200000e+01,   -4.338837e+00
   11234,   -9.009689e+00,   -1.600000e+01,   -4.338837e+00
   11235,   -9.009689e+00,   -2.000000e+01,   -4.338837e+00
   11236,   -9.009689e+00,   -2.400000e+01,   -4.338837e+00
   11237,   -9.009689e+00,   -2.800000e+01,   -4.338837e+00
   11238,   -9.009689e+00,   -3.200000e+01,   -4.338837e+00
   11239,   -9.009689e+00,   -3.600000e+01,   -4.338837e+00
   11240,   -9.009689e+00,   -4.000000e+01,   -4.338837e+00
   11241,   -9.009689e+00,   -4.400000e+01,   -4.338837e+00
   11242,   -9.009689e+00,   -4.800000e+01,   -4.338837e+00
   11243,   -9.009689e+00,   -5.200000e+01,   -4.338837e+00
   11244,   -9.009689e+00,   -5.600000e+01,   -4.338837e+00
   11245,   -9.009689e+00,   -6.000000e+01,   -4.338837e+00
   11246,   -9.009689e+00,   -6.400000e+01,   -4.338837e+00
   11247,   -9.009689e+00,   -6.800000e+01,   -4.338837e+00
   11248,   -9.009689e+00,   -7.200000e+01,   -4.338837e+00
   11249,   -9.009689e+00,   -7.600000e+01,   -4.338837e+00
   11250,   -9.749279e+00,   -4.000000e+00,   -2.225209e+00
   11251,   -9.749279e+00,   -8.000000e+00,   -2.225209e+00
   11252,   -9.749279e+00,   -1.200000e+01,   -2.225209e+00
   11253,   -9.749279e+00,   -1.600000e+01,   -2.225209e+00
   11254,   -9.749279e+00,   -2.000000e+01,   -2.225209e+00
   11255,   -9.749279e+00,   -2.400000e+01,   -2.225209e+00
   11256,   -9.749279e+00,   -2.800000e+01,   -2.225209e+00
   11257,   -9.749279e+00,   -3.200000e+01,   -2.225209e+00
   11258,   -9.749279e+00,   -3.600000e+01,   -2.225209e+00
   11259,   -9.749279e+00,   -4.000000e+01,   -2.225209e+00
   11260,   -9.749279e+00,   -4.400000e+01,   -2.225209e+00
   11261,   -9.749279e+00,   -4.800000e+01,   -2.225209e+00
   11262,   -9.749279e+00,   -5.200000e+01,   -2.225209e+00
   11263,   -9.749279e+00,   -5.600000e+01,   -2.225209e+00
   11264,   -9.749279e+00,   -6.000000e+01,   -2.225209e+00
   11265,   -9.749279e+00,   -6.400000e+01,   -2.225209e+00
   11266,   -9.749279e+00,   -6.800000e+01,   -2.225209e+00
   11267,   -9.749279e+00,   -7.200000e+01,   -2.225209e+00
   11268,   -9.749279e+00,   -7.600000e+01,   -2.225209e+00
   11269,   -8.000000e+00,   -8.000000e+01,    0.000000e+00
   11270,   -6.000000e+00,   -8.000000e+01,    0.000000e+00
   11271,   -4.000000e+00,   -8.000000e+01,    0.000000e+00
   11272,   -2.000000e+00,   -8.000000e+01,    0.000000e+00
   11273,   -2.000000e+00,   -7.600000e+01,    0.000000e+00
   11274,   -2.000000e+00,   -7.200000e+01,    0.000000e+00
   11275,   -2.000000e+00,   -6.800000e+01,    0.000000e+00
   11276,   -2.000000e+00,   -6.400000e+01,    0.000000e+00
   11277,   -2.000000e+00,   -6.000000e+01,    0.000000e+00
   11278,   -2.000000e+00,   -5.600000e+01,    0.000000e+00
   11279,   -2.000000e+00,   -5.200000e+01,    0.000000e+00
   11280,   -2.000000e+00,   -4.800000e+01,    0.000000e+00
   11281,   -2.000000e+00,   -4.400000e+01,    0.000000e+00
   11282,   -2.000000e+00,   -4.000000e+01,    0.000000e+00
   11283,   -2.000000e+00,   -3.600000e+01,    0.000000e+00
   11284,   -2.000000e+00,   -3.200000e+01,    0.000000e+00
   11285,   -2.000000e+00,   -2.800000e+01,    0.000000e+00
   11286,   -2.000000e+00,   -2.400000e+01,    0.000000e+00
   11287,   -2.000000e+00,   -2.000000e+01,    0.000000e+00
   11288,   -2.000000e+00,   -1.600000e+01,    0.000000e+00
   11289,   -2.000000e+00,   -1.200000e+01,    0.000000e+00
   11290,   -2.000000e+00,   -8.000000e+00,    0.000000e+00
   11291,   -2.000000e+00,   -4.000000e+00,    0.000000e+00
   11292,   -4.000000e+00,   -7.600000e+01,    0.000000e+00
   11293,   -4.000000e+00,   -7.200000e+01,    0.000000e+00
   11294,   -4.000000e+00,   -6.800000e+01,    0.000000e+00
   11295,   -4.000000e+00,   -6.400000e+01,    0.000000e+00
   11296,   -4.000000e+00,   -6.000000e+01,    0.000000e+00
   11297,   -4.000000e+00,   -5.600000e+01,    0.000000e+00
   11298,   -4.000000e+00,   -5.200000e+01,    0.000000e+00
   11299,   -4.000000e+00,   -4.800000e+01,    0.000000e+00
   11300,   -4.000000e+00,   -4.400000e+01,    0.000000e+00
   11301,   -4.000000e+00,   -4.000000e+01,    0.000000e+00
   11302,   -4.000000e+00,   -3.600000e+01,    0.000000e+00
   11303,   -4.000000e+00,   -3.200000e+01,    0.000000e+00
   11304,   -4.000000e+00,   -2.800000e+01,    0.000000e+00
   11305,   -4.000000e+00,   -2.400000e+01,    0.000000e+00
   11306,   -4.000000e+00,   -2.000000e+01,    0.000000e+00
   11307,   -4.000000e+00,   -1.600000e+01,    0.000000e+00
   11308,   -4.000000e+00,   -1.200000e+01,    0.000000e+00
   11309,   -4.000000e+00,   -8.000000e+00,    0.000000e+00
   11310,   -4.000000e+00,   -4.000000e+00,    0.000000e+00
   11311,   -6.000000e+00,   -7.600000e+01,    0.000000e+00
   11312,   -6.000000e+00,   -7.200000e+01,    0.000000e+00
   11313,   -6.000000e+00,   -6.800000e+01,    0.000000e+00
   11314,   -6.000000e+00,   -6.400000e+01,    0.000000e+00
   11315,   -6.000000e+00,   -6.000000e+01,    0.000000e+00
   11316,   -6.000000e+00,   -5.600000e+01,    0.000000e+00
   11317,   -6.000000e+00,   -5.200000e+01,    0.000000e+00
   11318,   -6.000000e+00,   -4.800000e+01,    0.000000e+00
   11319,   -6.000000e+00,   -4.400000e+01,    0.000000e+00
   11320,   -6.000000e+00,   -4.000000e+01,    0.000000e+00
   11321,   -6.000000e+00,   -3.600000e+01,    0.000000e+00
   11322,   -6.000000e+00,   -3.200000e+01,    0.000000e+00
   11323,   -6.000000e+00,   -2.800000e+01,    0.000000e+00
   11324,   -6.000000e+00,   -2.400000e+01,    0.000000e+00
   11325,   -6.000000e+00,   -2.000000e+01,    0.000000e+00
   11326,   -6.000000e+00,   -1.600000e+01,    0.000000e+00
   11327,   -6.000000e+00,   -1.200000e+01,    0.000000e+00
   11328,   -6.000000e+00,   -8.000000e+00,    0.000000e+00
   11329,   -6.000000e+00,   -4.000000e+00,    0.000000e+00
   11330,   -8.000000e+00,   -7.600000e+01,    0.000000e+00
   11331,   -8.000000e+00,   -7.200000e+01,    0.000000e+00
   11332,   -8.000000e+00,   -6.800000e+01,    0.000000e+00
   11333,   -8.000000e+00,   -6.400000e+01,    0.000000e+00
   11334,   -8.000000e+00,   -6.000000e+01,    0.000000e+00
   11335,   -8.000000e+00,   -5.600000e+01,    0.000000e+00
   11336,   -8.000000e+00,   -5.200000e+01,    0.000000e+00
   11337,   -8.000000e+00,   -4.800000e+01,    0.000000e+00
   11338,   -8.000000e+00,   -4.400000e+01,    0.000000e+00
   11339,   -8.000000e+00,   -4.000000e+01,    0.000000e+00
   11340,   -8.000000e+00,   -3.600000e+01,    0.000000e+00
   11341,   -8.000000e+00,   -3.200000e+01,    0.000000e+00
   11342,   -8.000000e+00,   -2.800000e+01,    0.000000e+00
   11343,   -8.000000e+00,   -2.400000e+01,    0.000000e+00
   11344,   -8.000000e+00,   -2.000000e+01,    0.000000e+00
   11345,   -8.000000e+00,   -1.600000e+01,    0.000000e+00
   11346,   -8.000000e+00,   -1.200000e+01,    0.000000e+00
   11347,   -8.000000e+00,   -8.000000e+00,    0.000000e+00
   11348,   -8.000000e+00,   -4.000000e+00,    0.000000e+00
   11349,   -5.713434e+00,   -4.000000e+00,   -2.015796e+00
   11350,   -7.639033e+00,   -4.000000e+00,   -2.024699e+00
   11351,   -3.835050e+00,   -4.000000e+00,   -2.141056e+00
   11352,   -1.907728e+00,   -4.000000e+00,   -2.295649e+00
   11353,   -5.521504e+00,   -4.000000e+00,   -3.990354e+00
   11354,   -7.208559e+00,   -4.000000e+00,   -3.898144e+00
   11355,   -3.758587e+00,   -4.000000e+00,   -4.291406e+00
   11356,   -1.904575e+00,   -4.000000e+00,   -4.642807e+00
   11357,   -5.539967e+00,   -4.000000e+00,   -5.836899e+00
   11358,   -6.830325e+00,   -4.000000e+00,   -5.307483e+00
   11359,   -3.870860e+00,   -4.000000e+00,   -6.487469e+00
   11360,   -1.975771e+00,   -4.000000e+00,   -7.050566e+00
   11361,   -5.713434e+00,   -8.000000e+00,   -2.015796e+00
   11362,   -7.639033e+00,   -8.000000e+00,   -2.024699e+00
   11363,   -3.835050e+00,   -8.000000e+00,   -2.141056e+00
   11364,   -1.907728e+00,   -8.000000e+00,   -2.295649e+00
   11365,   -5.521504e+00,   -8.000000e+00,   -3.990354e+00
   11366,   -7.208559e+00,   -8.000000e+00,   -3.898144e+00
   11367,   -3.758587e+00,   -8.000000e+00,   -4.291406e+00
   11368,   -1.904575e+00,   -8.000000e+00,   -4.642807e+00
   11369,   -5.539967e+00,   -8.000000e+00,   -5.836899e+00
   11370,   -6.830325e+00,   -8.000000e+00,   -5.307483e+00
   11371,   -3.870860e+00,   -8.000000e+00,   -6.487469e+00
   11372,   -1.975771e+00,   -8.000000e+00,   -7.050566e+00
   11373,   -5.713434e+00,   -1.200000e+01,   -2.015796e+00
   11374,   -7.639033e+00,   -1.200000e+01,   -2.024699e+00
   11375,   -3.835050e+00,   -1.200000e+01,   -2.141056e+00
   11376,   -1.907728e+00,   -1.200000e+01,   -2.295649e+00
   11377,   -5.521504e+00,   -1.200000e+01,   -3.990354e+00
   11378,   -7.208559e+00,   -1.200000e+01,   -3.898144e+00
   11379,   -3.758587e+00,   -1.200000e+01,   -4.291406e+00
   11380,   -1.904575e+00,   -1.200000e+01,   -4.642807e+00
   11381,   -5.539967e+00,   -1.200000e+01,   -5.836899e+00
   11382,   -6.830325e+00,   -1.200000e+01,   -5.307483e+00
   11383,   -3.870860e+00,   -1.200000e+01,   -6.487469e+00
   11384,   -1.975771e+00,   -1.200000e+01,   -7.050566e+00
   11385,   -5.713434e+00,   -1.600000e+01,   -2.015796e+00
   11386,   -7.639033e+00,   -1.600000e+01,   -2.024699e+00
   11387,   -3.835050e+00,   -1.600000e+01,   -2.141056e+00
   11388,   -1.907728e+00,   -1.600000e+01,   -2.295649e+00
   11389,   -5.521504e+00,   -1.600000e+01,   -3.990354e+00
   11390,   -7.208559e+00,   -1.600000e+01,   -3.898144e+00
   11391,   -3.758587e+00,   -1.600000e+01,   -4.291406e+00
   11392,   -1.904575e+00,   -1.600000e+01,   -4.642807e+00
   11393,   -5.539967e+00,   -1.600000e+01,   -5.836899e+00
   11394,   -6.830325e+00,   -1.600000e+01,   -5.307483e+00
   11395,   -3.870860e+00,   -1.600000e+01,   -6.487469e+00
   11396,   -1.975771e+00,   -1.600000e+01,   -7.050566e+00
   11397,   -5.713434e+00,   -2.000000e+01,   -2.015796e+00
   11398,   -7.639033e+00,   -2.000000e+01,   -2.024699e+00
   11399,   -3.835050e+00,   -2.000000e+01,   -2.141056e+00
   11400,   -1.907728e+00,   -2.000000e+01,   -2.295649e+00
   11401,   -5.521504e+00,   -2.000000e+01,   -3.990354e+00
   11402,   -7.208559e+00,   -2.000000e+01,   -3.898144e+00
   11403,   -3.758587e+00,   -2.000000e+01,   -4.291406e+00
   11404,   -1.904575e+00,   -2.000000e+01,   -4.642807e+00
   11405,   -5.539967e+00,   -2.000000e+01,   -5.836899e+00
   11406,   -6.830325e+00,   -2.000000e+01,   -5.307483e+00
   11407,   -3.870860e+00,   -2.000000e+01,   -6.487469e+00
   11408,   -1.975771e+00,   -2.000000e+01,   -7.050566e+00
   11409,   -5.713434e+00,   -2.400000e+01,   -2.015796e+00
   11410,   -7.639033e+00,   -2.400000e+01,   -2.024699e+00
   11411,   -3.835050e+00,   -2.400000e+01,   -2.141056e+00
   11412,   -1.907728e+00,   -2.400000e+01,   -2.295649e+00
   11413,   -5.521504e+00,   -2.400000e+01,   -3.990354e+00
   11414,   -7.208559e+00,   -2.400000e+01,   -3.898144e+00
   11415,   -3.758587e+00,   -2.400000e+01,   -4.291406e+00
   11416,   -1.904575e+00,   -2.400000e+01,   -4.642807e+00
   11417,   -5.539967e+00,   -2.400000e+01,   -5.836899e+00
   11418,   -6.830325e+00,   -2.400000e+01,   -5.307483e+00
   11419,   -3.870860e+00,   -2.400000e+01,   -6.487469e+00
   11420,   -1.975771e+00,   -2.400000e+01,   -7.050566e+00
   11421,   -5.713434e+00,   -2.800000e+01,   -2.015796e+00
   11422,   -7.639033e+00,   -2.800000e+01,   -2.024699e+00
   11423,   -3.835050e+00,   -2.800000e+01,   -2.141056e+00
   11424,   -1.907728e+00,   -2.800000e+01,   -2.295649e+00
   11425,   -5.521504e+00,   -2.800000e+01,   -3.990354e+00
   11426,   -7.208559e+00,   -2.800000e+01,   -3.898144e+00
   11427,   -3.758587e+00,   -2.800000e+01,   -4.291406e+00
   11428,   -1.904575e+00,   -2.800000e+01,   -4.642807e+00
   11429,   -5.539967e+00,   -2.800000e+01,   -5.836899e+00
   11430,   -6.830325e+00,   -2.800000e+01,   -5.307483e+00
   11431,   -3.870860e+00,   -2.800000e+01,   -6.487469e+00
   11432,   -1.975771e+00,   -2.800000e+01,   -7.050566e+00
   11433,   -5.713434e+00,   -3.200000e+01,   -2.015796e+00
   11434,   -7.639033e+00,   -3.200000e+01,   -2.024699e+00
   11435,   -3.835050e+00,   -3.200000e+01,   -2.141056e+00
   11436,   -1.907728e+00,   -3.200000e+01,   -2.295649e+00
   11437,   -5.521504e+00,   -3.200000e+01,   -3.990354e+00
   11438,   -7.208559e+00,   -3.200000e+01,   -3.898144e+00
   11439,   -3.758587e+00,   -3.200000e+01,   -4.291406e+00
   11440,   -1.904575e+00,   -3.200000e+01,   -4.642807e+00
   11441,   -5.539967e+00,   -3.200000e+01,   -5.836899e+00
   11442,   -6.830325e+00,   -3.200000e+01,   -5.307483e+00
   11443,   -3.870860e+00,   -3.200000e+01,   -6.487469e+00
   11444,   -1.975771e+00,   -3.200000e+01,   -7.050566e+00
   11445,   -5.713434e+00,   -3.600000e+01,   -2.015796e+00
   11446,   -7.639033e+00,   -3.600000e+01,   -2.024699e+00
   11447,   -3.835050e+00,   -3.600000e+01,   -2.141056e+00
   11448,   -1.907728e+00,   -3.600000e+01,   -2.295649e+00
   11449,   -5.521504e+00,   -3.600000e+01,   -3.990354e+00
   11450,   -7.208559e+00,   -3.600000e+01,   -3.898144e+00
   11451,   -3.758587e+00,   -3.600000e+01,   -4.291406e+00
   11452,   -1.904575e+00,   -3.600000e+01,   -4.642807e+00
   11453,   -5.539967e+00,   -3.600000e+01,   -5.836899e+00
   11454,   -6.830325e+00,   -3.600000e+01,   -5.307483e+00
   11455,   -3.870860e+00,   -3.600000e+01,   -6.487469e+00
   11456,   -1.975771e+00,   -3.600000e+01,   -7.050566e+00
   11457,   -5.713434e+00,   -4.000000e+01,   -2.015796e+00
   11458,   -7.639033e+00,   -4.000000e+01,   -2.024699e+00
   11459,   -3.835050e+00,   -4.000000e+01,   -2.141056e+00
   11460,   -1.907728e+00,   -4.000000e+01,   -2.295649e+00
   11461,   -5.521504e+00,   -4.000000e+01,   -3.990354e+00
   11462,   -7.208559e+00,   -4.000000e+01,   -3.898144e+00
   11463,   -3.758587e+00,   -4.000000e+01,   -4.291406e+00
   11464,   -1.904575e+00,   -4.000000e+01,   -4.642807e+00
   11465,   -5.539967e+00,   -4.000000e+01,   -5.836899e+00
   11466,   -6.830325e+00,   -4.000000e+01,   -5.307483e+00
   11467,   -3.870860e+00,   -4.000000e+01,   -6.487469e+00
   11468,   -1.975771e+00,   -4.000000e+01,   -7.050566e+00
   11469,   -5.713434e+00,   -4.400000e+01,   -2.015796e+00
   11470,   -7.639033e+00,   -4.400000e+01,   -2.024699e+00
   11471,   -3.835050e+00,   -4.400000e+01,   -2.141056e+00
   11472,   -1.907728e+00,   -4.400000e+01,   -2.295649e+00
   11473,   -5.521504e+00,   -4.400000e+01,   -3.990354e+00
   11474,   -7.208559e+00,   -4.400000e+01,   -3.898144e+00
   11475,   -3.758587e+00,   -4.400000e+01,   -4.291406e+00
   11476,   -1.904575e+00,   -4.400000e+01,   -4.642807e+00
   11477,   -5.539967e+00,   -4.400000e+01,   -5.836899e+00
   11478,   -6.830325e+00,   -4.400000e+01,   -5.307483e+00
   11479,   -3.870860e+00,   -4.400000e+01,   -6.487469e+00
   11480,   -1.975771e+00,   -4.400000e+01,   -7.050566e+00
   11481,   -5.713434e+00,   -4.800000e+01,   -2.015796e+00
   11482,   -7.639033e+00,   -4.800000e+01,   -2.024699e+00
   11483,   -3.835050e+00,   -4.800000e+01,   -2.141056e+00
   11484,   -1.907728e+00,   -4.800000e+01,   -2.295649e+00
   11485,   -5.521504e+00,   -4.800000e+01,   -3.990354e+00
   11486,   -7.208559e+00,   -4.800000e+01,   -3.898144e+00
   11487,   -3.758587e+00,   -4.800000e+01,   -4.291406e+00
   11488,   -1.904575e+00,   -4.800000e+01,   -4.642807e+00
   11489,   -5.539967e+00,   -4.800000e+01,   -5.836899e+00
   11490,   -6.830325e+00,   -4.800000e+01,   -5.307483e+00
   11491,   -3.870860e+00,   -4.800000e+01,   -6.487469e+00
   11492,   -1.975771e+00,   -4.800000e+01,   -7.050566e+00
   11493,   -5.713434e+00,   -5.200000e+01,   -2.015796e+00
   11494,   -7.639033e+00,   -5.200000e+01,   -2.024699e+00
   11495,   -3.835050e+00,   -5.200000e+01,   -2.141056e+00
   11496,   -1.907728e+00,   -5.200000e+01,   -2.295649e+00
   11497,   -5.521504e+00,   -5.200000e+01,   -3.990354e+00
   11498,   -7.208559e+00,   -5.200000e+01,   -3.898144e+00
   11499,   -3.758587e+00,   -5.200000e+01,   -4.291406e+00
   11500,   -1.904575e+00,   -5.200000e+01,   -4.642807e+00
   11501,   -5.539967e+00,   -5.200000e+01,   -5.836899e+00
   11502,   -6.830325e+00,   -5.200000e+01,   -5.307483e+00
   11503,   -3.870860e+00,   -5.200000e+01,   -6.487469e+00
   11504,   -1.975771e+00,   -5.200000e+01,   -7.050566e+00
   11505,   -5.713434e+00,   -5.600000e+01,   -2.015796e+00
   11506,   -7.639033e+00,   -5.600000e+01,   -2.024699e+00
   11507,   -3.835050e+00,   -5.600000e+01,   -2.141056e+00
   11508,   -1.907728e+00,   -5.600000e+01,   -2.295649e+00
   11509,   -5.521504e+00,   -5.600000e+01,   -3.990354e+00
   11510,   -7.208559e+00,   -5.600000e+01,   -3.898144e+00
   11511,   -3.758587e+00,   -5.600000e+01,   -4.291406e+00
   11512,   -1.904575e+00,   -5.600000e+01,   -4.642807e+00
   11513,   -5.539967e+00,   -5.600000e+01,   -5.836899e+00
   11514,   -6.830325e+00,   -5.600000e+01,   -5.307483e+00
   11515,   -3.870860e+00,   -5.600000e+01,   -6.487469e+00
   11516,   -1.975771e+00,   -5.600000e+01,   -7.050566e+00
   11517,   -5.713434e+00,   -6.000000e+01,   -2.015796e+00
   11518,   -7.639033e+00,   -6.000000e+01,   -2.024699e+00
   11519,   -3.835050e+00,   -6.000000e+01,   -2.141056e+00
   11520,   -1.907728e+00,   -6.000000e+01,   -2.295649e+00
   11521,   -5.521504e+00,   -6.000000e+01,   -3.990354e+00
   11522,   -7.208559e+00,   -6.000000e+01,   -3.898144e+00
   11523,   -3.758587e+00,   -6.000000e+01,   -4.291406e+00
   11524,   -1.904575e+00,   -6.000000e+01,   -4.642807e+00
   11525,   -5.539967e+00,   -6.000000e+01,   -5.836899e+00
   11526,   -6.830325e+00,   -6.000000e+01,   -5.307483e+00
   11527,   -3.870860e+00,   -6.000000e+01,   -6.487469e+00
   11528,   -1.975771e+00,   -6.000000e+01,   -7.050566e+00
   11529,   -5.713434e+00,   -6.400000e+01,   -2.015796e+00
   11530,   -7.639033e+00,   -6.400000e+01,   -2.024699e+00
   11531,   -3.835050e+00,   -6.400000e+01,   -2.141056e+00
   11532,   -1.907728e+00,   -6.400000e+01,   -2.295649e+00
   11533,   -5.521504e+00,   -6.400000e+01,   -3.990354e+00
   11534,   -7.208559e+00,   -6.400000e+01,   -3.898144e+00
   11535,   -3.758587e+00,   -6.400000e+01,   -4.291406e+00
   11536,   -1.904575e+00,   -6.400000e+01,   -4.642807e+00
   11537,   -5.539967e+00,   -6.400000e+01,   -5.836899e+00
   11538,   -6.830325e+00,   -6.400000e+01,   -5.307483e+00
   11539,   -3.870860e+00,   -6.400000e+01,   -6.487469e+00
   11540,   -1.975771e+00,   -6.400000e+01,   -7.050566e+00
   11541,   -5.713434e+00,   -6.800000e+01,   -2.015796e+00
   11542,   -7.639033e+00,   -6.800000e+01,   -2.024699e+00
   11543,   -3.835050e+00,   -6.800000e+01,   -2.141056e+00
   11544,   -1.907728e+00,   -6.800000e+01,   -2.295649e+00
   11545,   -5.521504e+00,   -6.800000e+01,   -3.990354e+00
   11546,   -7.208559e+00,   -6.800000e+01,   -3.898144e+00
   11547,   -3.758587e+00,   -6.800000e+01,   -4.291406e+00
   11548,   -1.904575e+00,   -6.800000e+01,   -4.642807e+00
   11549,   -5.539967e+00,   -6.800000e+01,   -5.836899e+00
   11550,   -6.830325e+00,   -6.800000e+01,   -5.307483e+00
   11551,   -3.870860e+00,   -6.800000e+01,   -6.487469e+00
   11552,   -1.975771e+00,   -6.800000e+01,   -7.050566e+00
   11553,   -5.713434e+00,   -7.200000e+01,   -2.015796e+00
   11554,   -7.639033e+00,   -7.200000e+01,   -2.024699e+00
   11555,   -3.835050e+00,   -7.200000e+01,   -2.141056e+00
   11556,   -1.907728e+00,   -7.200000e+01,   -2.295649e+00
   11557,   -5.521504e+00,   -7.200000e+01,   -3.990354e+00
   11558,   -7.208559e+00,   -7.200000e+01,   -3.898144e+00
   11559,   -3.758587e+00,   -7.200000e+01,   -4.291406e+00
   11560,   -1.904575e+00,   -7.200000e+01,   -4.642807e+00
   11561,   -5.539967e+00,   -7.200000e+01,   -5.836899e+00
   11562,   -6.830325e+00,   -7.200000e+01,   -5.307483e+00
   11563,   -3.870860e+00,   -7.200000e+01,   -6.487469e+00
   11564,   -1.975771e+00,   -7.200000e+01,   -7.050566e+00
   11565,   -5.713434e+00,   -7.600000e+01,   -2.015796e+00
   11566,   -7.639033e+00,   -7.600000e+01,   -2.024699e+00
   11567,   -3.835050e+00,   -7.600000e+01,   -2.141056e+00
   11568,   -1.907728e+00,   -7.600000e+01,   -2.295649e+00
   11569,   -5.521504e+00,   -7.600000e+01,   -3.990354e+00
   11570,   -7.208559e+00,   -7.600000e+01,   -3.898144e+00
   11571,   -3.758587e+00,   -7.600000e+01,   -4.291406e+00
   11572,   -1.904575e+00,   -7.600000e+01,   -4.642807e+00
   11573,   -5.539967e+00,   -7.600000e+01,   -5.836899e+00
   11574,   -6.830325e+00,   -7.600000e+01,   -5.307483e+00
   11575,   -3.870860e+00,   -7.600000e+01,   -6.487469e+00
   11576,   -1.975771e+00,   -7.600000e+01,   -7.050566e+00
   11577,   -5.713434e+00,   -8.000000e+01,   -2.015796e+00
   11578,   -7.639033e+00,   -8.000000e+01,   -2.024699e+00
   11579,   -3.835050e+00,   -8.000000e+01,   -2.141056e+00
   11580,   -1.907728e+00,   -8.000000e+01,   -2.295649e+00
   11581,   -5.521504e+00,   -8.000000e+01,   -3.990354e+00
   11582,   -7.208559e+00,   -8.000000e+01,   -3.898144e+00
   11583,   -3.758587e+00,   -8.000000e+01,   -4.291406e+00
   11584,   -1.904575e+00,   -8.000000e+01,   -4.642807e+00
   11585,   -5.539967e+00,   -8.000000e+01,   -5.836899e+00
   11586,   -6.830325e+00,   -8.000000e+01,   -5.307483e+00
   11587,   -3.870860e+00,   -8.000000e+01,   -6.487469e+00
   11588,   -1.975771e+00,   -8.000000e+01,   -7.050566e+00
   11589,   -4.000000e+01,    6.666670e+00,   -4.000000e+01
   11590,   -3.600000e+01,    6.666670e+00,   -4.000000e+01
   11591,   -3.200000e+01,    6.666670e+00,   -4.000000e+01
   11592,   -2.800000e+01,    6.666670e+00,   -4.000000e+01
   11593,   -2.400000e+01,    6.666670e+00,   -4.000000e+01
   11594,   -2.000000e+01,    6.666670e+00,   -4.000000e+01
   11595,   -1.600000e+01,    6.666670e+00,   -4.000000e+01
   11596,   -1.200000e+01,    6.666670e+00,   -4.000000e+01
   11597,   -8.000000e+00,    6.666670e+00,   -4.000000e+01
   11598,   -4.000000e+00,    6.666670e+00,   -4.000000e+01
   11599,   -4.000000e+01,    6.666670e+00,    0.000000e+00
   11600,   -4.000000e+01,    6.666670e+00,   -3.636364e+00
   11601,   -4.000000e+01,    6.666670e+00,   -7.272727e+00
   11602,   -4.000000e+01,    6.666670e+00,   -1.090909e+01
   11603,   -4.000000e+01,    6.666670e+00,   -1.454545e+01
   11604,   -4.000000e+01,    6.666670e+00,   -1.818182e+01
   11605,   -4.000000e+01,    6.666670e+00,   -2.181818e+01
   11606,   -4.000000e+01,    6.666670e+00,   -2.545455e+01
   11607,   -4.000000e+01,    6.666670e+00,   -2.909091e+01
   11608,   -4.000000e+01,    6.666670e+00,   -3.272727e+01
   11609,   -4.000000e+01,    6.666670e+00,   -3.636364e+01
   11610,   -1.900000e+01,    6.666670e+00,   -1.918613e-15
   11611,   -2.320000e+01,    6.666670e+00,    0.000000e+00
   11612,   -2.740000e+01,    6.666670e+00,    0.000000e+00
   11613,   -3.160000e+01,    6.666670e+00,    0.000000e+00
   11614,   -3.580000e+01,    6.666670e+00,    0.000000e+00
   11615,   -1.852363e+01,    6.666670e+00,   -4.227898e+00
   11616,   -1.711841e+01,    6.666670e+00,   -8.243791e+00
   11617,   -1.485480e+01,    6.666670e+00,   -1.184631e+01
   11618,   -1.184631e+01,    6.666670e+00,   -1.485480e+01
   11619,   -8.243791e+00,    6.666670e+00,   -1.711841e+01
   11620,   -4.227898e+00,    6.666670e+00,   -1.852363e+01
   11621,   -3.624367e+01,    6.666670e+00,   -3.639712e+01
   11622,   -3.644839e+01,    6.666670e+00,   -3.284509e+01
   11623,   -3.659695e+01,    6.666670e+00,   -2.936308e+01
   11624,   -3.656202e+01,    6.666670e+00,   -2.594283e+01
   11625,   -3.617658e+01,    6.666670e+00,   -2.254465e+01
   11626,   -3.594828e+01,    6.666670e+00,   -1.900366e+01
   11627,   -3.586157e+01,    6.666670e+00,   -1.535769e+01
   11628,   -3.584761e+01,    6.666670e+00,   -1.167305e+01
   11629,   -3.569397e+01,    6.666670e+00,   -7.919852e+00
   11630,   -3.572141e+01,    6.666670e+00,   -3.979377e+00
   11631,   -4.226933e+00,    6.666670e+00,   -3.560389e+01
   11632,   -8.452204e+00,    6.666670e+00,   -3.539948e+01
   11633,   -1.266405e+01,    6.666670e+00,   -3.525943e+01
   11634,   -1.683226e+01,    6.666670e+00,   -3.530468e+01
   11635,   -2.090966e+01,    6.666670e+00,   -3.552760e+01
   11636,   -2.485636e+01,    6.666670e+00,   -3.589053e+01
   11637,   -2.869912e+01,    6.666670e+00,   -3.621377e+01
   11638,   -3.247776e+01,    6.666670e+00,   -3.637076e+01
   11639,   -3.136268e+01,    6.666670e+00,   -4.395812e+00
   11640,   -2.689537e+01,    6.666670e+00,   -4.809782e+00
   11641,   -2.249871e+01,    6.666670e+00,   -4.662276e+00
   11642,   -4.525042e+00,    6.666670e+00,   -2.249863e+01
   11643,   -4.618936e+00,    6.666670e+00,   -2.679440e+01
   11644,   -4.435636e+00,    6.666670e+00,   -3.119820e+01
   11645,   -2.115943e+01,    6.666670e+00,   -9.318076e+00
   11646,   -1.872042e+01,    6.666670e+00,   -1.393936e+01
   11647,   -1.503012e+01,    6.666670e+00,   -1.919381e+01
   11648,   -9.227202e+00,    6.666670e+00,   -2.133649e+01
   11649,   -3.291354e+01,    6.666670e+00,   -3.286150e+01
   11650,   -3.328261e+01,    6.666670e+00,   -2.951481e+01
   11651,   -3.332395e+01,    6.666670e+00,   -2.641675e+01
   11652,   -3.256025e+01,    6.666670e+00,   -2.346026e+01
   11653,   -3.176743e+01,    6.666670e+00,   -1.996635e+01
   11654,   -3.180269e+01,    6.666670e+00,   -1.609635e+01
   11655,   -3.184121e+01,    6.666670e+00,   -1.239733e+01
   11656,   -3.127485e+01,    6.666670e+00,   -8.707388e+00
   11657,   -8.909690e+00,    6.666670e+00,   -3.075609e+01
   11658,   -1.334101e+01,    6.666670e+00,   -3.052266e+01
   11659,   -1.781626e+01,    6.666670e+00,   -3.055190e+01
   11660,   -2.200602e+01,    6.666670e+00,   -3.113023e+01
   11661,   -2.583863e+01,    6.666670e+00,   -3.189109e+01
   11662,   -2.940716e+01,    6.666670e+00,   -3.258760e+01
   11663,   -9.190593e+00,    6.666670e+00,   -2.612164e+01
   11664,   -2.615848e+01,    6.666670e+00,   -1.005785e+01
   11665,   -2.342587e+01,    6.666670e+00,   -1.524067e+01
   11666,   -2.103803e+01,    6.666670e+00,   -2.037391e+01
   11667,   -1.409902e+01,    6.666670e+00,   -2.543150e+01
   11668,   -1.902704e+01,    6.666670e+00,   -2.572735e+01
   11669,   -3.015961e+01,    6.666670e+00,   -2.927555e+01
   11670,   -3.090787e+01,    6.666670e+00,   -2.688673e+01
   11671,   -2.924004e+01,    6.666670e+00,   -2.496789e+01
   11672,   -2.658704e+01,    6.666670e+00,   -2.158465e+01
   11673,   -2.766011e+01,    6.666670e+00,   -1.643459e+01
   11674,   -2.852490e+01,    6.666670e+00,   -1.304440e+01
   11675,   -2.357939e+01,    6.666670e+00,   -2.662476e+01
   11676,   -2.719913e+01,    6.666670e+00,   -2.812816e+01
   11677,   -4.000000e+01,    2.000000e+01,   -4.000000e+01
   11678,   -4.000000e+01,    8.888892e+00,   -4.000000e+01
   11679,   -4.000000e+01,    1.111111e+01,   -4.000000e+01
   11680,   -4.000000e+01,    1.333333e+01,   -4.000000e+01
   11681,   -4.000000e+01,    1.555556e+01,   -4.000000e+01
   11682,   -4.000000e+01,    1.777778e+01,   -4.000000e+01
   11683,   -3.600000e+01,    2.000000e+01,   -4.000000e+01
   11684,   -3.200000e+01,    2.000000e+01,   -4.000000e+01
   11685,   -2.800000e+01,    2.000000e+01,   -4.000000e+01
   11686,   -2.400000e+01,    2.000000e+01,   -4.000000e+01
   11687,   -2.000000e+01,    2.000000e+01,   -4.000000e+01
   11688,   -1.600000e+01,    2.000000e+01,   -4.000000e+01
   11689,   -1.200000e+01,    2.000000e+01,   -4.000000e+01
   11690,   -8.000000e+00,    2.000000e+01,   -4.000000e+01
   11691,   -4.000000e+00,    2.000000e+01,   -4.000000e+01
   11692,   -4.000000e+00,    1.777778e+01,   -4.000000e+01
   11693,   -4.000000e+00,    1.555556e+01,   -4.000000e+01
   11694,   -4.000000e+00,    1.333333e+01,   -4.000000e+01
   11695,   -4.000000e+00,    1.111111e+01,   -4.000000e+01
   11696,   -4.000000e+00,    8.888892e+00,   -4.000000e+01
   11697,   -8.000000e+00,    1.777778e+01,   -4.000000e+01
   11698,   -8.000000e+00,    1.555556e+01,   -4.000000e+01
   11699,   -8.000000e+00,    1.333333e+01,   -4.000000e+01
   11700,   -8.000000e+00,    1.111111e+01,   -4.000000e+01
   11701,   -8.000000e+00,    8.888892e+00,   -4.000000e+01
   11702,   -1.200000e+01,    1.777778e+01,   -4.000000e+01
   11703,   -1.200000e+01,    1.555556e+01,   -4.000000e+01
   11704,   -1.200000e+01,    1.333333e+01,   -4.000000e+01
   11705,   -1.200000e+01,    1.111111e+01,   -4.000000e+01
   11706,   -1.200000e+01,    8.888892e+00,   -4.000000e+01
   11707,   -1.600000e+01,    1.777778e+01,   -4.000000e+01
   11708,   -1.600000e+01,    1.555556e+01,   -4.000000e+01
   11709,   -1.600000e+01,    1.333333e+01,   -4.000000e+01
   11710,   -1.600000e+01,    1.111111e+01,   -4.000000e+01
   11711,   -1.600000e+01,    8.888892e+00,   -4.000000e+01
   11712,   -2.000000e+01,    1.777778e+01,   -4.000000e+01
   11713,   -2.000000e+01,    1.555556e+01,   -4.000000e+01
   11714,   -2.000000e+01,    1.333333e+01,   -4.000000e+01
   11715,   -2.000000e+01,    1.111111e+01,   -4.000000e+01
   11716,   -2.000000e+01,    8.888892e+00,   -4.000000e+01
   11717,   -2.400000e+01,    1.777778e+01,   -4.000000e+01
   11718,   -2.400000e+01,    1.555556e+01,   -4.000000e+01
   11719,   -2.400000e+01,    1.333333e+01,   -4.000000e+01
   11720,   -2.400000e+01,    1.111111e+01,   -4.000000e+01
   11721,   -2.400000e+01,    8.888892e+00,   -4.000000e+01
   11722,   -2.800000e+01,    1.777778e+01,   -4.000000e+01
   11723,   -2.800000e+01,    1.555556e+01,   -4.000000e+01
   11724,   -2.800000e+01,    1.333333e+01,   -4.000000e+01
   11725,   -2.800000e+01,    1.111111e+01,   -4.000000e+01
   11726,   -2.800000e+01,    8.888892e+00,   -4.000000e+01
   11727,   -3.200000e+01,    1.777778e+01,   -4.000000e+01
   11728,   -3.200000e+01,    1.555556e+01,   -4.000000e+01
   11729,   -3.200000e+01,    1.333333e+01,   -4.000000e+01
   11730,   -3.200000e+01,    1.111111e+01,   -4.000000e+01
   11731,   -3.200000e+01,    8.888892e+00,   -4.000000e+01
   11732,   -3.600000e+01,    1.777778e+01,   -4.000000e+01
   11733,   -3.600000e+01,    1.555556e+01,   -4.000000e+01
   11734,   -3.600000e+01,    1.333333e+01,   -4.000000e+01
   11735,   -3.600000e+01,    1.111111e+01,   -4.000000e+01
   11736,   -3.600000e+01,    8.888892e+00,   -4.000000e+01
   11737,   -1.900000e+01,    2.000000e+01,   -1.102182e-15
   11738,   -1.900000e+01,    8.888892e+00,   -2.721437e-16
   11739,   -1.900000e+01,    1.111111e+01,   -1.360718e-16
   11740,   -1.900000e+01,    1.333333e+01,    0.000000e+00
   11741,   -1.900000e+01,    1.555556e+01,    1.360718e-16
   11742,   -1.900000e+01,    1.777778e+01,    2.721437e-16
   11743,   -4.000000e+01,    2.000000e+01,    0.000000e+00
   11744,   -2.320000e+01,    2.000000e+01,    0.000000e+00
   11745,   -2.740000e+01,    2.000000e+01,    0.000000e+00
   11746,   -3.160000e+01,    2.000000e+01,    0.000000e+00
   11747,   -3.580000e+01,    2.000000e+01,    0.000000e+00
   11748,   -4.000000e+01,    1.777778e+01,    0.000000e+00
   11749,   -4.000000e+01,    1.555556e+01,    0.000000e+00
   11750,   -4.000000e+01,    1.333333e+01,    0.000000e+00
   11751,   -4.000000e+01,    1.111111e+01,    0.000000e+00
   11752,   -4.000000e+01,    8.888892e+00,    0.000000e+00
   11753,   -2.320000e+01,    8.888892e+00,    0.000000e+00
   11754,   -2.320000e+01,    1.111111e+01,    0.000000e+00
   11755,   -2.320000e+01,    1.333334e+01,    0.000000e+00
   11756,   -2.320000e+01,    1.555556e+01,    0.000000e+00
   11757,   -2.320000e+01,    1.777778e+01,    0.000000e+00
   11758,   -2.740000e+01,    8.888892e+00,    0.000000e+00
   11759,   -2.740000e+01,    1.111111e+01,    0.000000e+00
   11760,   -2.740000e+01,    1.333333e+01,    0.000000e+00
   11761,   -2.740000e+01,    1.555556e+01,    0.000000e+00
   11762,   -2.740000e+01,    1.777778e+01,    0.000000e+00
   11763,   -3.160000e+01,    8.888892e+00,    0.000000e+00
   11764,   -3.160000e+01,    1.111111e+01,    0.000000e+00
   11765,   -3.160000e+01,    1.333333e+01,    0.000000e+00
   11766,   -3.160000e+01,    1.555556e+01,    0.000000e+00
   11767,   -3.160000e+01,    1.777778e+01,    0.000000e+00
   11768,   -3.580000e+01,    8.888892e+00,    0.000000e+00
   11769,   -3.580000e+01,    1.111111e+01,    0.000000e+00
   11770,   -3.580000e+01,    1.333333e+01,    0.000000e+00
   11771,   -3.580000e+01,    1.555556e+01,    0.000000e+00
   11772,   -3.580000e+01,    1.777778e+01,    0.000000e+00
   11773,   -1.852363e+01,    2.000000e+01,   -4.227898e+00
   11774,   -1.711841e+01,    2.000000e+01,   -8.243791e+00
   11775,   -1.485480e+01,    2.000000e+01,   -1.184631e+01
   11776,   -1.184631e+01,    2.000000e+01,   -1.485480e+01
   11777,   -8.243791e+00,    2.000000e+01,   -1.711841e+01
   11778,   -4.227898e+00,    2.000000e+01,   -1.852363e+01
   11779,   -4.227898e+00,    8.888892e+00,   -1.852363e+01
   11780,   -4.227898e+00,    1.111111e+01,   -1.852363e+01
   11781,   -4.227898e+00,    1.333333e+01,   -1.852363e+01
   11782,   -4.227898e+00,    1.555556e+01,   -1.852363e+01
   11783,   -4.227898e+00,    1.777778e+01,   -1.852363e+01
   11784,   -8.243791e+00,    8.888892e+00,   -1.711841e+01
   11785,   -8.243791e+00,    1.111111e+01,   -1.711841e+01
   11786,   -8.243791e+00,    1.333334e+01,   -1.711841e+01
   11787,   -8.243791e+00,    1.555556e+01,   -1.711841e+01
   11788,   -8.243791e+00,    1.777778e+01,   -1.711841e+01
   11789,   -1.184631e+01,    8.888892e+00,   -1.485480e+01
   11790,   -1.184631e+01,    1.111111e+01,   -1.485480e+01
   11791,   -1.184631e+01,    1.333334e+01,   -1.485480e+01
   11792,   -1.184631e+01,    1.555556e+01,   -1.485480e+01
   11793,   -1.184631e+01,    1.777778e+01,   -1.485480e+01
   11794,   -1.485480e+01,    8.888892e+00,   -1.184631e+01
   11795,   -1.485480e+01,    1.111111e+01,   -1.184631e+01
   11796,   -1.485480e+01,    1.333333e+01,   -1.184631e+01
   11797,   -1.485480e+01,    1.555556e+01,   -1.184631e+01
   11798,   -1.485480e+01,    1.777778e+01,   -1.184631e+01
   11799,   -1.711841e+01,    8.888892e+00,   -8.243791e+00
   11800,   -1.711841e+01,    1.111111e+01,   -8.243791e+00
   11801,   -1.711841e+01,    1.333333e+01,   -8.243791e+00
   11802,   -1.711841e+01,    1.555556e+01,   -8.243791e+00
   11803,   -1.711841e+01,    1.777778e+01,   -8.243791e+00
   11804,   -1.852363e+01,    8.888892e+00,   -4.227898e+00
   11805,   -1.852363e+01,    1.111111e+01,   -4.227898e+00
   11806,   -1.852363e+01,    1.333333e+01,   -4.227898e+00
   11807,   -1.852363e+01,    1.555556e+01,   -4.227898e+00
   11808,   -1.852363e+01,    1.777778e+01,   -4.227898e+00
   11809,   -4.000000e+01,    2.000000e+01,   -3.636364e+00
   11810,   -4.000000e+01,    2.000000e+01,   -7.272727e+00
   11811,   -4.000000e+01,    2.000000e+01,   -1.090909e+01
   11812,   -4.000000e+01,    2.000000e+01,   -1.454545e+01
   11813,   -4.000000e+01,    2.000000e+01,   -1.818182e+01
   11814,   -4.000000e+01,    2.000000e+01,   -2.181818e+01
   11815,   -4.000000e+01,    2.000000e+01,   -2.545455e+01
   11816,   -4.000000e+01,    2.000000e+01,   -2.909091e+01
   11817,   -4.000000e+01,    2.000000e+01,   -3.272727e+01
   11818,   -4.000000e+01,    2.000000e+01,   -3.636364e+01
   11819,   -4.000000e+01,    8.888892e+00,   -3.636364e+00
   11820,   -4.000000e+01,    1.111111e+01,   -3.636364e+00
   11821,   -4.000000e+01,    1.333333e+01,   -3.636364e+00
   11822,   -4.000000e+01,    1.555556e+01,   -3.636364e+00
   11823,   -4.000000e+01,    1.777778e+01,   -3.636364e+00
   11824,   -4.000000e+01,    8.888892e+00,   -7.272727e+00
   11825,   -4.000000e+01,    1.111111e+01,   -7.272727e+00
   11826,   -4.000000e+01,    1.333333e+01,   -7.272727e+00
   11827,   -4.000000e+01,    1.555556e+01,   -7.272727e+00
   11828,   -4.000000e+01,    1.777778e+01,   -7.272727e+00
   11829,   -4.000000e+01,    8.888892e+00,   -1.090909e+01
   11830,   -4.000000e+01,    1.111111e+01,   -1.090909e+01
   11831,   -4.000000e+01,    1.333333e+01,   -1.090909e+01
   11832,   -4.000000e+01,    1.555556e+01,   -1.090909e+01
   11833,   -4.000000e+01,    1.777778e+01,   -1.090909e+01
   11834,   -4.000000e+01,    8.888892e+00,   -1.454545e+01
   11835,   -4.000000e+01,    1.111111e+01,   -1.454545e+01
   11836,   -4.000000e+01,    1.333333e+01,   -1.454545e+01
   11837,   -4.000000e+01,    1.555556e+01,   -1.454545e+01
   11838,   -4.000000e+01,    1.777778e+01,   -1.454545e+01
   11839,   -4.000000e+01,    8.888892e+00,   -1.818182e+01
   11840,   -4.000000e+01,    1.111111e+01,   -1.818182e+01
   11841,   -4.000000e+01,    1.333334e+01,   -1.818182e+01
   11842,   -4.000000e+01,    1.555556e+01,   -1.818182e+01
   11843,   -4.000000e+01,    1.777778e+01,   -1.818182e+01
   11844,   -4.000000e+01,    8.888892e+00,   -2.181818e+01
   11845,   -4.000000e+01,    1.111111e+01,   -2.181818e+01
   11846,   -4.000000e+01,    1.333333e+01,   -2.181818e+01
   11847,   -4.000000e+01,    1.555556e+01,   -2.181818e+01
   11848,   -4.000000e+01,    1.777778e+01,   -2.181818e+01
   11849,   -4.000000e+01,    8.888892e+00,   -2.545455e+01
   11850,   -4.000000e+01,    1.111111e+01,   -2.545455e+01
   11851,   -4.000000e+01,    1.333333e+01,   -2.545455e+01
   11852,   -4.000000e+01,    1.555556e+01,   -2.545455e+01
   11853,   -4.000000e+01,    1.777778e+01,   -2.545455e+01
   11854,   -4.000000e+01,    8.888892e+00,   -2.909091e+01
   11855,   -4.000000e+01,    1.111111e+01,   -2.909091e+01
   11856,   -4.000000e+01,    1.333333e+01,   -2.909091e+01
   11857,   -4.000000e+01,    1.555556e+01,   -2.909091e+01
   11858,   -4.000000e+01,    1.777778e+01,   -2.909091e+01
   11859,   -4.000000e+01,    8.888892e+00,   -3.272727e+01
   11860,   -4.000000e+01,    1.111111e+01,   -3.272727e+01
   11861,   -4.000000e+01,    1.333333e+01,   -3.272727e+01
   11862,   -4.000000e+01,    1.555556e+01,   -3.272727e+01
   11863,   -4.000000e+01,    1.777778e+01,   -3.272727e+01
   11864,   -4.000000e+01,    8.888892e+00,   -3.636364e+01
   11865,   -4.000000e+01,    1.111111e+01,   -3.636364e+01
   11866,   -4.000000e+01,    1.333333e+01,   -3.636364e+01
   11867,   -4.000000e+01,    1.555556e+01,   -3.636364e+01
   11868,   -4.000000e+01,    1.777778e+01,   -3.636364e+01
   11869,   -3.624367e+01,    8.888892e+00,   -3.639712e+01
   11870,   -3.644839e+01,    8.888892e+00,   -3.284509e+01
   11871,   -3.659695e+01,    8.888892e+00,   -2.936308e+01
   11872,   -3.656202e+01,    8.888892e+00,   -2.594283e+01
   11873,   -3.617658e+01,    8.888892e+00,   -2.254465e+01
   11874,   -3.594828e+01,    8.888892e+00,   -1.900366e+01
   11875,   -3.586157e+01,    8.888892e+00,   -1.535769e+01
   11876,   -3.584761e+01,    8.888892e+00,   -1.167305e+01
   11877,   -3.569397e+01,    8.888892e+00,   -7.919852e+00
   11878,   -3.572141e+01,    8.888892e+00,   -3.979377e+00
   11879,   -4.226933e+00,    8.888892e+00,   -3.560389e+01
   11880,   -8.452204e+00,    8.888892e+00,   -3.539948e+01
   11881,   -1.266405e+01,    8.888892e+00,   -3.525943e+01
   11882,   -1.683226e+01,    8.888892e+00,   -3.530468e+01
   11883,   -2.090966e+01,    8.888892e+00,   -3.552760e+01
   11884,   -2.485636e+01,    8.888892e+00,   -3.589053e+01
   11885,   -2.869912e+01,    8.888892e+00,   -3.621377e+01
   11886,   -3.247776e+01,    8.888892e+00,   -3.637076e+01
   11887,   -3.136268e+01,    8.888892e+00,   -4.395812e+00
   11888,   -2.689537e+01,    8.888892e+00,   -4.809782e+00
   11889,   -2.249871e+01,    8.888892e+00,   -4.662276e+00
   11890,   -4.525042e+00,    8.888892e+00,   -2.249863e+01
   11891,   -4.618936e+00,    8.888892e+00,   -2.679440e+01
   11892,   -4.435636e+00,    8.888892e+00,   -3.119820e+01
   11893,   -2.115943e+01,    8.888892e+00,   -9.318076e+00
   11894,   -1.872042e+01,    8.888892e+00,   -1.393936e+01
   11895,   -1.503012e+01,    8.888892e+00,   -1.919381e+01
   11896,   -9.227202e+00,    8.888892e+00,   -2.133649e+01
   11897,   -3.291354e+01,    8.888892e+00,   -3.286150e+01
   11898,   -3.328261e+01,    8.888892e+00,   -2.951481e+01
   11899,   -3.332395e+01,    8.888892e+00,   -2.641675e+01
   11900,   -3.256025e+01,    8.888892e+00,   -2.346026e+01
   11901,   -3.176743e+01,    8.888892e+00,   -1.996635e+01
   11902,   -3.180269e+01,    8.888892e+00,   -1.609635e+01
   11903,   -3.184121e+01,    8.888892e+00,   -1.239733e+01
   11904,   -3.127485e+01,    8.888892e+00,   -8.707388e+00
   11905,   -8.909690e+00,    8.888892e+00,   -3.075609e+01
   11906,   -1.334101e+01,    8.888892e+00,   -3.052266e+01
   11907,   -1.781626e+01,    8.888892e+00,   -3.055190e+01
   11908,   -2.200602e+01,    8.888892e+00,   -3.113023e+01
   11909,   -2.583863e+01,    8.888892e+00,   -3.189109e+01
   11910,   -2.940716e+01,    8.888892e+00,   -3.258760e+01
   11911,   -9.190593e+00,    8.888892e+00,   -2.612164e+01
   11912,   -2.615848e+01,    8.888892e+00,   -1.005785e+01
   11913,   -2.342587e+01,    8.888892e+00,   -1.524067e+01
   11914,   -2.103803e+01,    8.888892e+00,   -2.037391e+01
   11915,   -1.409902e+01,    8.888892e+00,   -2.543150e+01
   11916,   -1.902704e+01,    8.888892e+00,   -2.572735e+01
   11917,   -3.015961e+01,    8.888892e+00,   -2.927555e+01
   11918,   -3.090787e+01,    8.888892e+00,   -2.688673e+01
   11919,   -2.924004e+01,    8.888892e+00,   -2.496789e+01
   11920,   -2.658704e+01,    8.888892e+00,   -2.158465e+01
   11921,   -2.766011e+01,    8.888892e+00,   -1.643459e+01
   11922,   -2.852490e+01,    8.888892e+00,   -1.304440e+01
   11923,   -2.357939e+01,    8.888892e+00,   -2.662476e+01
   11924,   -2.719913e+01,    8.888892e+00,   -2.812816e+01
   11925,   -3.624367e+01,    1.111111e+01,   -3.639712e+01
   11926,   -3.644839e+01,    1.111111e+01,   -3.284509e+01
   11927,   -3.659695e+01,    1.111111e+01,   -2.936308e+01
   11928,   -3.656202e+01,    1.111111e+01,   -2.594283e+01
   11929,   -3.617658e+01,    1.111111e+01,   -2.254465e+01
   11930,   -3.594828e+01,    1.111111e+01,   -1.900366e+01
   11931,   -3.586157e+01,    1.111111e+01,   -1.535769e+01
   11932,   -3.584761e+01,    1.111111e+01,   -1.167305e+01
   11933,   -3.569397e+01,    1.111111e+01,   -7.919852e+00
   11934,   -3.572141e+01,    1.111111e+01,   -3.979377e+00
   11935,   -4.226933e+00,    1.111111e+01,   -3.560389e+01
   11936,   -8.452204e+00,    1.111111e+01,   -3.539948e+01
   11937,   -1.266405e+01,    1.111111e+01,   -3.525943e+01
   11938,   -1.683226e+01,    1.111111e+01,   -3.530468e+01
   11939,   -2.090966e+01,    1.111111e+01,   -3.552760e+01
   11940,   -2.485636e+01,    1.111111e+01,   -3.589053e+01
   11941,   -2.869912e+01,    1.111111e+01,   -3.621377e+01
   11942,   -3.247776e+01,    1.111111e+01,   -3.637076e+01
   11943,   -3.136268e+01,    1.111111e+01,   -4.395812e+00
   11944,   -2.689537e+01,    1.111111e+01,   -4.809782e+00
   11945,   -2.249871e+01,    1.111111e+01,   -4.662276e+00
   11946,   -4.525042e+00,    1.111111e+01,   -2.249863e+01
   11947,   -4.618936e+00,    1.111111e+01,   -2.679440e+01
   11948,   -4.435636e+00,    1.111111e+01,   -3.119820e+01
   11949,   -2.115943e+01,    1.111111e+01,   -9.318076e+00
   11950,   -1.872042e+01,    1.111111e+01,   -1.393936e+01
   11951,   -1.503012e+01,    1.111111e+01,   -1.919381e+01
   11952,   -9.227202e+00,    1.111111e+01,   -2.133649e+01
   11953,   -3.291354e+01,    1.111111e+01,   -3.286150e+01
   11954,   -3.328261e+01,    1.111111e+01,   -2.951481e+01
   11955,   -3.332395e+01,    1.111111e+01,   -2.641675e+01
   11956,   -3.256025e+01,    1.111111e+01,   -2.346026e+01
   11957,   -3.176743e+01,    1.111111e+01,   -1.996635e+01
   11958,   -3.180269e+01,    1.111111e+01,   -1.609635e+01
   11959,   -3.184121e+01,    1.111111e+01,   -1.239733e+01
   11960,   -3.127485e+01,    1.111111e+01,   -8.707388e+00
   11961,   -8.909690e+00,    1.111111e+01,   -3.075609e+01
   11962,   -1.334101e+01,    1.111111e+01,   -3.052266e+01
   11963,   -1.781626e+01,    1.111111e+01,   -3.055190e+01
   11964,   -2.200602e+01,    1.111111e+01,   -3.113023e+01
   11965,   -2.583863e+01,    1.111111e+01,   -3.189109e+01
   11966,   -2.940716e+01,    1.111111e+01,   -3.258760e+01
   11967,   -9.190593e+00,    1.111111e+01,   -2.612164e+01
   11968,   -2.615848e+01,    1.111111e+01,   -1.005785e+01
   11969,   -2.342587e+01,    1.111111e+01,   -1.524067e+01
   11970,   -2.103803e+01,    1.111111e+01,   -2.037391e+01
   11971,   -1.409902e+01,    1.111111e+01,   -2.543150e+01
   11972,   -1.902704e+01,    1.111111e+01,   -2.572735e+01
   11973,   -3.015961e+01,    1.111111e+01,   -2.927555e+01
   11974,   -3.090787e+01,    1.111111e+01,   -2.688673e+01
   11975,   -2.924004e+01,    1.111111e+01,   -2.496789e+01
   11976,   -2.658704e+01,    1.111111e+01,   -2.158465e+01
   11977,   -2.766011e+01,    1.111111e+01,   -1.643459e+01
   11978,   -2.852490e+01,    1.111111e+01,   -1.304440e+01
   11979,   -2.357939e+01,    1.111111e+01,   -2.662476e+01
   11980,   -2.719913e+01,    1.111111e+01,   -2.812816e+01
   11981,   -3.624367e+01,    1.333333e+01,   -3.639712e+01
   11982,   -3.644839e+01,    1.333333e+01,   -3.284509e+01
   11983,   -3.659695e+01,    1.333333e+01,   -2.936308e+01
   11984,   -3.656202e+01,    1.333333e+01,   -2.594283e+01
   11985,   -3.617658e+01,    1.333333e+01,   -2.254465e+01
   11986,   -3.594828e+01,    1.333333e+01,   -1.900366e+01
   11987,   -3.586157e+01,    1.333333e+01,   -1.535769e+01
   11988,   -3.584761e+01,    1.333333e+01,   -1.167305e+01
   11989,   -3.569397e+01,    1.333333e+01,   -7.919852e+00
   11990,   -3.572141e+01,    1.333333e+01,   -3.979377e+00
   11991,   -4.226933e+00,    1.333333e+01,   -3.560389e+01
   11992,   -8.452204e+00,    1.333333e+01,   -3.539948e+01
   11993,   -1.266405e+01,    1.333333e+01,   -3.525943e+01
   11994,   -1.683226e+01,    1.333333e+01,   -3.530468e+01
   11995,   -2.090966e+01,    1.333333e+01,   -3.552760e+01
   11996,   -2.485636e+01,    1.333333e+01,   -3.589053e+01
   11997,   -2.869912e+01,    1.333333e+01,   -3.621377e+01
   11998,   -3.247776e+01,    1.333333e+01,   -3.637076e+01
   11999,   -3.136268e+01,    1.333333e+01,   -4.395812e+00
   12000,   -2.689537e+01,    1.333333e+01,   -4.809782e+00
   12001,   -2.249871e+01,    1.333333e+01,   -4.662276e+00
   12002,   -4.525042e+00,    1.333333e+01,   -2.249863e+01
   12003,   -4.618936e+00,    1.333333e+01,   -2.679440e+01
   12004,   -4.435636e+00,    1.333333e+01,   -3.119820e+01
   12005,   -2.115943e+01,    1.333333e+01,   -9.318076e+00
   12006,   -1.872042e+01,    1.333333e+01,   -1.393936e+01
   12007,   -1.503012e+01,    1.333333e+01,   -1.919381e+01
   12008,   -9.227202e+00,    1.333333e+01,   -2.133649e+01
   12009,   -3.291354e+01,    1.333333e+01,   -3.286150e+01
   12010,   -3.328261e+01,    1.333333e+01,   -2.951481e+01
   12011,   -3.332395e+01,    1.333333e+01,   -2.641675e+01
   12012,   -3.256025e+01,    1.333333e+01,   -2.346026e+01
   12013,   -3.176743e+01,    1.333333e+01,   -1.996635e+01
   12014,   -3.180269e+01,    1.333333e+01,   -1.609635e+01
   12015,   -3.184121e+01,    1.333333e+01,   -1.239733e+01
   12016,   -3.127485e+01,    1.333333e+01,   -8.707388e+00
   12017,   -8.909690e+00,    1.333333e+01,   -3.075609e+01
   12018,   -1.334101e+01,    1.333333e+01,   -3.052266e+01
   12019,   -1.781626e+01,    1.333333e+01,   -3.055190e+01
   12020,   -2.200602e+01,    1.333333e+01,   -3.113023e+01
   12021,   -2.583863e+01,    1.333333e+01,   -3.189109e+01
   12022,   -2.940716e+01,    1.333333e+01,   -3.258760e+01
   12023,   -9.190593e+00,    1.333333e+01,   -2.612164e+01
   12024,   -2.615848e+01,    1.333333e+01,   -1.005785e+01
   12025,   -2.342587e+01,    1.333333e+01,   -1.524067e+01
   12026,   -2.103803e+01,    1.333333e+01,   -2.037391e+01
   12027,   -1.409902e+01,    1.333333e+01,   -2.543150e+01
   12028,   -1.902704e+01,    1.333333e+01,   -2.572735e+01
   12029,   -3.015961e+01,    1.333333e+01,   -2.927555e+01
   12030,   -3.090787e+01,    1.333333e+01,   -2.688673e+01
   12031,   -2.924004e+01,    1.333333e+01,   -2.496789e+01
   12032,   -2.658704e+01,    1.333333e+01,   -2.158465e+01
   12033,   -2.766011e+01,    1.333333e+01,   -1.643459e+01
   12034,   -2.852490e+01,    1.333333e+01,   -1.304440e+01
   12035,   -2.357939e+01,    1.333333e+01,   -2.662476e+01
   12036,   -2.719913e+01,    1.333333e+01,   -2.812816e+01
   12037,   -3.624367e+01,    1.555556e+01,   -3.639712e+01
   12038,   -3.644839e+01,    1.555556e+01,   -3.284509e+01
   12039,   -3.659695e+01,    1.555556e+01,   -2.936308e+01
   12040,   -3.656202e+01,    1.555556e+01,   -2.594283e+01
   12041,   -3.617658e+01,    1.555556e+01,   -2.254465e+01
   12042,   -3.594828e+01,    1.555556e+01,   -1.900366e+01
   12043,   -3.586157e+01,    1.555556e+01,   -1.535769e+01
   12044,   -3.584761e+01,    1.555556e+01,   -1.167305e+01
   12045,   -3.569397e+01,    1.555556e+01,   -7.919852e+00
   12046,   -3.572141e+01,    1.555556e+01,   -3.979377e+00
   12047,   -4.226933e+00,    1.555556e+01,   -3.560389e+01
   12048,   -8.452204e+00,    1.555556e+01,   -3.539948e+01
   12049,   -1.266405e+01,    1.555556e+01,   -3.525943e+01
   12050,   -1.683226e+01,    1.555556e+01,   -3.530468e+01
   12051,   -2.090966e+01,    1.555556e+01,   -3.552760e+01
   12052,   -2.485636e+01,    1.555556e+01,   -3.589053e+01
   12053,   -2.869912e+01,    1.555556e+01,   -3.621377e+01
   12054,   -3.247776e+01,    1.555556e+01,   -3.637076e+01
   12055,   -3.136268e+01,    1.555556e+01,   -4.395812e+00
   12056,   -2.689537e+01,    1.555556e+01,   -4.809782e+00
   12057,   -2.249871e+01,    1.555556e+01,   -4.662276e+00
   12058,   -4.525042e+00,    1.555556e+01,   -2.249863e+01
   12059,   -4.618936e+00,    1.555556e+01,   -2.679440e+01
   12060,   -4.435636e+00,    1.555556e+01,   -3.119820e+01
   12061,   -2.115943e+01,    1.555556e+01,   -9.318076e+00
   12062,   -1.872042e+01,    1.555556e+01,   -1.393936e+01
   12063,   -1.503012e+01,    1.555556e+01,   -1.919381e+01
   12064,   -9.227202e+00,    1.555556e+01,   -2.133649e+01
   12065,   -3.291354e+01,    1.555556e+01,   -3.286150e+01
   12066,   -3.328261e+01,    1.555556e+01,   -2.951481e+01
   12067,   -3.332395e+01,    1.555556e+01,   -2.641675e+01
   12068,   -3.256025e+01,    1.555556e+01,   -2.346026e+01
   12069,   -3.176743e+01,    1.555556e+01,   -1.996635e+01
   12070,   -3.180269e+01,    1.555556e+01,   -1.609635e+01
   12071,   -3.184121e+01,    1.555556e+01,   -1.239733e+01
   12072,   -3.127485e+01,    1.555556e+01,   -8.707388e+00
   12073,   -8.909690e+00,    1.555556e+01,   -3.075609e+01
   12074,   -1.334101e+01,    1.555556e+01,   -3.052266e+01
   12075,   -1.781626e+01,    1.555556e+01,   -3.055190e+01
   12076,   -2.200602e+01,    1.555556e+01,   -3.113023e+01
   12077,   -2.583863e+01,    1.555556e+01,   -3.189109e+01
   12078,   -2.940716e+01,    1.555556e+01,   -3.258760e+01
   12079,   -9.190593e+00,    1.555556e+01,   -2.612164e+01
   12080,   -2.615848e+01,    1.555556e+01,   -1.005785e+01
   12081,   -2.342587e+01,    1.555556e+01,   -1.524067e+01
   12082,   -2.103803e+01,    1.555556e+01,   -2.037391e+01
   12083,   -1.409902e+01,    1.555556e+01,   -2.543150e+01
   12084,   -1.902704e+01,    1.555556e+01,   -2.572735e+01
   12085,   -3.015961e+01,    1.555556e+01,   -2.927555e+01
   12086,   -3.090787e+01,    1.555556e+01,   -2.688673e+01
   12087,   -2.924004e+01,    1.555556e+01,   -2.496789e+01
   12088,   -2.658704e+01,    1.555556e+01,   -2.158465e+01
   12089,   -2.766011e+01,    1.555556e+01,   -1.643459e+01
   12090,   -2.852490e+01,    1.555556e+01,   -1.304440e+01
   12091,   -2.357939e+01,    1.555556e+01,   -2.662476e+01
   12092,   -2.719913e+01,    1.555556e+01,   -2.812816e+01
   12093,   -3.624367e+01,    1.777778e+01,   -3.639712e+01
   12094,   -3.644839e+01,    1.777778e+01,   -3.284509e+01
   12095,   -3.659695e+01,    1.777778e+01,   -2.936308e+01
   12096,   -3.656202e+01,    1.777778e+01,   -2.594283e+01
   12097,   -3.617658e+01,    1.777778e+01,   -2.254465e+01
   12098,   -3.594828e+01,    1.777778e+01,   -1.900366e+01
   12099,   -3.586157e+01,    1.777778e+01,   -1.535769e+01
   12100,   -3.584761e+01,    1.777778e+01,   -1.167305e+01
   12101,   -3.569397e+01,    1.777778e+01,   -7.919852e+00
   12102,   -3.572141e+01,    1.777778e+01,   -3.979377e+00
   12103,   -4.226933e+00,    1.777778e+01,   -3.560389e+01
   12104,   -8.452204e+00,    1.777778e+01,   -3.539948e+01
   12105,   -1.266405e+01,    1.777778e+01,   -3.525943e+01
   12106,   -1.683226e+01,    1.777778e+01,   -3.530468e+01
   12107,   -2.090966e+01,    1.777778e+01,   -3.552760e+01
   12108,   -2.485636e+01,    1.777778e+01,   -3.589053e+01
   12109,   -2.869912e+01,    1.777778e+01,   -3.621377e+01
   12110,   -3.247776e+01,    1.777778e+01,   -3.637076e+01
   12111,   -3.136268e+01,    1.777778e+01,   -4.395812e+00
   12112,   -2.689537e+01,    1.777778e+01,   -4.809782e+00
   12113,   -2.249871e+01,    1.777778e+01,   -4.662276e+00
   12114,   -4.525042e+00,    1.777778e+01,   -2.249863e+01
   12115,   -4.618936e+00,    1.777778e+01,   -2.679440e+01
   12116,   -4.435636e+00,    1.777778e+01,   -3.119820e+01
   12117,   -2.115943e+01,    1.777778e+01,   -9.318076e+00
   12118,   -1.872042e+01,    1.777778e+01,   -1.393936e+01
   12119,   -1.503012e+01,    1.777778e+01,   -1.919381e+01
   12120,   -9.227202e+00,    1.777778e+01,   -2.133649e+01
   12121,   -3.291354e+01,    1.777778e+01,   -3.286150e+01
   12122,   -3.328261e+01,    1.777778e+01,   -2.951481e+01
   12123,   -3.332395e+01,    1.777778e+01,   -2.641675e+01
   12124,   -3.256025e+01,    1.777778e+01,   -2.346026e+01
   12125,   -3.176743e+01,    1.777778e+01,   -1.996635e+01
   12126,   -3.180269e+01,    1.777778e+01,   -1.609635e+01
   12127,   -3.184121e+01,    1.777778e+01,   -1.239733e+01
   12128,   -3.127485e+01,    1.777778e+01,   -8.707388e+00
   12129,   -8.909690e+00,    1.777778e+01,   -3.075609e+01
   12130,   -1.334101e+01,    1.777778e+01,   -3.052266e+01
   12131,   -1.781626e+01,    1.777778e+01,   -3.055190e+01
   12132,   -2.200602e+01,    1.777778e+01,   -3.113023e+01
   12133,   -2.583863e+01,    1.777778e+01,   -3.189109e+01
   12134,   -2.940716e+01,    1.777778e+01,   -3.258760e+01
   12135,   -9.190593e+00,    1.777778e+01,   -2.612164e+01
   12136,   -2.615848e+01,    1.777778e+01,   -1.005785e+01
   12137,   -2.342587e+01,    1.777778e+01,   -1.524067e+01
   12138,   -2.103803e+01,    1.777778e+01,   -2.037391e+01
   12139,   -1.409902e+01,    1.777778e+01,   -2.543150e+01
   12140,   -1.902704e+01,    1.777778e+01,   -2.572735e+01
   12141,   -3.015961e+01,    1.777778e+01,   -2.927555e+01
   12142,   -3.090787e+01,    1.777778e+01,   -2.688673e+01
   12143,   -2.924004e+01,    1.777778e+01,   -2.496789e+01
   12144,   -2.658704e+01,    1.777778e+01,   -2.158465e+01
   12145,   -2.766011e+01,    1.777778e+01,   -1.643459e+01
   12146,   -2.852490e+01,    1.777778e+01,   -1.304440e+01
   12147,   -2.357939e+01,    1.777778e+01,   -2.662476e+01
   12148,   -2.719913e+01,    1.777778e+01,   -2.812816e+01
   12149,   -3.624367e+01,    2.000000e+01,   -3.639712e+01
   12150,   -3.644839e+01,    2.000000e+01,   -3.284509e+01
   12151,   -3.659695e+01,    2.000000e+01,   -2.936308e+01
   12152,   -3.656202e+01,    2.000000e+01,   -2.594283e+01
   12153,   -3.617658e+01,    2.000000e+01,   -2.254465e+01
   12154,   -3.594828e+01,    2.000000e+01,   -1.900366e+01
   12155,   -3.586157e+01,    2.000000e+01,   -1.535769e+01
   12156,   -3.584761e+01,    2.000000e+01,   -1.167305e+01
   12157,   -3.569397e+01,    2.000000e+01,   -7.919852e+00
   12158,   -3.572141e+01,    2.000000e+01,   -3.979377e+00
   12159,   -4.226933e+00,    2.000000e+01,   -3.560389e+01
   12160,   -8.452204e+00,    2.000000e+01,   -3.539948e+01
   12161,   -1.266405e+01,    2.000000e+01,   -3.525943e+01
   12162,   -1.683226e+01,    2.000000e+01,   -3.530468e+01
   12163,   -2.090966e+01,    2.000000e+01,   -3.552760e+01
   12164,   -2.485636e+01,    2.000000e+01,   -3.589053e+01
   12165,   -2.869912e+01,    2.000000e+01,   -3.621377e+01
   12166,   -3.247776e+01,    2.000000e+01,   -3.637076e+01
   12167,   -3.136268e+01,    2.000000e+01,   -4.395812e+00
   12168,   -2.689537e+01,    2.000000e+01,   -4.809782e+00
   12169,   -2.249871e+01,    2.000000e+01,   -4.662276e+00
   12170,   -4.525042e+00,    2.000000e+01,   -2.249863e+01
   12171,   -4.618936e+00,    2.000000e+01,   -2.679440e+01
   12172,   -4.435636e+00,    2.000000e+01,   -3.119820e+01
   12173,   -2.115943e+01,    2.000000e+01,   -9.318076e+00
   12174,   -1.872042e+01,    2.000000e+01,   -1.393936e+01
   12175,   -1.503012e+01,    2.000000e+01,   -1.919381e+01
   12176,   -9.227202e+00,    2.000000e+01,   -2.133649e+01
   12177,   -3.291354e+01,    2.000000e+01,   -3.286150e+01
   12178,   -3.328261e+01,    2.000000e+01,   -2.951481e+01
   12179,   -3.332395e+01,    2.000000e+01,   -2.641675e+01
   12180,   -3.256025e+01,    2.000000e+01,   -2.346026e+01
   12181,   -3.176743e+01,    2.000000e+01,   -1.996635e+01
   12182,   -3.180269e+01,    2.000000e+01,   -1.609635e+01
   12183,   -3.184121e+01,    2.000000e+01,   -1.239733e+01
   12184,   -3.127485e+01,    2.000000e+01,   -8.707388e+00
   12185,   -8.909690e+00,    2.000000e+01,   -3.075609e+01
   12186,   -1.334101e+01,    2.000000e+01,   -3.052266e+01
   12187,   -1.781626e+01,    2.000000e+01,   -3.055190e+01
   12188,   -2.200602e+01,    2.000000e+01,   -3.113023e+01
   12189,   -2.583863e+01,    2.000000e+01,   -3.189109e+01
   12190,   -2.940716e+01,    2.000000e+01,   -3.258760e+01
   12191,   -9.190593e+00,    2.000000e+01,   -2.612164e+01
   12192,   -2.615848e+01,    2.000000e+01,   -1.005785e+01
   12193,   -2.342587e+01,    2.000000e+01,   -1.524067e+01
   12194,   -2.103803e+01,    2.000000e+01,   -2.037391e+01
   12195,   -1.409902e+01,    2.000000e+01,   -2.543150e+01
   12196,   -1.902704e+01,    2.000000e+01,   -2.572735e+01
   12197,   -3.015961e+01,    2.000000e+01,   -2.927555e+01
   12198,   -3.090787e+01,    2.000000e+01,   -2.688673e+01
   12199,   -2.924004e+01,    2.000000e+01,   -2.496789e+01
   12200,   -2.658704e+01,    2.000000e+01,   -2.158465e+01
   12201,   -2.766011e+01,    2.000000e+01,   -1.643459e+01
   12202,   -2.852490e+01,    2.000000e+01,   -1.304440e+01
   12203,   -2.357939e+01,    2.000000e+01,   -2.662476e+01
   12204,   -2.719913e+01,    2.000000e+01,   -2.812816e+01
   12205,   -4.000000e+01,    0.000000e+00,   -4.000000e+01
   12206,   -4.000000e+00,    0.000000e+00,   -4.000000e+01
   12207,   -8.000000e+00,    0.000000e+00,   -4.000000e+01
   12208,   -1.200000e+01,    0.000000e+00,   -4.000000e+01
   12209,   -1.600000e+01,    0.000000e+00,   -4.000000e+01
   12210,   -2.000000e+01,    0.000000e+00,   -4.000000e+01
   12211,   -2.400000e+01,    0.000000e+00,   -4.000000e+01
   12212,   -2.800000e+01,    0.000000e+00,   -4.000000e+01
   12213,   -3.200000e+01,    0.000000e+00,   -4.000000e+01
   12214,   -3.600000e+01,    0.000000e+00,   -4.000000e+01
   12215,   -4.000000e+01,    2.222223e+00,   -4.000000e+01
   12216,   -4.000000e+01,    4.444447e+00,   -4.000000e+01
   12217,   -4.000000e+00,    4.444447e+00,   -4.000000e+01
   12218,   -4.000000e+00,    2.222223e+00,   -4.000000e+01
   12219,   -8.000000e+00,    4.444447e+00,   -4.000000e+01
   12220,   -8.000000e+00,    2.222223e+00,   -4.000000e+01
   12221,   -1.200000e+01,    4.444447e+00,   -4.000000e+01
   12222,   -1.200000e+01,    2.222223e+00,   -4.000000e+01
   12223,   -1.600000e+01,    4.444447e+00,   -4.000000e+01
   12224,   -1.600000e+01,    2.222223e+00,   -4.000000e+01
   12225,   -2.000000e+01,    4.444447e+00,   -4.000000e+01
   12226,   -2.000000e+01,    2.222223e+00,   -4.000000e+01
   12227,   -2.400000e+01,    4.444447e+00,   -4.000000e+01
   12228,   -2.400000e+01,    2.222223e+00,   -4.000000e+01
   12229,   -2.800000e+01,    4.444447e+00,   -4.000000e+01
   12230,   -2.800000e+01,    2.222223e+00,   -4.000000e+01
   12231,   -3.200000e+01,    4.444447e+00,   -4.000000e+01
   12232,   -3.200000e+01,    2.222223e+00,   -4.000000e+01
   12233,   -3.600000e+01,    4.444447e+00,   -4.000000e+01
   12234,   -3.600000e+01,    2.222223e+00,   -4.000000e+01
   12235,   -1.900000e+01,    0.000000e+00,    2.326829e-15
   12236,   -1.900000e+01,    2.222223e+00,    1.360719e-16
   12237,   -1.900000e+01,    4.444447e+00,    2.721439e-16
   12238,   -4.000000e+01,    0.000000e+00,    0.000000e+00
   12239,   -4.000000e+01,    4.444447e+00,    0.000000e+00
   12240,   -4.000000e+01,    2.222223e+00,    0.000000e+00
   12241,   -3.580000e+01,    0.000000e+00,    0.000000e+00
   12242,   -3.160000e+01,    0.000000e+00,    0.000000e+00
   12243,   -2.740000e+01,    0.000000e+00,    0.000000e+00
   12244,   -2.320000e+01,    0.000000e+00,    0.000000e+00
   12245,   -2.320000e+01,    2.222223e+00,    0.000000e+00
   12246,   -2.320000e+01,    4.444447e+00,    0.000000e+00
   12247,   -2.740000e+01,    2.222223e+00,    0.000000e+00
   12248,   -2.740000e+01,    4.444447e+00,    0.000000e+00
   12249,   -3.160000e+01,    2.222223e+00,    0.000000e+00
   12250,   -3.160000e+01,    4.444447e+00,    0.000000e+00
   12251,   -3.580000e+01,    2.222223e+00,    0.000000e+00
   12252,   -3.580000e+01,    4.444447e+00,    0.000000e+00
   12253,   -4.227898e+00,    0.000000e+00,   -1.852363e+01
   12254,   -8.243791e+00,    0.000000e+00,   -1.711841e+01
   12255,   -1.184631e+01,    0.000000e+00,   -1.485480e+01
   12256,   -1.485480e+01,    0.000000e+00,   -1.184631e+01
   12257,   -1.711841e+01,    0.000000e+00,   -8.243791e+00
   12258,   -1.852363e+01,    0.000000e+00,   -4.227898e+00
   12259,   -4.227898e+00,    2.222223e+00,   -1.852363e+01
   12260,   -4.227898e+00,    4.444447e+00,   -1.852363e+01
   12261,   -8.243791e+00,    2.222223e+00,   -1.711841e+01
   12262,   -8.243791e+00,    4.444447e+00,   -1.711841e+01
   12263,   -1.184631e+01,    2.222223e+00,   -1.485480e+01
   12264,   -1.184631e+01,    4.444447e+00,   -1.485480e+01
   12265,   -1.485480e+01,    2.222223e+00,   -1.184631e+01
   12266,   -1.485480e+01,    4.444447e+00,   -1.184631e+01
   12267,   -1.711841e+01,    2.222223e+00,   -8.243791e+00
   12268,   -1.711841e+01,    4.444447e+00,   -8.243791e+00
   12269,   -1.852363e+01,    2.222223e+00,   -4.227898e+00
   12270,   -1.852363e+01,    4.444447e+00,   -4.227898e+00
   12271,   -4.000000e+01,    0.000000e+00,   -3.636364e+00
   12272,   -4.000000e+01,    0.000000e+00,   -7.272727e+00
   12273,   -4.000000e+01,    0.000000e+00,   -1.090909e+01
   12274,   -4.000000e+01,    0.000000e+00,   -1.454545e+01
   12275,   -4.000000e+01,    0.000000e+00,   -1.818182e+01
   12276,   -4.000000e+01,    0.000000e+00,   -2.181818e+01
   12277,   -4.000000e+01,    0.000000e+00,   -2.545455e+01
   12278,   -4.000000e+01,    0.000000e+00,   -2.909091e+01
   12279,   -4.000000e+01,    0.000000e+00,   -3.272727e+01
   12280,   -4.000000e+01,    0.000000e+00,   -3.636364e+01
   12281,   -4.000000e+01,    2.222223e+00,   -3.636364e+00
   12282,   -4.000000e+01,    4.444447e+00,   -3.636364e+00
   12283,   -4.000000e+01,    2.222223e+00,   -7.272727e+00
   12284,   -4.000000e+01,    4.444447e+00,   -7.272727e+00
   12285,   -4.000000e+01,    2.222223e+00,   -1.090909e+01
   12286,   -4.000000e+01,    4.444447e+00,   -1.090909e+01
   12287,   -4.000000e+01,    2.222223e+00,   -1.454545e+01
   12288,   -4.000000e+01,    4.444447e+00,   -1.454545e+01
   12289,   -4.000000e+01,    2.222223e+00,   -1.818182e+01
   12290,   -4.000000e+01,    4.444447e+00,   -1.818182e+01
   12291,   -4.000000e+01,    2.222223e+00,   -2.181818e+01
   12292,   -4.000000e+01,    4.444447e+00,   -2.181818e+01
   12293,   -4.000000e+01,    2.222223e+00,   -2.545455e+01
   12294,   -4.000000e+01,    4.444447e+00,   -2.545455e+01
   12295,   -4.000000e+01,    2.222223e+00,   -2.909091e+01
   12296,   -4.000000e+01,    4.444447e+00,   -2.909091e+01
   12297,   -4.000000e+01,    2.222223e+00,   -3.272727e+01
   12298,   -4.000000e+01,    4.444447e+00,   -3.272727e+01
   12299,   -4.000000e+01,    2.222223e+00,   -3.636364e+01
   12300,   -4.000000e+01,    4.444447e+00,   -3.636364e+01
   12301,   -3.624367e+01,    4.444447e+00,   -3.639712e+01
   12302,   -3.644839e+01,    4.444447e+00,   -3.284509e+01
   12303,   -3.659695e+01,    4.444447e+00,   -2.936308e+01
   12304,   -3.656202e+01,    4.444447e+00,   -2.594283e+01
   12305,   -3.617658e+01,    4.444447e+00,   -2.254465e+01
   12306,   -3.594828e+01,    4.444447e+00,   -1.900366e+01
   12307,   -3.586157e+01,    4.444447e+00,   -1.535769e+01
   12308,   -3.584761e+01,    4.444447e+00,   -1.167305e+01
   12309,   -3.569397e+01,    4.444447e+00,   -7.919852e+00
   12310,   -3.572141e+01,    4.444447e+00,   -3.979377e+00
   12311,   -4.226933e+00,    4.444447e+00,   -3.560389e+01
   12312,   -8.452204e+00,    4.444447e+00,   -3.539948e+01
   12313,   -1.266405e+01,    4.444447e+00,   -3.525943e+01
   12314,   -1.683226e+01,    4.444447e+00,   -3.530468e+01
   12315,   -2.090966e+01,    4.444447e+00,   -3.552760e+01
   12316,   -2.485636e+01,    4.444447e+00,   -3.589053e+01
   12317,   -2.869912e+01,    4.444447e+00,   -3.621377e+01
   12318,   -3.247776e+01,    4.444447e+00,   -3.637076e+01
   12319,   -3.136268e+01,    4.444447e+00,   -4.395812e+00
   12320,   -2.689537e+01,    4.444447e+00,   -4.809782e+00
   12321,   -2.249871e+01,    4.444447e+00,   -4.662276e+00
   12322,   -4.525042e+00,    4.444447e+00,   -2.249863e+01
   12323,   -4.618936e+00,    4.444447e+00,   -2.679440e+01
   12324,   -4.435636e+00,    4.444447e+00,   -3.119820e+01
   12325,   -2.115943e+01,    4.444447e+00,   -9.318076e+00
   12326,   -1.872042e+01,    4.444447e+00,   -1.393936e+01
   12327,   -1.503012e+01,    4.444447e+00,   -1.919381e+01
   12328,   -9.227202e+00,    4.444447e+00,   -2.133649e+01
   12329,   -3.291354e+01,    4.444447e+00,   -3.286150e+01
   12330,   -3.328261e+01,    4.444447e+00,   -2.951481e+01
   12331,   -3.332395e+01,    4.444447e+00,   -2.641675e+01
   12332,   -3.256025e+01,    4.444447e+00,   -2.346026e+01
   12333,   -3.176743e+01,    4.444447e+00,   -1.996635e+01
   12334,   -3.180269e+01,    4.444447e+00,   -1.609635e+01
   12335,   -3.184121e+01,    4.444447e+00,   -1.239733e+01
   12336,   -3.127485e+01,    4.444447e+00,   -8.707388e+00
   12337,   -8.909690e+00,    4.444447e+00,   -3.075609e+01
   12338,   -1.334101e+01,    4.444447e+00,   -3.052266e+01
   12339,   -1.781626e+01,    4.444447e+00,   -3.055190e+01
   12340,   -2.200602e+01,    4.444447e+00,   -3.113023e+01
   12341,   -2.583863e+01,    4.444447e+00,   -3.189109e+01
   12342,   -2.940716e+01,    4.444447e+00,   -3.258760e+01
   12343,   -9.190593e+00,    4.444447e+00,   -2.612164e+01
   12344,   -2.615848e+01,    4.444447e+00,   -1.005785e+01
   12345,   -2.342587e+01,    4.444447e+00,   -1.524067e+01
   12346,   -2.103803e+01,    4.444447e+00,   -2.037391e+01
   12347,   -1.409902e+01,    4.444447e+00,   -2.543150e+01
   12348,   -1.902704e+01,    4.444447e+00,   -2.572735e+01
   12349,   -3.015961e+01,    4.444447e+00,   -2.927555e+01
   12350,   -3.090787e+01,    4.444447e+00,   -2.688673e+01
   12351,   -2.924004e+01,    4.444447e+00,   -2.496789e+01
   12352,   -2.658704e+01,    4.444447e+00,   -2.158465e+01
   12353,   -2.766011e+01,    4.444447e+00,   -1.643459e+01
   12354,   -2.852490e+01,    4.444447e+00,   -1.304440e+01
   12355,   -2.357939e+01,    4.444447e+00,   -2.662476e+01
   12356,   -2.719913e+01,    4.444447e+00,   -2.812816e+01
   12357,   -3.624367e+01,    2.222223e+00,   -3.639712e+01
   12358,   -3.644839e+01,    2.222223e+00,   -3.284509e+01
   12359,   -3.659695e+01,    2.222223e+00,   -2.936308e+01
   12360,   -3.656202e+01,    2.222223e+00,   -2.594283e+01
   12361,   -3.617658e+01,    2.222223e+00,   -2.254465e+01
   12362,   -3.594828e+01,    2.222223e+00,   -1.900366e+01
   12363,   -3.586157e+01,    2.222223e+00,   -1.535769e+01
   12364,   -3.584761e+01,    2.222223e+00,   -1.167305e+01
   12365,   -3.569397e+01,    2.222223e+00,   -7.919852e+00
   12366,   -3.572141e+01,    2.222223e+00,   -3.979377e+00
   12367,   -4.226933e+00,    2.222223e+00,   -3.560389e+01
   12368,   -8.452204e+00,    2.222223e+00,   -3.539948e+01
   12369,   -1.266405e+01,    2.222223e+00,   -3.525943e+01
   12370,   -1.683226e+01,    2.222223e+00,   -3.530468e+01
   12371,   -2.090966e+01,    2.222223e+00,   -3.552760e+01
   12372,   -2.485636e+01,    2.222223e+00,   -3.589053e+01
   12373,   -2.869912e+01,    2.222223e+00,   -3.621377e+01
   12374,   -3.247776e+01,    2.222223e+00,   -3.637076e+01
   12375,   -3.136268e+01,    2.222223e+00,   -4.395812e+00
   12376,   -2.689537e+01,    2.222223e+00,   -4.809782e+00
   12377,   -2.249871e+01,    2.222223e+00,   -4.662276e+00
   12378,   -4.525042e+00,    2.222223e+00,   -2.249863e+01
   12379,   -4.618936e+00,    2.222223e+00,   -2.679440e+01
   12380,   -4.435636e+00,    2.222223e+00,   -3.119820e+01
   12381,   -2.115943e+01,    2.222223e+00,   -9.318076e+00
   12382,   -1.872042e+01,    2.222223e+00,   -1.393936e+01
   12383,   -1.503012e+01,    2.222223e+00,   -1.919381e+01
   12384,   -9.227202e+00,    2.222223e+00,   -2.133649e+01
   12385,   -3.291354e+01,    2.222223e+00,   -3.286150e+01
   12386,   -3.328261e+01,    2.222223e+00,   -2.951481e+01
   12387,   -3.332395e+01,    2.222223e+00,   -2.641675e+01
   12388,   -3.256025e+01,    2.222223e+00,   -2.346026e+01
   12389,   -3.176743e+01,    2.222223e+00,   -1.996635e+01
   12390,   -3.180269e+01,    2.222223e+00,   -1.609635e+01
   12391,   -3.184121e+01,    2.222223e+00,   -1.239733e+01
   12392,   -3.127485e+01,    2.222223e+00,   -8.707388e+00
   12393,   -8.909690e+00,    2.222223e+00,   -3.075609e+01
   12394,   -1.334101e+01,    2.222223e+00,   -3.052266e+01
   12395,   -1.781626e+01,    2.222223e+00,   -3.055190e+01
   12396,   -2.200602e+01,    2.222223e+00,   -3.113023e+01
   12397,   -2.583863e+01,    2.222223e+00,   -3.189109e+01
   12398,   -2.940716e+01,    2.222223e+00,   -3.258760e+01
   12399,   -9.190593e+00,    2.222223e+00,   -2.612164e+01
   12400,   -2.615848e+01,    2.222223e+00,   -1.005785e+01
   12401,   -2.342587e+01,    2.222223e+00,   -1.524067e+01
   12402,   -2.103803e+01,    2.222223e+00,   -2.037391e+01
   12403,   -1.409902e+01,    2.222223e+00,   -2.543150e+01
   12404,   -1.902704e+01,    2.222223e+00,   -2.572735e+01
   12405,   -3.015961e+01,    2.222223e+00,   -2.927555e+01
   12406,   -3.090787e+01,    2.222223e+00,   -2.688673e+01
   12407,   -2.924004e+01,    2.222223e+00,   -2.496789e+01
   12408,   -2.658704e+01,    2.222223e+00,   -2.158465e+01
   12409,   -2.766011e+01,    2.222223e+00,   -1.643459e+01
   12410,   -2.852490e+01,    2.222223e+00,   -1.304440e+01
   12411,   -2.357939e+01,    2.222223e+00,   -2.662476e+01
   12412,   -2.719913e+01,    2.222223e+00,   -2.812816e+01
   12413,   -3.624367e+01,    0.000000e+00,   -3.639712e+01
   12414,   -3.644839e+01,    0.000000e+00,   -3.284509e+01
   12415,   -3.659695e+01,    0.000000e+00,   -2.936308e+01
   12416,   -3.656202e+01,    0.000000e+00,   -2.594283e+01
   12417,   -3.617658e+01,    0.000000e+00,   -2.254465e+01
   12418,   -3.594828e+01,    0.000000e+00,   -1.900366e+01
   12419,   -3.586157e+01,    0.000000e+00,   -1.535769e+01
   12420,   -3.584761e+01,    0.000000e+00,   -1.167305e+01
   12421,   -3.569397e+01,    0.000000e+00,   -7.919852e+00
   12422,   -3.572141e+01,    0.000000e+00,   -3.979377e+00
   12423,   -4.226933e+00,    0.000000e+00,   -3.560389e+01
   12424,   -8.452204e+00,    0.000000e+00,   -3.539948e+01
   12425,   -1.266405e+01,    0.000000e+00,   -3.525943e+01
   12426,   -1.683226e+01,    0.000000e+00,   -3.530468e+01
   12427,   -2.090966e+01,    0.000000e+00,   -3.552760e+01
   12428,   -2.485636e+01,    0.000000e+00,   -3.589053e+01
   12429,   -2.869912e+01,    0.000000e+00,   -3.621377e+01
   12430,   -3.247776e+01,    0.000000e+00,   -3.637076e+01
   12431,   -3.136268e+01,    0.000000e+00,   -4.395812e+00
   12432,   -2.689537e+01,    0.000000e+00,   -4.809782e+00
   12433,   -2.249871e+01,    0.000000e+00,   -4.662276e+00
   12434,   -4.525042e+00,    0.000000e+00,   -2.249863e+01
   12435,   -4.618936e+00,    0.000000e+00,   -2.679440e+01
   12436,   -4.435636e+00,    0.000000e+00,   -3.119820e+01
   12437,   -2.115943e+01,    0.000000e+00,   -9.318076e+00
   12438,   -1.872042e+01,    0.000000e+00,   -1.393936e+01
   12439,   -1.503012e+01,    0.000000e+00,   -1.919381e+01
   12440,   -9.227202e+00,    0.000000e+00,   -2.133649e+01
   12441,   -3.291354e+01,    0.000000e+00,   -3.286150e+01
   12442,   -3.328261e+01,    0.000000e+00,   -2.951481e+01
   12443,   -3.332395e+01,    0.000000e+00,   -2.641675e+01
   12444,   -3.256025e+01,    0.000000e+00,   -2.346026e+01
   12445,   -3.176743e+01,    0.000000e+00,   -1.996635e+01
   12446,   -3.180269e+01,    0.000000e+00,   -1.609635e+01
   12447,   -3.184121e+01,    0.000000e+00,   -1.239733e+01
   12448,   -3.127485e+01,    0.000000e+00,   -8.707388e+00
   12449,   -8.909690e+00,    0.000000e+00,   -3.075609e+01
   12450,   -1.334101e+01,    0.000000e+00,   -3.052266e+01
   12451,   -1.781626e+01,    0.000000e+00,   -3.055190e+01
   12452,   -2.200602e+01,    0.000000e+00,   -3.113023e+01
   12453,   -2.583863e+01,    0.000000e+00,   -3.189109e+01
   12454,   -2.940716e+01,    0.000000e+00,   -3.258760e+01
   12455,   -9.190593e+00,    0.000000e+00,   -2.612164e+01
   12456,   -2.615848e+01,    0.000000e+00,   -1.005785e+01
   12457,   -2.342587e+01,    0.000000e+00,   -1.524067e+01
   12458,   -2.103803e+01,    0.000000e+00,   -2.037391e+01
   12459,   -1.409902e+01,    0.000000e+00,   -2.543150e+01
   12460,   -1.902704e+01,    0.000000e+00,   -2.572735e+01
   12461,   -3.015961e+01,    0.000000e+00,   -2.927555e+01
   12462,   -3.090787e+01,    0.000000e+00,   -2.688673e+01
   12463,   -2.924004e+01,    0.000000e+00,   -2.496789e+01
   12464,   -2.658704e+01,    0.000000e+00,   -2.158465e+01
   12465,   -2.766011e+01,    0.000000e+00,   -1.643459e+01
   12466,   -2.852490e+01,    0.000000e+00,   -1.304440e+01
   12467,   -2.357939e+01,    0.000000e+00,   -2.662476e+01
   12468,   -2.719913e+01,    0.000000e+00,   -2.812816e+01
   12791,    0.000000e+00,   -6.735557e-16,   -1.100000e+01
   12792,    0.000000e+00,   -6.123234e-16,   -1.000000e+01
   12793,    0.000000e+00,   -8.000000e+01,   -1.100000e+01
   12794,    0.000000e+00,   -7.750000e+01,   -1.100000e+01
   12795,    0.000000e+00,   -7.500000e+01,   -1.100000e+01
   12796,    0.000000e+00,   -7.250000e+01,   -1.100000e+01
   12797,    0.000000e+00,   -7.000000e+01,   -1.100000e+01
   12798,    0.000000e+00,   -6.750000e+01,   -1.100000e+01
   12799,    0.000000e+00,   -6.500000e+01,   -1.100000e+01
   12800,    0.000000e+00,   -6.250000e+01,   -1.100000e+01
   12801,    0.000000e+00,   -6.000000e+01,   -1.100000e+01
   12802,    0.000000e+00,   -5.750000e+01,   -1.100000e+01
   12803,    0.000000e+00,   -5.500000e+01,   -1.100000e+01
   12804,    0.000000e+00,   -5.250000e+01,   -1.100000e+01
   12805,    0.000000e+00,   -5.000000e+01,   -1.100000e+01
   12806,    0.000000e+00,   -4.750000e+01,   -1.100000e+01
   12807,    0.000000e+00,   -4.500000e+01,   -1.100000e+01
   12808,    0.000000e+00,   -4.250000e+01,   -1.100000e+01
   12809,    0.000000e+00,   -4.000000e+01,   -1.100000e+01
   12810,    0.000000e+00,   -3.750000e+01,   -1.100000e+01
   12811,    0.000000e+00,   -3.500000e+01,   -1.100000e+01
   12812,    0.000000e+00,   -3.250000e+01,   -1.100000e+01
   12813,    0.000000e+00,   -3.000000e+01,   -1.100000e+01
   12814,    0.000000e+00,   -2.750000e+01,   -1.100000e+01
   12815,    0.000000e+00,   -2.500000e+01,   -1.100000e+01
   12816,    0.000000e+00,   -2.250000e+01,   -1.100000e+01
   12817,    0.000000e+00,   -2.000000e+01,   -1.100000e+01
   12818,    0.000000e+00,   -1.750000e+01,   -1.100000e+01
   12819,    0.000000e+00,   -1.500000e+01,   -1.100000e+01
   12820,    0.000000e+00,   -1.250000e+01,   -1.100000e+01
   12821,    0.000000e+00,   -1.000000e+01,   -1.100000e+01
   12822,    0.000000e+00,   -7.500000e+00,   -1.100000e+01
   12823,    0.000000e+00,   -5.000000e+00,   -1.100000e+01
   12824,    0.000000e+00,   -2.500000e+00,   -1.100000e+01
   12825,    0.000000e+00,   -8.000000e+01,   -1.000000e+01
   12826,    0.000000e+00,   -2.500000e+00,   -1.000000e+01
   12827,    0.000000e+00,   -5.000000e+00,   -1.000000e+01
   12828,    0.000000e+00,   -7.500000e+00,   -1.000000e+01
   12829,    0.000000e+00,   -1.000000e+01,   -1.000000e+01
   12830,    0.000000e+00,   -1.250000e+01,   -1.000000e+01
   12831,    0.000000e+00,   -1.500000e+01,   -1.000000e+01
   12832,    0.000000e+00,   -1.750000e+01,   -1.000000e+01
   12833,    0.000000e+00,   -2.000000e+01,   -1.000000e+01
   12834,    0.000000e+00,   -2.250000e+01,   -1.000000e+01
   12835,    0.000000e+00,   -2.500000e+01,   -1.000000e+01
   12836,    0.000000e+00,   -2.750000e+01,   -1.000000e+01
   12837,    0.000000e+00,   -3.000000e+01,   -1.000000e+01
   12838,    0.000000e+00,   -3.250000e+01,   -1.000000e+01
   12839,    0.000000e+00,   -3.500000e+01,   -1.000000e+01
   12840,    0.000000e+00,   -3.750000e+01,   -1.000000e+01
   12841,    0.000000e+00,   -4.000000e+01,   -1.000000e+01
   12842,    0.000000e+00,   -4.250000e+01,   -1.000000e+01
   12843,    0.000000e+00,   -4.500000e+01,   -1.000000e+01
   12844,    0.000000e+00,   -4.750000e+01,   -1.000000e+01
   12845,    0.000000e+00,   -5.000000e+01,   -1.000000e+01
   12846,    0.000000e+00,   -5.250000e+01,   -1.000000e+01
   12847,    0.000000e+00,   -5.500000e+01,   -1.000000e+01
   12848,    0.000000e+00,   -5.750000e+01,   -1.000000e+01
   12849,    0.000000e+00,   -6.000000e+01,   -1.000000e+01
   12850,    0.000000e+00,   -6.250000e+01,   -1.000000e+01
   12851,    0.000000e+00,   -6.500000e+01,   -1.000000e+01
   12852,    0.000000e+00,   -6.750000e+01,   -1.000000e+01
   12853,    0.000000e+00,   -7.000000e+01,   -1.000000e+01
   12854,    0.000000e+00,   -7.250000e+01,   -1.000000e+01
   12855,    0.000000e+00,   -7.500000e+01,   -1.000000e+01
   12856,    0.000000e+00,   -7.750000e+01,   -1.000000e+01
   12857,    1.100000e+01,   -8.000000e+01,    2.449294e-15
   12858,    2.447730e+00,   -8.000000e+01,   -1.072421e+01
   12859,    4.772721e+00,   -8.000000e+01,   -9.910658e+00
   12860,    6.858388e+00,   -8.000000e+01,   -8.600146e+00
   12861,    8.600146e+00,   -8.000000e+01,   -6.858388e+00
   12862,    9.910658e+00,   -8.000000e+01,   -4.772721e+00
   12863,    1.072421e+01,   -8.000000e+01,   -2.447730e+00
   12864,    1.000000e+01,   -8.000000e+01,    2.449294e-15
   12865,    9.749279e+00,   -8.000000e+01,   -2.225209e+00
   12866,    9.009689e+00,   -8.000000e+01,   -4.338837e+00
   12867,    7.818315e+00,   -8.000000e+01,   -6.234898e+00
   12868,    6.234898e+00,   -8.000000e+01,   -7.818315e+00
   12869,    4.338837e+00,   -8.000000e+01,   -9.009689e+00
   12870,    2.225209e+00,   -8.000000e+01,   -9.749279e+00
   12871,    1.100000e+01,    0.000000e+00,   -2.449294e-15
   12872,    1.072421e+01,   -1.498803e-16,   -2.447730e+00
   12873,    9.910658e+00,   -2.922449e-16,   -4.772721e+00
   12874,    8.600146e+00,   -4.199551e-16,   -6.858388e+00
   12875,    6.858388e+00,   -5.266071e-16,   -8.600146e+00
   12876,    4.772721e+00,   -6.068528e-16,   -9.910658e+00
   12877,    2.447730e+00,   -6.566683e-16,   -1.072421e+01
   12878,    1.100000e+01,   -7.750000e+01,    2.296213e-15
   12879,    1.100000e+01,   -7.500000e+01,    2.143132e-15
   12880,    1.100000e+01,   -7.250000e+01,    1.990051e-15
   12881,    1.100000e+01,   -7.000000e+01,    1.836970e-15
   12882,    1.100000e+01,   -6.750000e+01,    1.683889e-15
   12883,    1.100000e+01,   -6.500000e+01,    1.530808e-15
   12884,    1.100000e+01,   -6.250000e+01,    1.377728e-15
   12885,    1.100000e+01,   -6.000000e+01,    1.224647e-15
   12886,    1.100000e+01,   -5.750000e+01,    1.071566e-15
   12887,    1.100000e+01,   -5.500000e+01,    9.184851e-16
   12888,    1.100000e+01,   -5.250000e+01,    7.654042e-16
   12889,    1.100000e+01,   -5.000000e+01,    6.123234e-16
   12890,    1.100000e+01,   -4.750000e+01,    4.592425e-16
   12891,    1.100000e+01,   -4.500000e+01,    3.061617e-16
   12892,    1.100000e+01,   -4.250000e+01,    1.530808e-16
   12893,    1.100000e+01,   -4.000000e+01,    0.000000e+00
   12894,    1.100000e+01,   -3.750000e+01,   -1.530808e-16
   12895,    1.100000e+01,   -3.500000e+01,   -3.061617e-16
   12896,    1.100000e+01,   -3.250000e+01,   -4.592425e-16
   12897,    1.100000e+01,   -3.000000e+01,   -6.123234e-16
   12898,    1.100000e+01,   -2.750000e+01,   -7.654042e-16
   12899,    1.100000e+01,   -2.500000e+01,   -9.184851e-16
   12900,    1.100000e+01,   -2.250000e+01,   -1.071566e-15
   12901,    1.100000e+01,   -2.000000e+01,   -1.224647e-15
   12902,    1.100000e+01,   -1.750000e+01,   -1.377728e-15
   12903,    1.100000e+01,   -1.500000e+01,   -1.530808e-15
   12904,    1.100000e+01,   -1.250000e+01,   -1.683889e-15
   12905,    1.100000e+01,   -1.000000e+01,   -1.836970e-15
   12906,    1.100000e+01,   -7.500000e+00,   -1.990051e-15
   12907,    1.100000e+01,   -5.000000e+00,   -2.143132e-15
   12908,    1.100000e+01,   -2.500000e+00,   -2.296213e-15
   12909,    2.447730e+00,   -7.750000e+01,   -1.072421e+01
   12910,    2.447730e+00,   -7.500000e+01,   -1.072421e+01
   12911,    2.447730e+00,   -7.250000e+01,   -1.072421e+01
   12912,    2.447730e+00,   -7.000000e+01,   -1.072421e+01
   12913,    2.447730e+00,   -6.750000e+01,   -1.072421e+01
   12914,    2.447730e+00,   -6.500000e+01,   -1.072421e+01
   12915,    2.447730e+00,   -6.250000e+01,   -1.072421e+01
   12916,    2.447730e+00,   -6.000000e+01,   -1.072421e+01
   12917,    2.447730e+00,   -5.750000e+01,   -1.072421e+01
   12918,    2.447730e+00,   -5.500000e+01,   -1.072421e+01
   12919,    2.447730e+00,   -5.250000e+01,   -1.072421e+01
   12920,    2.447730e+00,   -5.000000e+01,   -1.072421e+01
   12921,    2.447730e+00,   -4.750000e+01,   -1.072421e+01
   12922,    2.447730e+00,   -4.500000e+01,   -1.072421e+01
   12923,    2.447730e+00,   -4.250000e+01,   -1.072421e+01
   12924,    2.447730e+00,   -4.000000e+01,   -1.072421e+01
   12925,    2.447730e+00,   -3.750000e+01,   -1.072421e+01
   12926,    2.447730e+00,   -3.500000e+01,   -1.072421e+01
   12927,    2.447730e+00,   -3.250000e+01,   -1.072421e+01
   12928,    2.447730e+00,   -3.000000e+01,   -1.072421e+01
   12929,    2.447730e+00,   -2.750000e+01,   -1.072421e+01
   12930,    2.447730e+00,   -2.500000e+01,   -1.072421e+01
   12931,    2.447730e+00,   -2.250000e+01,   -1.072421e+01
   12932,    2.447730e+00,   -2.000000e+01,   -1.072421e+01
   12933,    2.447730e+00,   -1.750000e+01,   -1.072421e+01
   12934,    2.447730e+00,   -1.500000e+01,   -1.072421e+01
   12935,    2.447730e+00,   -1.250000e+01,   -1.072421e+01
   12936,    2.447730e+00,   -1.000000e+01,   -1.072421e+01
   12937,    2.447730e+00,   -7.500000e+00,   -1.072421e+01
   12938,    2.447730e+00,   -5.000000e+00,   -1.072421e+01
   12939,    2.447730e+00,   -2.500000e+00,   -1.072421e+01
   12940,    4.772721e+00,   -7.750000e+01,   -9.910658e+00
   12941,    4.772721e+00,   -7.500000e+01,   -9.910658e+00
   12942,    4.772721e+00,   -7.250000e+01,   -9.910658e+00
   12943,    4.772721e+00,   -7.000000e+01,   -9.910658e+00
   12944,    4.772721e+00,   -6.750000e+01,   -9.910658e+00
   12945,    4.772721e+00,   -6.500000e+01,   -9.910658e+00
   12946,    4.772721e+00,   -6.250000e+01,   -9.910658e+00
   12947,    4.772721e+00,   -6.000000e+01,   -9.910658e+00
   12948,    4.772721e+00,   -5.750000e+01,   -9.910658e+00
   12949,    4.772721e+00,   -5.500000e+01,   -9.910658e+00
   12950,    4.772721e+00,   -5.250000e+01,   -9.910658e+00
   12951,    4.772721e+00,   -5.000000e+01,   -9.910658e+00
   12952,    4.772721e+00,   -4.750000e+01,   -9.910658e+00
   12953,    4.772721e+00,   -4.500000e+01,   -9.910658e+00
   12954,    4.772721e+00,   -4.250000e+01,   -9.910658e+00
   12955,    4.772721e+00,   -4.000000e+01,   -9.910658e+00
   12956,    4.772721e+00,   -3.750000e+01,   -9.910658e+00
   12957,    4.772721e+00,   -3.500000e+01,   -9.910658e+00
   12958,    4.772721e+00,   -3.250000e+01,   -9.910658e+00
   12959,    4.772721e+00,   -3.000000e+01,   -9.910658e+00
   12960,    4.772721e+00,   -2.750000e+01,   -9.910658e+00
   12961,    4.772721e+00,   -2.500000e+01,   -9.910658e+00
   12962,    4.772721e+00,   -2.250000e+01,   -9.910658e+00
   12963,    4.772721e+00,   -2.000000e+01,   -9.910658e+00
   12964,    4.772721e+00,   -1.750000e+01,   -9.910658e+00
   12965,    4.772721e+00,   -1.500000e+01,   -9.910658e+00
   12966,    4.772721e+00,   -1.250000e+01,   -9.910658e+00
   12967,    4.772721e+00,   -1.000000e+01,   -9.910658e+00
   12968,    4.772721e+00,   -7.500000e+00,   -9.910658e+00
   12969,    4.772721e+00,   -5.000000e+00,   -9.910658e+00
   12970,    4.772721e+00,   -2.500000e+00,   -9.910658e+00
   12971,    6.858388e+00,   -7.750000e+01,   -8.600146e+00
   12972,    6.858388e+00,   -7.500000e+01,   -8.600146e+00
   12973,    6.858388e+00,   -7.250000e+01,   -8.600146e+00
   12974,    6.858388e+00,   -7.000000e+01,   -8.600146e+00
   12975,    6.858388e+00,   -6.750000e+01,   -8.600146e+00
   12976,    6.858388e+00,   -6.500000e+01,   -8.600146e+00
   12977,    6.858388e+00,   -6.250000e+01,   -8.600146e+00
   12978,    6.858388e+00,   -6.000000e+01,   -8.600146e+00
   12979,    6.858388e+00,   -5.750000e+01,   -8.600146e+00
   12980,    6.858388e+00,   -5.500000e+01,   -8.600146e+00
   12981,    6.858388e+00,   -5.250000e+01,   -8.600146e+00
   12982,    6.858388e+00,   -5.000000e+01,   -8.600146e+00
   12983,    6.858388e+00,   -4.750000e+01,   -8.600146e+00
   12984,    6.858388e+00,   -4.500000e+01,   -8.600146e+00
   12985,    6.858388e+00,   -4.250000e+01,   -8.600146e+00
   12986,    6.858388e+00,   -4.000000e+01,   -8.600146e+00
   12987,    6.858388e+00,   -3.750000e+01,   -8.600146e+00
   12988,    6.858388e+00,   -3.500000e+01,   -8.600146e+00
   12989,    6.858388e+00,   -3.250000e+01,   -8.600146e+00
   12990,    6.858388e+00,   -3.000000e+01,   -8.600146e+00
   12991,    6.858388e+00,   -2.750000e+01,   -8.600146e+00
   12992,    6.858388e+00,   -2.500000e+01,   -8.600146e+00
   12993,    6.858388e+00,   -2.250000e+01,   -8.600146e+00
   12994,    6.858388e+00,   -2.000000e+01,   -8.600146e+00
   12995,    6.858388e+00,   -1.750000e+01,   -8.600146e+00
   12996,    6.858388e+00,   -1.500000e+01,   -8.600146e+00
   12997,    6.858388e+00,   -1.250000e+01,   -8.600146e+00
   12998,    6.858388e+00,   -1.000000e+01,   -8.600146e+00
   12999,    6.858388e+00,   -7.500000e+00,   -8.600146e+00
   13000,    6.858388e+00,   -5.000000e+00,   -8.600146e+00
   13001,    6.858388e+00,   -2.500000e+00,   -8.600146e+00
   13002,    8.600146e+00,   -7.750000e+01,   -6.858388e+00
   13003,    8.600146e+00,   -7.500000e+01,   -6.858388e+00
   13004,    8.600146e+00,   -7.250000e+01,   -6.858388e+00
   13005,    8.600146e+00,   -7.000000e+01,   -6.858388e+00
   13006,    8.600146e+00,   -6.750000e+01,   -6.858388e+00
   13007,    8.600146e+00,   -6.500000e+01,   -6.858388e+00
   13008,    8.600146e+00,   -6.250000e+01,   -6.858388e+00
   13009,    8.600146e+00,   -6.000000e+01,   -6.858388e+00
   13010,    8.600146e+00,   -5.750000e+01,   -6.858388e+00
   13011,    8.600146e+00,   -5.500000e+01,   -6.858388e+00
   13012,    8.600146e+00,   -5.250000e+01,   -6.858388e+00
   13013,    8.600146e+00,   -5.000000e+01,   -6.858388e+00
   13014,    8.600146e+00,   -4.750000e+01,   -6.858388e+00
   13015,    8.600146e+00,   -4.500000e+01,   -6.858388e+00
   13016,    8.600146e+00,   -4.250000e+01,   -6.858388e+00
   13017,    8.600146e+00,   -4.000000e+01,   -6.858388e+00
   13018,    8.600146e+00,   -3.750000e+01,   -6.858388e+00
   13019,    8.600146e+00,   -3.500000e+01,   -6.858388e+00
   13020,    8.600146e+00,   -3.250000e+01,   -6.858388e+00
   13021,    8.600146e+00,   -3.000000e+01,   -6.858388e+00
   13022,    8.600146e+00,   -2.750000e+01,   -6.858388e+00
   13023,    8.600146e+00,   -2.500000e+01,   -6.858388e+00
   13024,    8.600146e+00,   -2.250000e+01,   -6.858388e+00
   13025,    8.600146e+00,   -2.000000e+01,   -6.858388e+00
   13026,    8.600146e+00,   -1.750000e+01,   -6.858388e+00
   13027,    8.600146e+00,   -1.500000e+01,   -6.858388e+00
   13028,    8.600146e+00,   -1.250000e+01,   -6.858388e+00
   13029,    8.600146e+00,   -1.000000e+01,   -6.858388e+00
   13030,    8.600146e+00,   -7.500000e+00,   -6.858388e+00
   13031,    8.600146e+00,   -5.000000e+00,   -6.858388e+00
   13032,    8.600146e+00,   -2.500000e+00,   -6.858388e+00
   13033,    9.910658e+00,   -7.750000e+01,   -4.772721e+00
   13034,    9.910658e+00,   -7.500000e+01,   -4.772721e+00
   13035,    9.910658e+00,   -7.250000e+01,   -4.772721e+00
   13036,    9.910658e+00,   -7.000000e+01,   -4.772721e+00
   13037,    9.910658e+00,   -6.750000e+01,   -4.772721e+00
   13038,    9.910658e+00,   -6.500000e+01,   -4.772721e+00
   13039,    9.910658e+00,   -6.250000e+01,   -4.772721e+00
   13040,    9.910658e+00,   -6.000000e+01,   -4.772721e+00
   13041,    9.910658e+00,   -5.750000e+01,   -4.772721e+00
   13042,    9.910658e+00,   -5.500000e+01,   -4.772721e+00
   13043,    9.910658e+00,   -5.250000e+01,   -4.772721e+00
   13044,    9.910658e+00,   -5.000000e+01,   -4.772721e+00
   13045,    9.910658e+00,   -4.750000e+01,   -4.772721e+00
   13046,    9.910658e+00,   -4.500000e+01,   -4.772721e+00
   13047,    9.910658e+00,   -4.250000e+01,   -4.772721e+00
   13048,    9.910658e+00,   -4.000000e+01,   -4.772721e+00
   13049,    9.910658e+00,   -3.750000e+01,   -4.772721e+00
   13050,    9.910658e+00,   -3.500000e+01,   -4.772721e+00
   13051,    9.910658e+00,   -3.250000e+01,   -4.772721e+00
   13052,    9.910658e+00,   -3.000000e+01,   -4.772721e+00
   13053,    9.910658e+00,   -2.750000e+01,   -4.772721e+00
   13054,    9.910658e+00,   -2.500000e+01,   -4.772721e+00
   13055,    9.910658e+00,   -2.250000e+01,   -4.772721e+00
   13056,    9.910658e+00,   -2.000000e+01,   -4.772721e+00
   13057,    9.910658e+00,   -1.750000e+01,   -4.772721e+00
   13058,    9.910658e+00,   -1.500000e+01,   -4.772721e+00
   13059,    9.910658e+00,   -1.250000e+01,   -4.772721e+00
   13060,    9.910658e+00,   -1.000000e+01,   -4.772721e+00
   13061,    9.910658e+00,   -7.500000e+00,   -4.772721e+00
   13062,    9.910658e+00,   -5.000000e+00,   -4.772721e+00
   13063,    9.910658e+00,   -2.500000e+00,   -4.772721e+00
   13064,    1.072421e+01,   -7.750000e+01,   -2.447730e+00
   13065,    1.072421e+01,   -7.500000e+01,   -2.447730e+00
   13066,    1.072421e+01,   -7.250000e+01,   -2.447730e+00
   13067,    1.072421e+01,   -7.000000e+01,   -2.447730e+00
   13068,    1.072421e+01,   -6.750000e+01,   -2.447730e+00
   13069,    1.072421e+01,   -6.500000e+01,   -2.447730e+00
   13070,    1.072421e+01,   -6.250000e+01,   -2.447730e+00
   13071,    1.072421e+01,   -6.000000e+01,   -2.447730e+00
   13072,    1.072421e+01,   -5.750000e+01,   -2.447730e+00
   13073,    1.072421e+01,   -5.500000e+01,   -2.447730e+00
   13074,    1.072421e+01,   -5.250000e+01,   -2.447730e+00
   13075,    1.072421e+01,   -5.000000e+01,   -2.447730e+00
   13076,    1.072421e+01,   -4.750000e+01,   -2.447730e+00
   13077,    1.072421e+01,   -4.500000e+01,   -2.447730e+00
   13078,    1.072421e+01,   -4.250000e+01,   -2.447730e+00
   13079,    1.072421e+01,   -4.000000e+01,   -2.447730e+00
   13080,    1.072421e+01,   -3.750000e+01,   -2.447730e+00
   13081,    1.072421e+01,   -3.500000e+01,   -2.447730e+00
   13082,    1.072421e+01,   -3.250000e+01,   -2.447730e+00
   13083,    1.072421e+01,   -3.000000e+01,   -2.447730e+00
   13084,    1.072421e+01,   -2.750000e+01,   -2.447730e+00
   13085,    1.072421e+01,   -2.500000e+01,   -2.447730e+00
   13086,    1.072421e+01,   -2.250000e+01,   -2.447730e+00
   13087,    1.072421e+01,   -2.000000e+01,   -2.447730e+00
   13088,    1.072421e+01,   -1.750000e+01,   -2.447730e+00
   13089,    1.072421e+01,   -1.500000e+01,   -2.447730e+00
   13090,    1.072421e+01,   -1.250000e+01,   -2.447730e+00
   13091,    1.072421e+01,   -1.000000e+01,   -2.447730e+00
   13092,    1.072421e+01,   -7.500000e+00,   -2.447730e+00
   13093,    1.072421e+01,   -5.000000e+00,   -2.447730e+00
   13094,    1.072421e+01,   -2.500000e+00,   -2.447730e+00
   13095,    1.000000e+01,    0.000000e+00,   -2.449294e-15
   13096,    1.000000e+01,   -2.500000e+00,   -2.296213e-15
   13097,    1.000000e+01,   -5.000000e+00,   -2.143132e-15
   13098,    1.000000e+01,   -7.500000e+00,   -1.990051e-15
   13099,    1.000000e+01,   -1.000000e+01,   -1.836970e-15
   13100,    1.000000e+01,   -1.250000e+01,   -1.683889e-15
   13101,    1.000000e+01,   -1.500000e+01,   -1.530808e-15
   13102,    1.000000e+01,   -1.750000e+01,   -1.377728e-15
   13103,    1.000000e+01,   -2.000000e+01,   -1.224647e-15
   13104,    1.000000e+01,   -2.250000e+01,   -1.071566e-15
   13105,    1.000000e+01,   -2.500000e+01,   -9.184851e-16
   13106,    1.000000e+01,   -2.750000e+01,   -7.654042e-16
   13107,    1.000000e+01,   -3.000000e+01,   -6.123234e-16
   13108,    1.000000e+01,   -3.250000e+01,   -4.592425e-16
   13109,    1.000000e+01,   -3.500000e+01,   -3.061617e-16
   13110,    1.000000e+01,   -3.750000e+01,   -1.530808e-16
   13111,    1.000000e+01,   -4.000000e+01,    0.000000e+00
   13112,    1.000000e+01,   -4.250000e+01,    1.530808e-16
   13113,    1.000000e+01,   -4.500000e+01,    3.061617e-16
   13114,    1.000000e+01,   -4.750000e+01,    4.592425e-16
   13115,    1.000000e+01,   -5.000000e+01,    6.123234e-16
   13116,    1.000000e+01,   -5.250000e+01,    7.654042e-16
   13117,    1.000000e+01,   -5.500000e+01,    9.184851e-16
   13118,    1.000000e+01,   -5.750000e+01,    1.071566e-15
   13119,    1.000000e+01,   -6.000000e+01,    1.224647e-15
   13120,    1.000000e+01,   -6.250000e+01,    1.377728e-15
   13121,    1.000000e+01,   -6.500000e+01,    1.530808e-15
   13122,    1.000000e+01,   -6.750000e+01,    1.683889e-15
   13123,    1.000000e+01,   -7.000000e+01,    1.836970e-15
   13124,    1.000000e+01,   -7.250000e+01,    1.990051e-15
   13125,    1.000000e+01,   -7.500000e+01,    2.143132e-15
   13126,    1.000000e+01,   -7.750000e+01,    2.296213e-15
   13127,    2.225209e+00,   -5.969712e-16,   -9.749279e+00
   13128,    4.338837e+00,   -5.516843e-16,   -9.009689e+00
   13129,    6.234898e+00,   -4.787337e-16,   -7.818315e+00
   13130,    7.818315e+00,   -3.817774e-16,   -6.234898e+00
   13131,    9.009689e+00,   -2.656772e-16,   -4.338837e+00
   13132,    9.749279e+00,   -1.362548e-16,   -2.225209e+00
   13133,    2.225209e+00,   -2.500000e+00,   -9.749279e+00
   13134,    2.225209e+00,   -5.000000e+00,   -9.749279e+00
   13135,    2.225209e+00,   -7.500000e+00,   -9.749279e+00
   13136,    2.225209e+00,   -1.000000e+01,   -9.749279e+00
   13137,    2.225209e+00,   -1.250000e+01,   -9.749279e+00
   13138,    2.225209e+00,   -1.500000e+01,   -9.749279e+00
   13139,    2.225209e+00,   -1.750000e+01,   -9.749279e+00
   13140,    2.225209e+00,   -2.000000e+01,   -9.749279e+00
   13141,    2.225209e+00,   -2.250000e+01,   -9.749279e+00
   13142,    2.225209e+00,   -2.500000e+01,   -9.749279e+00
   13143,    2.225209e+00,   -2.750000e+01,   -9.749279e+00
   13144,    2.225209e+00,   -3.000000e+01,   -9.749279e+00
   13145,    2.225209e+00,   -3.250000e+01,   -9.749279e+00
   13146,    2.225209e+00,   -3.500000e+01,   -9.749279e+00
   13147,    2.225209e+00,   -3.750000e+01,   -9.749279e+00
   13148,    2.225209e+00,   -4.000000e+01,   -9.749279e+00
   13149,    2.225209e+00,   -4.250000e+01,   -9.749279e+00
   13150,    2.225209e+00,   -4.500000e+01,   -9.749279e+00
   13151,    2.225209e+00,   -4.750000e+01,   -9.749279e+00
   13152,    2.225209e+00,   -5.000000e+01,   -9.749279e+00
   13153,    2.225209e+00,   -5.250000e+01,   -9.749279e+00
   13154,    2.225209e+00,   -5.500000e+01,   -9.749279e+00
   13155,    2.225209e+00,   -5.750000e+01,   -9.749279e+00
   13156,    2.225209e+00,   -6.000000e+01,   -9.749279e+00
   13157,    2.225209e+00,   -6.250000e+01,   -9.749279e+00
   13158,    2.225209e+00,   -6.500000e+01,   -9.749279e+00
   13159,    2.225209e+00,   -6.750000e+01,   -9.749279e+00
   13160,    2.225209e+00,   -7.000000e+01,   -9.749279e+00
   13161,    2.225209e+00,   -7.250000e+01,   -9.749279e+00
   13162,    2.225209e+00,   -7.500000e+01,   -9.749279e+00
   13163,    2.225209e+00,   -7.750000e+01,   -9.749279e+00
   13164,    4.338837e+00,   -2.500000e+00,   -9.009689e+00
   13165,    4.338837e+00,   -5.000000e+00,   -9.009689e+00
   13166,    4.338837e+00,   -7.500000e+00,   -9.009689e+00
   13167,    4.338837e+00,   -1.000000e+01,   -9.009689e+00
   13168,    4.338837e+00,   -1.250000e+01,   -9.009689e+00
   13169,    4.338837e+00,   -1.500000e+01,   -9.009689e+00
   13170,    4.338837e+00,   -1.750000e+01,   -9.009689e+00
   13171,    4.338837e+00,   -2.000000e+01,   -9.009689e+00
   13172,    4.338837e+00,   -2.250000e+01,   -9.009689e+00
   13173,    4.338837e+00,   -2.500000e+01,   -9.009689e+00
   13174,    4.338837e+00,   -2.750000e+01,   -9.009689e+00
   13175,    4.338837e+00,   -3.000000e+01,   -9.009689e+00
   13176,    4.338837e+00,   -3.250000e+01,   -9.009689e+00
   13177,    4.338837e+00,   -3.500000e+01,   -9.009689e+00
   13178,    4.338837e+00,   -3.750000e+01,   -9.009689e+00
   13179,    4.338837e+00,   -4.000000e+01,   -9.009689e+00
   13180,    4.338837e+00,   -4.250000e+01,   -9.009689e+00
   13181,    4.338837e+00,   -4.500000e+01,   -9.009689e+00
   13182,    4.338837e+00,   -4.750000e+01,   -9.009689e+00
   13183,    4.338837e+00,   -5.000000e+01,   -9.009689e+00
   13184,    4.338837e+00,   -5.250000e+01,   -9.009689e+00
   13185,    4.338837e+00,   -5.500000e+01,   -9.009689e+00
   13186,    4.338837e+00,   -5.750000e+01,   -9.009689e+00
   13187,    4.338837e+00,   -6.000000e+01,   -9.009689e+00
   13188,    4.338837e+00,   -6.250000e+01,   -9.009689e+00
   13189,    4.338837e+00,   -6.500000e+01,   -9.009689e+00
   13190,    4.338837e+00,   -6.750000e+01,   -9.009689e+00
   13191,    4.338837e+00,   -7.000000e+01,   -9.009689e+00
   13192,    4.338837e+00,   -7.250000e+01,   -9.009689e+00
   13193,    4.338837e+00,   -7.500000e+01,   -9.009689e+00
   13194,    4.338837e+00,   -7.750000e+01,   -9.009689e+00
   13195,    6.234898e+00,   -2.500000e+00,   -7.818315e+00
   13196,    6.234898e+00,   -5.000000e+00,   -7.818315e+00
   13197,    6.234898e+00,   -7.500000e+00,   -7.818315e+00
   13198,    6.234898e+00,   -1.000000e+01,   -7.818315e+00
   13199,    6.234898e+00,   -1.250000e+01,   -7.818315e+00
   13200,    6.234898e+00,   -1.500000e+01,   -7.818315e+00
   13201,    6.234898e+00,   -1.750000e+01,   -7.818315e+00
   13202,    6.234898e+00,   -2.000000e+01,   -7.818315e+00
   13203,    6.234898e+00,   -2.250000e+01,   -7.818315e+00
   13204,    6.234898e+00,   -2.500000e+01,   -7.818315e+00
   13205,    6.234898e+00,   -2.750000e+01,   -7.818315e+00
   13206,    6.234898e+00,   -3.000000e+01,   -7.818315e+00
   13207,    6.234898e+00,   -3.250000e+01,   -7.818315e+00
   13208,    6.234898e+00,   -3.500000e+01,   -7.818315e+00
   13209,    6.234898e+00,   -3.750000e+01,   -7.818315e+00
   13210,    6.234898e+00,   -4.000000e+01,   -7.818315e+00
   13211,    6.234898e+00,   -4.250000e+01,   -7.818315e+00
   13212,    6.234898e+00,   -4.500000e+01,   -7.818315e+00
   13213,    6.234898e+00,   -4.750000e+01,   -7.818315e+00
   13214,    6.234898e+00,   -5.000000e+01,   -7.818315e+00
   13215,    6.234898e+00,   -5.250000e+01,   -7.818315e+00
   13216,    6.234898e+00,   -5.500000e+01,   -7.818315e+00
   13217,    6.234898e+00,   -5.750000e+01,   -7.818315e+00
   13218,    6.234898e+00,   -6.000000e+01,   -7.818315e+00
   13219,    6.234898e+00,   -6.250000e+01,   -7.818315e+00
   13220,    6.234898e+00,   -6.500000e+01,   -7.818315e+00
   13221,    6.234898e+00,   -6.750000e+01,   -7.818315e+00
   13222,    6.234898e+00,   -7.000000e+01,   -7.818315e+00
   13223,    6.234898e+00,   -7.250000e+01,   -7.818315e+00
   13224,    6.234898e+00,   -7.500000e+01,   -7.818315e+00
   13225,    6.234898e+00,   -7.750000e+01,   -7.818315e+00
   13226,    7.818315e+00,   -2.500000e+00,   -6.234898e+00
   13227,    7.818315e+00,   -5.000000e+00,   -6.234898e+00
   13228,    7.818315e+00,   -7.500000e+00,   -6.234898e+00
   13229,    7.818315e+00,   -1.000000e+01,   -6.234898e+00
   13230,    7.818315e+00,   -1.250000e+01,   -6.234898e+00
   13231,    7.818315e+00,   -1.500000e+01,   -6.234898e+00
   13232,    7.818315e+00,   -1.750000e+01,   -6.234898e+00
   13233,    7.818315e+00,   -2.000000e+01,   -6.234898e+00
   13234,    7.818315e+00,   -2.250000e+01,   -6.234898e+00
   13235,    7.818315e+00,   -2.500000e+01,   -6.234898e+00
   13236,    7.818315e+00,   -2.750000e+01,   -6.234898e+00
   13237,    7.818315e+00,   -3.000000e+01,   -6.234898e+00
   13238,    7.818315e+00,   -3.250000e+01,   -6.234898e+00
   13239,    7.818315e+00,   -3.500000e+01,   -6.234898e+00
   13240,    7.818315e+00,   -3.750000e+01,   -6.234898e+00
   13241,    7.818315e+00,   -4.000000e+01,   -6.234898e+00
   13242,    7.818315e+00,   -4.250000e+01,   -6.234898e+00
   13243,    7.818315e+00,   -4.500000e+01,   -6.234898e+00
   13244,    7.818315e+00,   -4.750000e+01,   -6.234898e+00
   13245,    7.818315e+00,   -5.000000e+01,   -6.234898e+00
   13246,    7.818315e+00,   -5.250000e+01,   -6.234898e+00
   13247,    7.818315e+00,   -5.500000e+01,   -6.234898e+00
   13248,    7.818315e+00,   -5.750000e+01,   -6.234898e+00
   13249,    7.818315e+00,   -6.000000e+01,   -6.234898e+00
   13250,    7.818315e+00,   -6.250000e+01,   -6.234898e+00
   13251,    7.818315e+00,   -6.500000e+01,   -6.234898e+00
   13252,    7.818315e+00,   -6.750000e+01,   -6.234898e+00
   13253,    7.818315e+00,   -7.000000e+01,   -6.234898e+00
   13254,    7.818315e+00,   -7.250000e+01,   -6.234898e+00
   13255,    7.818315e+00,   -7.500000e+01,   -6.234898e+00
   13256,    7.818315e+00,   -7.750000e+01,   -6.234898e+00
   13257,    9.009689e+00,   -2.500000e+00,   -4.338837e+00
   13258,    9.009689e+00,   -5.000000e+00,   -4.338837e+00
   13259,    9.009689e+00,   -7.500000e+00,   -4.338837e+00
   13260,    9.009689e+00,   -1.000000e+01,   -4.338837e+00
   13261,    9.009689e+00,   -1.250000e+01,   -4.338837e+00
   13262,    9.009689e+00,   -1.500000e+01,   -4.338837e+00
   13263,    9.009689e+00,   -1.750000e+01,   -4.338837e+00
   13264,    9.009689e+00,   -2.000000e+01,   -4.338837e+00
   13265,    9.009689e+00,   -2.250000e+01,   -4.338837e+00
   13266,    9.009689e+00,   -2.500000e+01,   -4.338837e+00
   13267,    9.009689e+00,   -2.750000e+01,   -4.338837e+00
   13268,    9.009689e+00,   -3.000000e+01,   -4.338837e+00
   13269,    9.009689e+00,   -3.250000e+01,   -4.338837e+00
   13270,    9.009689e+00,   -3.500000e+01,   -4.338837e+00
   13271,    9.009689e+00,   -3.750000e+01,   -4.338837e+00
   13272,    9.009689e+00,   -4.000000e+01,   -4.338837e+00
   13273,    9.009689e+00,   -4.250000e+01,   -4.338837e+00
   13274,    9.009689e+00,   -4.500000e+01,   -4.338837e+00
   13275,    9.009689e+00,   -4.750000e+01,   -4.338837e+00
   13276,    9.009689e+00,   -5.000000e+01,   -4.338837e+00
   13277,    9.009689e+00,   -5.250000e+01,   -4.338837e+00
   13278,    9.009689e+00,   -5.500000e+01,   -4.338837e+00
   13279,    9.009689e+00,   -5.750000e+01,   -4.338837e+00
   13280,    9.009689e+00,   -6.000000e+01,   -4.338837e+00
   13281,    9.009689e+00,   -6.250000e+01,   -4.338837e+00
   13282,    9.009689e+00,   -6.500000e+01,   -4.338837e+00
   13283,    9.009689e+00,   -6.750000e+01,   -4.338837e+00
   13284,    9.009689e+00,   -7.000000e+01,   -4.338837e+00
   13285,    9.009689e+00,   -7.250000e+01,   -4.338837e+00
   13286,    9.009689e+00,   -7.500000e+01,   -4.338837e+00
   13287,    9.009689e+00,   -7.750000e+01,   -4.338837e+00
   13288,    9.749279e+00,   -2.500000e+00,   -2.225209e+00
   13289,    9.749279e+00,   -5.000000e+00,   -2.225209e+00
   13290,    9.749279e+00,   -7.500000e+00,   -2.225209e+00
   13291,    9.749279e+00,   -1.000000e+01,   -2.225209e+00
   13292,    9.749279e+00,   -1.250000e+01,   -2.225209e+00
   13293,    9.749279e+00,   -1.500000e+01,   -2.225209e+00
   13294,    9.749279e+00,   -1.750000e+01,   -2.225209e+00
   13295,    9.749279e+00,   -2.000000e+01,   -2.225209e+00
   13296,    9.749279e+00,   -2.250000e+01,   -2.225209e+00
   13297,    9.749279e+00,   -2.500000e+01,   -2.225209e+00
   13298,    9.749279e+00,   -2.750000e+01,   -2.225209e+00
   13299,    9.749279e+00,   -3.000000e+01,   -2.225209e+00
   13300,    9.749279e+00,   -3.250000e+01,   -2.225209e+00
   13301,    9.749279e+00,   -3.500000e+01,   -2.225209e+00
   13302,    9.749279e+00,   -3.750000e+01,   -2.225209e+00
   13303,    9.749279e+00,   -4.000000e+01,   -2.225209e+00
   13304,    9.749279e+00,   -4.250000e+01,   -2.225209e+00
   13305,    9.749279e+00,   -4.500000e+01,   -2.225209e+00
   13306,    9.749279e+00,   -4.750000e+01,   -2.225209e+00
   13307,    9.749279e+00,   -5.000000e+01,   -2.225209e+00
   13308,    9.749279e+00,   -5.250000e+01,   -2.225209e+00
   13309,    9.749279e+00,   -5.500000e+01,   -2.225209e+00
   13310,    9.749279e+00,   -5.750000e+01,   -2.225209e+00
   13311,    9.749279e+00,   -6.000000e+01,   -2.225209e+00
   13312,    9.749279e+00,   -6.250000e+01,   -2.225209e+00
   13313,    9.749279e+00,   -6.500000e+01,   -2.225209e+00
   13314,    9.749279e+00,   -6.750000e+01,   -2.225209e+00
   13315,    9.749279e+00,   -7.000000e+01,   -2.225209e+00
   13316,    9.749279e+00,   -7.250000e+01,   -2.225209e+00
   13317,    9.749279e+00,   -7.500000e+01,   -2.225209e+00
   13318,    9.749279e+00,   -7.750000e+01,   -2.225209e+00
   15629,    0.000000e+00,    6.666670e+00,   -1.771429e+01
   15630,    0.000000e+00,    6.666670e+00,   -1.642857e+01
   15631,    0.000000e+00,    6.666670e+00,   -1.514286e+01
   15632,    0.000000e+00,    6.666670e+00,   -1.385714e+01
   15633,    0.000000e+00,    6.666670e+00,   -1.257143e+01
   15634,    0.000000e+00,    6.666670e+00,   -1.128571e+01
   15635,    0.000000e+00,    0.000000e+00,   -1.128571e+01
   15636,    0.000000e+00,    0.000000e+00,   -1.257143e+01
   15637,    0.000000e+00,    0.000000e+00,   -1.385714e+01
   15638,    0.000000e+00,    0.000000e+00,   -1.514286e+01
   15639,    0.000000e+00,    0.000000e+00,   -1.642857e+01
   15640,    0.000000e+00,    0.000000e+00,   -1.771429e+01
   15641,    0.000000e+00,    4.444447e+00,   -1.128571e+01
   15642,    0.000000e+00,    4.444447e+00,   -1.257143e+01
   15643,    0.000000e+00,    4.444447e+00,   -1.385714e+01
   15644,    0.000000e+00,    4.444447e+00,   -1.514286e+01
   15645,    0.000000e+00,    4.444447e+00,   -1.642857e+01
   15646,    0.000000e+00,    4.444447e+00,   -1.771429e+01
   15647,    0.000000e+00,    2.222223e+00,   -1.128571e+01
   15648,    0.000000e+00,    2.222223e+00,   -1.257143e+01
   15649,    0.000000e+00,    2.222223e+00,   -1.385714e+01
   15650,    0.000000e+00,    2.222223e+00,   -1.514286e+01
   15651,    0.000000e+00,    2.222223e+00,   -1.642857e+01
   15652,    0.000000e+00,    2.222223e+00,   -1.771429e+01
   15653,    1.128571e+01,    0.000000e+00,    0.000000e+00
   15654,    1.257143e+01,    0.000000e+00,    0.000000e+00
   15655,    1.385714e+01,    0.000000e+00,    0.000000e+00
   15656,    1.514286e+01,    0.000000e+00,    0.000000e+00
   15657,    1.642857e+01,    0.000000e+00,    0.000000e+00
   15658,    1.771429e+01,    0.000000e+00,    0.000000e+00
   15659,    2.511308e+00,    0.000000e+00,   -1.100276e+01
   15660,    2.797406e+00,    0.000000e+00,   -1.225624e+01
   15661,    3.083504e+00,    0.000000e+00,   -1.350972e+01
   15662,    3.369603e+00,    0.000000e+00,   -1.476319e+01
   15663,    3.655701e+00,    0.000000e+00,   -1.601667e+01
   15664,    3.941799e+00,    0.000000e+00,   -1.727015e+01
   15665,    4.896688e+00,    0.000000e+00,   -1.016808e+01
   15666,    5.454538e+00,    0.000000e+00,   -1.132647e+01
   15667,    6.012389e+00,    0.000000e+00,   -1.248485e+01
   15668,    6.570239e+00,    0.000000e+00,   -1.364324e+01
   15669,    7.128090e+00,    0.000000e+00,   -1.480163e+01
   15670,    7.685941e+00,    0.000000e+00,   -1.596002e+01
   15671,    7.036528e+00,    0.000000e+00,   -8.823527e+00
   15672,    7.838158e+00,    0.000000e+00,   -9.828739e+00
   15673,    8.639787e+00,    0.000000e+00,   -1.083395e+01
   15674,    9.441417e+00,    0.000000e+00,   -1.183916e+01
   15675,    1.024305e+01,    0.000000e+00,   -1.284437e+01
   15676,    1.104468e+01,    0.000000e+00,   -1.384959e+01
   15677,    8.823527e+00,    0.000000e+00,   -7.036528e+00
   15678,    9.828739e+00,    0.000000e+00,   -7.838158e+00
   15679,    1.083395e+01,    0.000000e+00,   -8.639787e+00
   15680,    1.183916e+01,    0.000000e+00,   -9.441417e+00
   15681,    1.284437e+01,    0.000000e+00,   -1.024305e+01
   15682,    1.384959e+01,    0.000000e+00,   -1.104468e+01
   15683,    1.016808e+01,    0.000000e+00,   -4.896688e+00
   15684,    1.132647e+01,    0.000000e+00,   -5.454538e+00
   15685,    1.248485e+01,    0.000000e+00,   -6.012389e+00
   15686,    1.364324e+01,    0.000000e+00,   -6.570239e+00
   15687,    1.480163e+01,    0.000000e+00,   -7.128090e+00
   15688,    1.596002e+01,    0.000000e+00,   -7.685941e+00
   15689,    1.100276e+01,    0.000000e+00,   -2.511308e+00
   15690,    1.225624e+01,    0.000000e+00,   -2.797406e+00
   15691,    1.350972e+01,    0.000000e+00,   -3.083504e+00
   15692,    1.476319e+01,    0.000000e+00,   -3.369603e+00
   15693,    1.601667e+01,    0.000000e+00,   -3.655701e+00
   15694,    1.727015e+01,    0.000000e+00,   -3.941799e+00
   15695,    1.771429e+01,    6.666670e+00,    0.000000e+00
   15696,    1.642857e+01,    6.666670e+00,    0.000000e+00
   15697,    1.514286e+01,    6.666670e+00,    0.000000e+00
   15698,    1.385714e+01,    6.666670e+00,    0.000000e+00
   15699,    1.257143e+01,    6.666670e+00,    0.000000e+00
   15700,    1.128571e+01,    6.666670e+00,    0.000000e+00
   15701,    1.771429e+01,    2.222223e+00,    0.000000e+00
   15702,    1.771429e+01,    4.444447e+00,    0.000000e+00
   15703,    1.642857e+01,    2.222223e+00,    0.000000e+00
   15704,    1.642857e+01,    4.444447e+00,    0.000000e+00
   15705,    1.514286e+01,    2.222223e+00,    0.000000e+00
   15706,    1.514286e+01,    4.444447e+00,    0.000000e+00
   15707,    1.385714e+01,    2.222223e+00,    0.000000e+00
   15708,    1.385714e+01,    4.444447e+00,    0.000000e+00
   15709,    1.257143e+01,    2.222223e+00,    0.000000e+00
   15710,    1.257143e+01,    4.444447e+00,    0.000000e+00
   15711,    1.128571e+01,    2.222223e+00,    0.000000e+00
   15712,    1.128571e+01,    4.444447e+00,    0.000000e+00
   15713,    3.941799e+00,    6.666670e+00,   -1.727015e+01
   15714,    3.655701e+00,    6.666670e+00,   -1.601667e+01
   15715,    3.369603e+00,    6.666670e+00,   -1.476319e+01
   15716,    3.083504e+00,    6.666670e+00,   -1.350972e+01
   15717,    2.797406e+00,    6.666670e+00,   -1.225624e+01
   15718,    2.511308e+00,    6.666670e+00,   -1.100276e+01
   15719,    7.685941e+00,    6.666670e+00,   -1.596002e+01
   15720,    7.128090e+00,    6.666670e+00,   -1.480163e+01
   15721,    6.570239e+00,    6.666670e+00,   -1.364324e+01
   15722,    6.012389e+00,    6.666670e+00,   -1.248485e+01
   15723,    5.454538e+00,    6.666670e+00,   -1.132647e+01
   15724,    4.896688e+00,    6.666670e+00,   -1.016808e+01
   15725,    1.104468e+01,    6.666670e+00,   -1.384959e+01
   15726,    1.024305e+01,    6.666670e+00,   -1.284437e+01
   15727,    9.441417e+00,    6.666670e+00,   -1.183916e+01
   15728,    8.639787e+00,    6.666670e+00,   -1.083395e+01
   15729,    7.838158e+00,    6.666670e+00,   -9.828739e+00
   15730,    7.036528e+00,    6.666670e+00,   -8.823527e+00
   15731,    1.384959e+01,    6.666670e+00,   -1.104468e+01
   15732,    1.284437e+01,    6.666670e+00,   -1.024305e+01
   15733,    1.183916e+01,    6.666670e+00,   -9.441417e+00
   15734,    1.083395e+01,    6.666670e+00,   -8.639787e+00
   15735,    9.828739e+00,    6.666670e+00,   -7.838158e+00
   15736,    8.823527e+00,    6.666670e+00,   -7.036528e+00
   15737,    1.596002e+01,    6.666670e+00,   -7.685941e+00
   15738,    1.480163e+01,    6.666670e+00,   -7.128090e+00
   15739,    1.364324e+01,    6.666670e+00,   -6.570239e+00
   15740,    1.248485e+01,    6.666670e+00,   -6.012389e+00
   15741,    1.132647e+01,    6.666670e+00,   -5.454538e+00
   15742,    1.016808e+01,    6.666670e+00,   -4.896688e+00
   15743,    1.727015e+01,    6.666670e+00,   -3.941799e+00
   15744,    1.601667e+01,    6.666670e+00,   -3.655701e+00
   15745,    1.476319e+01,    6.666670e+00,   -3.369603e+00
   15746,    1.350972e+01,    6.666670e+00,   -3.083504e+00
   15747,    1.225624e+01,    6.666670e+00,   -2.797406e+00
   15748,    1.100276e+01,    6.666670e+00,   -2.511308e+00
   15749,    3.941799e+00,    2.222223e+00,   -1.727015e+01
   15750,    3.655701e+00,    2.222223e+00,   -1.601667e+01
   15751,    3.369603e+00,    2.222223e+00,   -1.476319e+01
   15752,    3.083504e+00,    2.222223e+00,   -1.350972e+01
   15753,    2.797406e+00,    2.222223e+00,   -1.225624e+01
   15754,    2.511308e+00,    2.222223e+00,   -1.100276e+01
   15755,    7.685941e+00,    2.222223e+00,   -1.596002e+01
   15756,    7.128090e+00,    2.222223e+00,   -1.480163e+01
   15757,    6.570239e+00,    2.222223e+00,   -1.364324e+01
   15758,    6.012389e+00,    2.222223e+00,   -1.248485e+01
   15759,    5.454538e+00,    2.222223e+00,   -1.132647e+01
   15760,    4.896688e+00,    2.222223e+00,   -1.016808e+01
   15761,    1.104468e+01,    2.222223e+00,   -1.384959e+01
   15762,    1.024305e+01,    2.222223e+00,   -1.284437e+01
   15763,    9.441417e+00,    2.222223e+00,   -1.183916e+01
   15764,    8.639787e+00,    2.222223e+00,   -1.083395e+01
   15765,    7.838158e+00,    2.222223e+00,   -9.828739e+00
   15766,    7.036528e+00,    2.222223e+00,   -8.823527e+00
   15767,    1.384959e+01,    2.222223e+00,   -1.104468e+01
   15768,    1.284437e+01,    2.222223e+00,   -1.024305e+01
   15769,    1.183916e+01,    2.222223e+00,   -9.441417e+00
   15770,    1.083395e+01,    2.222223e+00,   -8.639787e+00
   15771,    9.828739e+00,    2.222223e+00,   -7.838158e+00
   15772,    8.823527e+00,    2.222223e+00,   -7.036528e+00
   15773,    1.596002e+01,    2.222223e+00,   -7.685941e+00
   15774,    1.480163e+01,    2.222223e+00,   -7.128090e+00
   15775,    1.364324e+01,    2.222223e+00,   -6.570239e+00
   15776,    1.248485e+01,    2.222223e+00,   -6.012389e+00
   15777,    1.132647e+01,    2.222223e+00,   -5.454538e+00
   15778,    1.016808e+01,    2.222223e+00,   -4.896688e+00
   15779,    1.727015e+01,    2.222223e+00,   -3.941799e+00
   15780,    1.601667e+01,    2.222223e+00,   -3.655701e+00
   15781,    1.476319e+01,    2.222223e+00,   -3.369603e+00
   15782,    1.350972e+01,    2.222223e+00,   -3.083504e+00
   15783,    1.225624e+01,    2.222223e+00,   -2.797406e+00
   15784,    1.100276e+01,    2.222223e+00,   -2.511308e+00
   15785,    3.941799e+00,    4.444447e+00,   -1.727015e+01
   15786,    3.655701e+00,    4.444447e+00,   -1.601667e+01
   15787,    3.369603e+00,    4.444447e+00,   -1.476319e+01
   15788,    3.083504e+00,    4.444447e+00,   -1.350972e+01
   15789,    2.797406e+00,    4.444447e+00,   -1.225624e+01
   15790,    2.511308e+00,    4.444447e+00,   -1.100276e+01
   15791,    7.685941e+00,    4.444447e+00,   -1.596002e+01
   15792,    7.128090e+00,    4.444447e+00,   -1.480163e+01
   15793,    6.570239e+00,    4.444447e+00,   -1.364324e+01
   15794,    6.012389e+00,    4.444447e+00,   -1.248485e+01
   15795,    5.454538e+00,    4.444447e+00,   -1.132647e+01
   15796,    4.896688e+00,    4.444447e+00,   -1.016808e+01
   15797,    1.104468e+01,    4.444447e+00,   -1.384959e+01
   15798,    1.024305e+01,    4.444447e+00,   -1.284437e+01
   15799,    9.441417e+00,    4.444447e+00,   -1.183916e+01
   15800,    8.639787e+00,    4.444447e+00,   -1.083395e+01
   15801,    7.838158e+00,    4.444447e+00,   -9.828739e+00
   15802,    7.036528e+00,    4.444447e+00,   -8.823527e+00
   15803,    1.384959e+01,    4.444447e+00,   -1.104468e+01
   15804,    1.284437e+01,    4.444447e+00,   -1.024305e+01
   15805,    1.183916e+01,    4.444447e+00,   -9.441417e+00
   15806,    1.083395e+01,    4.444447e+00,   -8.639787e+00
   15807,    9.828739e+00,    4.444447e+00,   -7.838158e+00
   15808,    8.823527e+00,    4.444447e+00,   -7.036528e+00
   15809,    1.596002e+01,    4.444447e+00,   -7.685941e+00
   15810,    1.480163e+01,    4.444447e+00,   -7.128090e+00
   15811,    1.364324e+01,    4.444447e+00,   -6.570239e+00
   15812,    1.248485e+01,    4.444447e+00,   -6.012389e+00
   15813,    1.132647e+01,    4.444447e+00,   -5.454538e+00
   15814,    1.016808e+01,    4.444447e+00,   -4.896688e+00
   15815,    1.727015e+01,    4.444447e+00,   -3.941799e+00
   15816,    1.601667e+01,    4.444447e+00,   -3.655701e+00
   15817,    1.476319e+01,    4.444447e+00,   -3.369603e+00
   15818,    1.350972e+01,    4.444447e+00,   -3.083504e+00
   15819,    1.225624e+01,    4.444447e+00,   -2.797406e+00
   15820,    1.100276e+01,    4.444447e+00,   -2.511308e+00
   15821,    0.000000e+00,    2.000000e+01,   -1.771429e+01
   15822,    0.000000e+00,    2.000000e+01,   -1.642857e+01
   15823,    0.000000e+00,    2.000000e+01,   -1.514286e+01
   15824,    0.000000e+00,    2.000000e+01,   -1.385714e+01
   15825,    0.000000e+00,    2.000000e+01,   -1.257143e+01
   15826,    0.000000e+00,    2.000000e+01,   -1.128571e+01
   15827,    0.000000e+00,    1.777778e+01,   -1.128571e+01
   15828,    0.000000e+00,    1.777778e+01,   -1.257143e+01
   15829,    0.000000e+00,    1.777778e+01,   -1.385714e+01
   15830,    0.000000e+00,    1.777778e+01,   -1.514286e+01
   15831,    0.000000e+00,    1.777778e+01,   -1.642857e+01
   15832,    0.000000e+00,    1.777778e+01,   -1.771429e+01
   15833,    0.000000e+00,    1.555556e+01,   -1.128571e+01
   15834,    0.000000e+00,    1.555556e+01,   -1.257143e+01
   15835,    0.000000e+00,    1.555556e+01,   -1.385714e+01
   15836,    0.000000e+00,    1.555556e+01,   -1.514286e+01
   15837,    0.000000e+00,    1.555556e+01,   -1.642857e+01
   15838,    0.000000e+00,    1.555556e+01,   -1.771429e+01
   15839,    0.000000e+00,    1.333333e+01,   -1.128571e+01
   15840,    0.000000e+00,    1.333334e+01,   -1.257143e+01
   15841,    0.000000e+00,    1.333333e+01,   -1.385714e+01
   15842,    0.000000e+00,    1.333333e+01,   -1.514286e+01
   15843,    0.000000e+00,    1.333333e+01,   -1.642857e+01
   15844,    0.000000e+00,    1.333333e+01,   -1.771429e+01
   15845,    0.000000e+00,    1.111111e+01,   -1.128571e+01
   15846,    0.000000e+00,    1.111111e+01,   -1.257143e+01
   15847,    0.000000e+00,    1.111111e+01,   -1.385714e+01
   15848,    0.000000e+00,    1.111111e+01,   -1.514286e+01
   15849,    0.000000e+00,    1.111111e+01,   -1.642857e+01
   15850,    0.000000e+00,    1.111111e+01,   -1.771429e+01
   15851,    0.000000e+00,    8.888892e+00,   -1.128571e+01
   15852,    0.000000e+00,    8.888892e+00,   -1.257143e+01
   15853,    0.000000e+00,    8.888892e+00,   -1.385714e+01
   15854,    0.000000e+00,    8.888892e+00,   -1.514286e+01
   15855,    0.000000e+00,    8.888892e+00,   -1.642857e+01
   15856,    0.000000e+00,    8.888892e+00,   -1.771429e+01
   15857,    1.771429e+01,    2.000000e+01,    0.000000e+00
   15858,    1.642857e+01,    2.000000e+01,    0.000000e+00
   15859,    1.514286e+01,    2.000000e+01,    0.000000e+00
   15860,    1.385714e+01,    2.000000e+01,    0.000000e+00
   15861,    1.257143e+01,    2.000000e+01,    0.000000e+00
   15862,    1.128571e+01,    2.000000e+01,    0.000000e+00
   15863,    1.771429e+01,    8.888892e+00,    0.000000e+00
   15864,    1.771429e+01,    1.111111e+01,    0.000000e+00
   15865,    1.771429e+01,    1.333333e+01,    0.000000e+00
   15866,    1.771429e+01,    1.555556e+01,    0.000000e+00
   15867,    1.771429e+01,    1.777778e+01,    0.000000e+00
   15868,    1.642857e+01,    8.888892e+00,    0.000000e+00
   15869,    1.642857e+01,    1.111111e+01,    0.000000e+00
   15870,    1.642857e+01,    1.333334e+01,    0.000000e+00
   15871,    1.642857e+01,    1.555556e+01,    0.000000e+00
   15872,    1.642857e+01,    1.777778e+01,    0.000000e+00
   15873,    1.514286e+01,    8.888892e+00,    0.000000e+00
   15874,    1.514286e+01,    1.111111e+01,    0.000000e+00
   15875,    1.514286e+01,    1.333334e+01,    0.000000e+00
   15876,    1.514286e+01,    1.555556e+01,    0.000000e+00
   15877,    1.514286e+01,    1.777778e+01,    0.000000e+00
   15878,    1.385714e+01,    8.888892e+00,    0.000000e+00
   15879,    1.385714e+01,    1.111111e+01,    0.000000e+00
   15880,    1.385714e+01,    1.333333e+01,    0.000000e+00
   15881,    1.385714e+01,    1.555556e+01,    0.000000e+00
   15882,    1.385714e+01,    1.777778e+01,    0.000000e+00
   15883,    1.257143e+01,    8.888892e+00,    0.000000e+00
   15884,    1.257143e+01,    1.111111e+01,    0.000000e+00
   15885,    1.257143e+01,    1.333334e+01,    0.000000e+00
   15886,    1.257143e+01,    1.555556e+01,    0.000000e+00
   15887,    1.257143e+01,    1.777778e+01,    0.000000e+00
   15888,    1.128571e+01,    8.888892e+00,    0.000000e+00
   15889,    1.128571e+01,    1.111111e+01,    0.000000e+00
   15890,    1.128571e+01,    1.333333e+01,    0.000000e+00
   15891,    1.128571e+01,    1.555556e+01,    0.000000e+00
   15892,    1.128571e+01,    1.777778e+01,    0.000000e+00
   15893,    3.941799e+00,    2.000000e+01,   -1.727015e+01
   15894,    3.655701e+00,    2.000000e+01,   -1.601667e+01
   15895,    3.369603e+00,    2.000000e+01,   -1.476319e+01
   15896,    3.083504e+00,    2.000000e+01,   -1.350972e+01
   15897,    2.797406e+00,    2.000000e+01,   -1.225624e+01
   15898,    2.511308e+00,    2.000000e+01,   -1.100276e+01
   15899,    7.685941e+00,    2.000000e+01,   -1.596002e+01
   15900,    7.128090e+00,    2.000000e+01,   -1.480163e+01
   15901,    6.570239e+00,    2.000000e+01,   -1.364324e+01
   15902,    6.012389e+00,    2.000000e+01,   -1.248485e+01
   15903,    5.454538e+00,    2.000000e+01,   -1.132647e+01
   15904,    4.896688e+00,    2.000000e+01,   -1.016808e+01
   15905,    1.104468e+01,    2.000000e+01,   -1.384959e+01
   15906,    1.024305e+01,    2.000000e+01,   -1.284437e+01
   15907,    9.441417e+00,    2.000000e+01,   -1.183916e+01
   15908,    8.639787e+00,    2.000000e+01,   -1.083395e+01
   15909,    7.838158e+00,    2.000000e+01,   -9.828739e+00
   15910,    7.036528e+00,    2.000000e+01,   -8.823527e+00
   15911,    1.384959e+01,    2.000000e+01,   -1.104468e+01
   15912,    1.284437e+01,    2.000000e+01,   -1.024305e+01
   15913,    1.183916e+01,    2.000000e+01,   -9.441417e+00
   15914,    1.083395e+01,    2.000000e+01,   -8.639787e+00
   15915,    9.828739e+00,    2.000000e+01,   -7.838158e+00
   15916,    8.823527e+00,    2.000000e+01,   -7.036528e+00
   15917,    1.596002e+01,    2.000000e+01,   -7.685941e+00
   15918,    1.480163e+01,    2.000000e+01,   -7.128090e+00
   15919,    1.364324e+01,    2.000000e+01,   -6.570239e+00
   15920,    1.248485e+01,    2.000000e+01,   -6.012389e+00
   15921,    1.132647e+01,    2.000000e+01,   -5.454538e+00
   15922,    1.016808e+01,    2.000000e+01,   -4.896688e+00
   15923,    1.727015e+01,    2.000000e+01,   -3.941799e+00
   15924,    1.601667e+01,    2.000000e+01,   -3.655701e+00
   15925,    1.476319e+01,    2.000000e+01,   -3.369603e+00
   15926,    1.350972e+01,    2.000000e+01,   -3.083504e+00
   15927,    1.225624e+01,    2.000000e+01,   -2.797406e+00
   15928,    1.100276e+01,    2.000000e+01,   -2.511308e+00
   15929,    2.511308e+00,    1.777778e+01,   -1.100276e+01
   15930,    4.896688e+00,    1.777778e+01,   -1.016808e+01
   15931,    7.036528e+00,    1.777778e+01,   -8.823527e+00
   15932,    8.823527e+00,    1.777778e+01,   -7.036528e+00
   15933,    1.016808e+01,    1.777778e+01,   -4.896688e+00
   15934,    1.100276e+01,    1.777778e+01,   -2.511308e+00
   15935,    2.511308e+00,    1.555556e+01,   -1.100276e+01
   15936,    4.896688e+00,    1.555556e+01,   -1.016808e+01
   15937,    7.036528e+00,    1.555556e+01,   -8.823527e+00
   15938,    8.823527e+00,    1.555556e+01,   -7.036528e+00
   15939,    1.016808e+01,    1.555556e+01,   -4.896688e+00
   15940,    1.100276e+01,    1.555556e+01,   -2.511308e+00
   15941,    2.511308e+00,    1.333333e+01,   -1.100276e+01
   15942,    4.896688e+00,    1.333333e+01,   -1.016808e+01
   15943,    7.036528e+00,    1.333333e+01,   -8.823527e+00
   15944,    8.823527e+00,    1.333333e+01,   -7.036528e+00
   15945,    1.016808e+01,    1.333333e+01,   -4.896688e+00
   15946,    1.100276e+01,    1.333333e+01,   -2.511308e+00
   15947,    2.511308e+00,    1.111111e+01,   -1.100276e+01
   15948,    4.896688e+00,    1.111111e+01,   -1.016808e+01
   15949,    7.036528e+00,    1.111111e+01,   -8.823527e+00
   15950,    8.823527e+00,    1.111111e+01,   -7.036528e+00
   15951,    1.016808e+01,    1.111111e+01,   -4.896688e+00
   15952,    1.100276e+01,    1.111111e+01,   -2.511308e+00
   15953,    2.511308e+00,    8.888892e+00,   -1.100276e+01
   15954,    4.896688e+00,    8.888892e+00,   -1.016808e+01
   15955,    7.036528e+00,    8.888892e+00,   -8.823527e+00
   15956,    8.823527e+00,    8.888892e+00,   -7.036528e+00
   15957,    1.016808e+01,    8.888892e+00,   -4.896688e+00
   15958,    1.100276e+01,    8.888892e+00,   -2.511308e+00
   15959,    2.797406e+00,    1.777778e+01,   -1.225624e+01
   15960,    5.454538e+00,    1.777778e+01,   -1.132647e+01
   15961,    7.838158e+00,    1.777778e+01,   -9.828739e+00
   15962,    9.828739e+00,    1.777778e+01,   -7.838158e+00
   15963,    1.132647e+01,    1.777778e+01,   -5.454538e+00
   15964,    1.225624e+01,    1.777778e+01,   -2.797406e+00
   15965,    2.797406e+00,    1.555556e+01,   -1.225624e+01
   15966,    5.454538e+00,    1.555556e+01,   -1.132647e+01
   15967,    7.838158e+00,    1.555556e+01,   -9.828739e+00
   15968,    9.828739e+00,    1.555556e+01,   -7.838158e+00
   15969,    1.132647e+01,    1.555556e+01,   -5.454538e+00
   15970,    1.225624e+01,    1.555556e+01,   -2.797406e+00
   15971,    2.797406e+00,    1.333333e+01,   -1.225624e+01
   15972,    5.454538e+00,    1.333333e+01,   -1.132647e+01
   15973,    7.838158e+00,    1.333334e+01,   -9.828739e+00
   15974,    9.828739e+00,    1.333334e+01,   -7.838158e+00
   15975,    1.132647e+01,    1.333333e+01,   -5.454538e+00
   15976,    1.225624e+01,    1.333333e+01,   -2.797406e+00
   15977,    2.797406e+00,    1.111111e+01,   -1.225624e+01
   15978,    5.454538e+00,    1.111111e+01,   -1.132647e+01
   15979,    7.838158e+00,    1.111111e+01,   -9.828739e+00
   15980,    9.828739e+00,    1.111111e+01,   -7.838158e+00
   15981,    1.132647e+01,    1.111111e+01,   -5.454538e+00
   15982,    1.225624e+01,    1.111111e+01,   -2.797406e+00
   15983,    2.797406e+00,    8.888892e+00,   -1.225624e+01
   15984,    5.454538e+00,    8.888892e+00,   -1.132647e+01
   15985,    7.838158e+00,    8.888892e+00,   -9.828739e+00
   15986,    9.828739e+00,    8.888892e+00,   -7.838158e+00
   15987,    1.132647e+01,    8.888892e+00,   -5.454538e+00
   15988,    1.225624e+01,    8.888892e+00,   -2.797406e+00
   15989,    3.083504e+00,    1.777778e+01,   -1.350972e+01
   15990,    6.012389e+00,    1.777778e+01,   -1.248485e+01
   15991,    8.639787e+00,    1.777778e+01,   -1.083395e+01
   15992,    1.083395e+01,    1.777778e+01,   -8.639787e+00
   15993,    1.248485e+01,    1.777778e+01,   -6.012389e+00
   15994,    1.350972e+01,    1.777778e+01,   -3.083504e+00
   15995,    3.083504e+00,    1.555556e+01,   -1.350972e+01
   15996,    6.012389e+00,    1.555556e+01,   -1.248485e+01
   15997,    8.639787e+00,    1.555556e+01,   -1.083395e+01
   15998,    1.083395e+01,    1.555556e+01,   -8.639787e+00
   15999,    1.248485e+01,    1.555556e+01,   -6.012389e+00
   16000,    1.350972e+01,    1.555556e+01,   -3.083504e+00
   16001,    3.083504e+00,    1.333333e+01,   -1.350972e+01
   16002,    6.012389e+00,    1.333333e+01,   -1.248485e+01
   16003,    8.639787e+00,    1.333334e+01,   -1.083395e+01
   16004,    1.083395e+01,    1.333334e+01,   -8.639787e+00
   16005,    1.248485e+01,    1.333333e+01,   -6.012389e+00
   16006,    1.350972e+01,    1.333333e+01,   -3.083504e+00
   16007,    3.083504e+00,    1.111111e+01,   -1.350972e+01
   16008,    6.012389e+00,    1.111111e+01,   -1.248485e+01
   16009,    8.639787e+00,    1.111111e+01,   -1.083395e+01
   16010,    1.083395e+01,    1.111111e+01,   -8.639787e+00
   16011,    1.248485e+01,    1.111111e+01,   -6.012389e+00
   16012,    1.350972e+01,    1.111111e+01,   -3.083504e+00
   16013,    3.083504e+00,    8.888892e+00,   -1.350972e+01
   16014,    6.012389e+00,    8.888892e+00,   -1.248485e+01
   16015,    8.639787e+00,    8.888892e+00,   -1.083395e+01
   16016,    1.083395e+01,    8.888892e+00,   -8.639787e+00
   16017,    1.248485e+01,    8.888892e+00,   -6.012389e+00
   16018,    1.350972e+01,    8.888892e+00,   -3.083504e+00
   16019,    3.369603e+00,    1.777778e+01,   -1.476319e+01
   16020,    6.570239e+00,    1.777778e+01,   -1.364324e+01
   16021,    9.441417e+00,    1.777778e+01,   -1.183916e+01
   16022,    1.183916e+01,    1.777778e+01,   -9.441417e+00
   16023,    1.364324e+01,    1.777778e+01,   -6.570239e+00
   16024,    1.476319e+01,    1.777778e+01,   -3.369603e+00
   16025,    3.369603e+00,    1.555556e+01,   -1.476319e+01
   16026,    6.570239e+00,    1.555556e+01,   -1.364324e+01
   16027,    9.441417e+00,    1.555556e+01,   -1.183916e+01
   16028,    1.183916e+01,    1.555556e+01,   -9.441417e+00
   16029,    1.364324e+01,    1.555556e+01,   -6.570239e+00
   16030,    1.476319e+01,    1.555556e+01,   -3.369603e+00
   16031,    3.369603e+00,    1.333333e+01,   -1.476319e+01
   16032,    6.570239e+00,    1.333333e+01,   -1.364324e+01
   16033,    9.441417e+00,    1.333334e+01,   -1.183916e+01
   16034,    1.183916e+01,    1.333334e+01,   -9.441417e+00
   16035,    1.364324e+01,    1.333334e+01,   -6.570239e+00
   16036,    1.476319e+01,    1.333334e+01,   -3.369603e+00
   16037,    3.369603e+00,    1.111111e+01,   -1.476319e+01
   16038,    6.570239e+00,    1.111111e+01,   -1.364324e+01
   16039,    9.441417e+00,    1.111111e+01,   -1.183916e+01
   16040,    1.183916e+01,    1.111111e+01,   -9.441417e+00
   16041,    1.364324e+01,    1.111111e+01,   -6.570239e+00
   16042,    1.476319e+01,    1.111111e+01,   -3.369603e+00
   16043,    3.369603e+00,    8.888892e+00,   -1.476319e+01
   16044,    6.570239e+00,    8.888892e+00,   -1.364324e+01
   16045,    9.441417e+00,    8.888892e+00,   -1.183916e+01
   16046,    1.183916e+01,    8.888892e+00,   -9.441417e+00
   16047,    1.364324e+01,    8.888892e+00,   -6.570239e+00
   16048,    1.476319e+01,    8.888892e+00,   -3.369603e+00
   16049,    3.655701e+00,    1.777778e+01,   -1.601667e+01
   16050,    7.128090e+00,    1.777778e+01,   -1.480163e+01
   16051,    1.024305e+01,    1.777778e+01,   -1.284437e+01
   16052,    1.284437e+01,    1.777778e+01,   -1.024305e+01
   16053,    1.480163e+01,    1.777778e+01,   -7.128090e+00
   16054,    1.601667e+01,    1.777778e+01,   -3.655701e+00
   16055,    3.655701e+00,    1.555556e+01,   -1.601667e+01
   16056,    7.128090e+00,    1.555556e+01,   -1.480163e+01
   16057,    1.024305e+01,    1.555556e+01,   -1.284437e+01
   16058,    1.284437e+01,    1.555556e+01,   -1.024305e+01
   16059,    1.480163e+01,    1.555556e+01,   -7.128090e+00
   16060,    1.601667e+01,    1.555556e+01,   -3.655701e+00
   16061,    3.655701e+00,    1.333333e+01,   -1.601667e+01
   16062,    7.128090e+00,    1.333333e+01,   -1.480163e+01
   16063,    1.024305e+01,    1.333334e+01,   -1.284437e+01
   16064,    1.284437e+01,    1.333333e+01,   -1.024305e+01
   16065,    1.480163e+01,    1.333334e+01,   -7.128090e+00
   16066,    1.601667e+01,    1.333333e+01,   -3.655701e+00
   16067,    3.655701e+00,    1.111111e+01,   -1.601667e+01
   16068,    7.128090e+00,    1.111111e+01,   -1.480163e+01
   16069,    1.024305e+01,    1.111111e+01,   -1.284437e+01
   16070,    1.284437e+01,    1.111111e+01,   -1.024305e+01
   16071,    1.480163e+01,    1.111111e+01,   -7.128090e+00
   16072,    1.601667e+01,    1.111111e+01,   -3.655701e+00
   16073,    3.655701e+00,    8.888892e+00,   -1.601667e+01
   16074,    7.128090e+00,    8.888892e+00,   -1.480163e+01
   16075,    1.024305e+01,    8.888892e+00,   -1.284437e+01
   16076,    1.284437e+01,    8.888892e+00,   -1.024305e+01
   16077,    1.480163e+01,    8.888892e+00,   -7.128090e+00
   16078,    1.601667e+01,    8.888892e+00,   -3.655701e+00
   16079,    3.941799e+00,    1.777778e+01,   -1.727015e+01
   16080,    7.685941e+00,    1.777778e+01,   -1.596002e+01
   16081,    1.104468e+01,    1.777778e+01,   -1.384959e+01
   16082,    1.384959e+01,    1.777778e+01,   -1.104468e+01
   16083,    1.596002e+01,    1.777778e+01,   -7.685941e+00
   16084,    1.727015e+01,    1.777778e+01,   -3.941799e+00
   16085,    3.941799e+00,    1.555556e+01,   -1.727015e+01
   16086,    7.685941e+00,    1.555556e+01,   -1.596002e+01
   16087,    1.104468e+01,    1.555556e+01,   -1.384959e+01
   16088,    1.384959e+01,    1.555556e+01,   -1.104468e+01
   16089,    1.596002e+01,    1.555556e+01,   -7.685941e+00
   16090,    1.727015e+01,    1.555556e+01,   -3.941799e+00
   16091,    3.941799e+00,    1.333333e+01,   -1.727015e+01
   16092,    7.685941e+00,    1.333333e+01,   -1.596002e+01
   16093,    1.104468e+01,    1.333334e+01,   -1.384959e+01
   16094,    1.384959e+01,    1.333333e+01,   -1.104468e+01
   16095,    1.596002e+01,    1.333333e+01,   -7.685941e+00
   16096,    1.727015e+01,    1.333333e+01,   -3.941799e+00
   16097,    3.941799e+00,    1.111111e+01,   -1.727015e+01
   16098,    7.685941e+00,    1.111111e+01,   -1.596002e+01
   16099,    1.104468e+01,    1.111111e+01,   -1.384959e+01
   16100,    1.384959e+01,    1.111111e+01,   -1.104468e+01
   16101,    1.596002e+01,    1.111111e+01,   -7.685941e+00
   16102,    1.727015e+01,    1.111111e+01,   -3.941799e+00
   16103,    3.941799e+00,    8.888892e+00,   -1.727015e+01
   16104,    7.685941e+00,    8.888892e+00,   -1.596002e+01
   16105,    1.104468e+01,    8.888892e+00,   -1.384959e+01
   16106,    1.384959e+01,    8.888892e+00,   -1.104468e+01
   16107,    1.596002e+01,    8.888892e+00,   -7.685941e+00
   16108,    1.727015e+01,    8.888892e+00,   -3.941799e+00
   16109,   -1.000000e+01,    1.499760e-31,    0.000000e+00
   16110,   -9.749279e+00,   -1.362548e-16,   -2.225209e+00
   16111,   -9.009689e+00,   -2.656772e-16,   -4.338837e+00
   16112,   -7.818315e+00,   -3.817774e-16,   -6.234898e+00
   16113,   -6.234898e+00,   -4.787337e-16,   -7.818315e+00
   16114,   -4.338837e+00,   -5.516843e-16,   -9.009689e+00
   16115,   -2.225209e+00,   -5.969712e-16,   -9.749279e+00
   16116,   -1.000000e+01,   -8.000000e+01,    0.000000e+00
   16117,   -1.000000e+01,   -7.750000e+01,    2.296213e-15
   16118,   -1.000000e+01,   -7.500000e+01,    2.143132e-15
   16119,   -1.000000e+01,   -7.250000e+01,    1.990051e-15
   16120,   -1.000000e+01,   -7.000000e+01,    1.836970e-15
   16121,   -1.000000e+01,   -6.750000e+01,    1.683889e-15
   16122,   -1.000000e+01,   -6.500000e+01,    1.530808e-15
   16123,   -1.000000e+01,   -6.250000e+01,    1.377728e-15
   16124,   -1.000000e+01,   -6.000000e+01,    1.224647e-15
   16125,   -1.000000e+01,   -5.750000e+01,    1.071566e-15
   16126,   -1.000000e+01,   -5.500000e+01,    9.184851e-16
   16127,   -1.000000e+01,   -5.250000e+01,    7.654042e-16
   16128,   -1.000000e+01,   -5.000000e+01,    6.123234e-16
   16129,   -1.000000e+01,   -4.750000e+01,    4.592425e-16
   16130,   -1.000000e+01,   -4.500000e+01,    3.061617e-16
   16131,   -1.000000e+01,   -4.250000e+01,    1.530808e-16
   16132,   -1.000000e+01,   -4.000000e+01,    0.000000e+00
   16133,   -1.000000e+01,   -3.750000e+01,   -1.530808e-16
   16134,   -1.000000e+01,   -3.500000e+01,   -3.061617e-16
   16135,   -1.000000e+01,   -3.250000e+01,   -4.592425e-16
   16136,   -1.000000e+01,   -3.000000e+01,   -6.123234e-16
   16137,   -1.000000e+01,   -2.750000e+01,   -7.654042e-16
   16138,   -1.000000e+01,   -2.500000e+01,   -9.184851e-16
   16139,   -1.000000e+01,   -2.250000e+01,   -1.071566e-15
   16140,   -1.000000e+01,   -2.000000e+01,   -1.224647e-15
   16141,   -1.000000e+01,   -1.750000e+01,   -1.377728e-15
   16142,   -1.000000e+01,   -1.500000e+01,   -1.530808e-15
   16143,   -1.000000e+01,   -1.250000e+01,   -1.683889e-15
   16144,   -1.000000e+01,   -1.000000e+01,   -1.836970e-15
   16145,   -1.000000e+01,   -7.500000e+00,   -1.990051e-15
   16146,   -1.000000e+01,   -5.000000e+00,   -2.143132e-15
   16147,   -1.000000e+01,   -2.500000e+00,   -2.296213e-15
   16148,   -2.225209e+00,   -8.000000e+01,   -9.749279e+00
   16149,   -4.338837e+00,   -8.000000e+01,   -9.009689e+00
   16150,   -6.234898e+00,   -8.000000e+01,   -7.818315e+00
   16151,   -7.818315e+00,   -8.000000e+01,   -6.234898e+00
   16152,   -9.009689e+00,   -8.000000e+01,   -4.338837e+00
   16153,   -9.749279e+00,   -8.000000e+01,   -2.225209e+00
   16154,   -2.225209e+00,   -7.750000e+01,   -9.749279e+00
   16155,   -2.225209e+00,   -7.500000e+01,   -9.749279e+00
   16156,   -2.225209e+00,   -7.250000e+01,   -9.749279e+00
   16157,   -2.225209e+00,   -7.000000e+01,   -9.749279e+00
   16158,   -2.225209e+00,   -6.750000e+01,   -9.749279e+00
   16159,   -2.225209e+00,   -6.500000e+01,   -9.749279e+00
   16160,   -2.225209e+00,   -6.250000e+01,   -9.749279e+00
   16161,   -2.225209e+00,   -6.000000e+01,   -9.749279e+00
   16162,   -2.225209e+00,   -5.750000e+01,   -9.749279e+00
   16163,   -2.225209e+00,   -5.500000e+01,   -9.749279e+00
   16164,   -2.225209e+00,   -5.250000e+01,   -9.749279e+00
   16165,   -2.225209e+00,   -5.000000e+01,   -9.749279e+00
   16166,   -2.225209e+00,   -4.750000e+01,   -9.749279e+00
   16167,   -2.225209e+00,   -4.500000e+01,   -9.749279e+00
   16168,   -2.225209e+00,   -4.250000e+01,   -9.749279e+00
   16169,   -2.225209e+00,   -4.000000e+01,   -9.749279e+00
   16170,   -2.225209e+00,   -3.750000e+01,   -9.749279e+00
   16171,   -2.225209e+00,   -3.500000e+01,   -9.749279e+00
   16172,   -2.225209e+00,   -3.250000e+01,   -9.749279e+00
   16173,   -2.225209e+00,   -3.000000e+01,   -9.749279e+00
   16174,   -2.225209e+00,   -2.750000e+01,   -9.749279e+00
   16175,   -2.225209e+00,   -2.500000e+01,   -9.749279e+00
   16176,   -2.225209e+00,   -2.250000e+01,   -9.749279e+00
   16177,   -2.225209e+00,   -2.000000e+01,   -9.749279e+00
   16178,   -2.225209e+00,   -1.750000e+01,   -9.749279e+00
   16179,   -2.225209e+00,   -1.500000e+01,   -9.749279e+00
   16180,   -2.225209e+00,   -1.250000e+01,   -9.749279e+00
   16181,   -2.225209e+00,   -1.000000e+01,   -9.749279e+00
   16182,   -2.225209e+00,   -7.500000e+00,   -9.749279e+00
   16183,   -2.225209e+00,   -5.000000e+00,   -9.749279e+00
   16184,   -2.225209e+00,   -2.500000e+00,   -9.749279e+00
   16185,   -4.338837e+00,   -7.750000e+01,   -9.009689e+00
   16186,   -4.338837e+00,   -7.500000e+01,   -9.009689e+00
   16187,   -4.338837e+00,   -7.250000e+01,   -9.009689e+00
   16188,   -4.338837e+00,   -7.000000e+01,   -9.009689e+00
   16189,   -4.338837e+00,   -6.750000e+01,   -9.009689e+00
   16190,   -4.338837e+00,   -6.500000e+01,   -9.009689e+00
   16191,   -4.338837e+00,   -6.250000e+01,   -9.009689e+00
   16192,   -4.338837e+00,   -6.000000e+01,   -9.009689e+00
   16193,   -4.338837e+00,   -5.750000e+01,   -9.009689e+00
   16194,   -4.338837e+00,   -5.500000e+01,   -9.009689e+00
   16195,   -4.338837e+00,   -5.250000e+01,   -9.009689e+00
   16196,   -4.338837e+00,   -5.000000e+01,   -9.009689e+00
   16197,   -4.338837e+00,   -4.750000e+01,   -9.009689e+00
   16198,   -4.338837e+00,   -4.500000e+01,   -9.009689e+00
   16199,   -4.338837e+00,   -4.250000e+01,   -9.009689e+00
   16200,   -4.338837e+00,   -4.000000e+01,   -9.009689e+00
   16201,   -4.338837e+00,   -3.750000e+01,   -9.009689e+00
   16202,   -4.338837e+00,   -3.500000e+01,   -9.009689e+00
   16203,   -4.338837e+00,   -3.250000e+01,   -9.009689e+00
   16204,   -4.338837e+00,   -3.000000e+01,   -9.009689e+00
   16205,   -4.338837e+00,   -2.750000e+01,   -9.009689e+00
   16206,   -4.338837e+00,   -2.500000e+01,   -9.009689e+00
   16207,   -4.338837e+00,   -2.250000e+01,   -9.009689e+00
   16208,   -4.338837e+00,   -2.000000e+01,   -9.009689e+00
   16209,   -4.338837e+00,   -1.750000e+01,   -9.009689e+00
   16210,   -4.338837e+00,   -1.500000e+01,   -9.009689e+00
   16211,   -4.338837e+00,   -1.250000e+01,   -9.009689e+00
   16212,   -4.338837e+00,   -1.000000e+01,   -9.009689e+00
   16213,   -4.338837e+00,   -7.500000e+00,   -9.009689e+00
   16214,   -4.338837e+00,   -5.000000e+00,   -9.009689e+00
   16215,   -4.338837e+00,   -2.500000e+00,   -9.009689e+00
   16216,   -6.234898e+00,   -7.750000e+01,   -7.818315e+00
   16217,   -6.234898e+00,   -7.500000e+01,   -7.818315e+00
   16218,   -6.234898e+00,   -7.250000e+01,   -7.818315e+00
   16219,   -6.234898e+00,   -7.000000e+01,   -7.818315e+00
   16220,   -6.234898e+00,   -6.750000e+01,   -7.818315e+00
   16221,   -6.234898e+00,   -6.500000e+01,   -7.818315e+00
   16222,   -6.234898e+00,   -6.250000e+01,   -7.818315e+00
   16223,   -6.234898e+00,   -6.000000e+01,   -7.818315e+00
   16224,   -6.234898e+00,   -5.750000e+01,   -7.818315e+00
   16225,   -6.234898e+00,   -5.500000e+01,   -7.818315e+00
   16226,   -6.234898e+00,   -5.250000e+01,   -7.818315e+00
   16227,   -6.234898e+00,   -5.000000e+01,   -7.818315e+00
   16228,   -6.234898e+00,   -4.750000e+01,   -7.818315e+00
   16229,   -6.234898e+00,   -4.500000e+01,   -7.818315e+00
   16230,   -6.234898e+00,   -4.250000e+01,   -7.818315e+00
   16231,   -6.234898e+00,   -4.000000e+01,   -7.818315e+00
   16232,   -6.234898e+00,   -3.750000e+01,   -7.818315e+00
   16233,   -6.234898e+00,   -3.500000e+01,   -7.818315e+00
   16234,   -6.234898e+00,   -3.250000e+01,   -7.818315e+00
   16235,   -6.234898e+00,   -3.000000e+01,   -7.818315e+00
   16236,   -6.234898e+00,   -2.750000e+01,   -7.818315e+00
   16237,   -6.234898e+00,   -2.500000e+01,   -7.818315e+00
   16238,   -6.234898e+00,   -2.250000e+01,   -7.818315e+00
   16239,   -6.234898e+00,   -2.000000e+01,   -7.818315e+00
   16240,   -6.234898e+00,   -1.750000e+01,   -7.818315e+00
   16241,   -6.234898e+00,   -1.500000e+01,   -7.818315e+00
   16242,   -6.234898e+00,   -1.250000e+01,   -7.818315e+00
   16243,   -6.234898e+00,   -1.000000e+01,   -7.818315e+00
   16244,   -6.234898e+00,   -7.500000e+00,   -7.818315e+00
   16245,   -6.234898e+00,   -5.000000e+00,   -7.818315e+00
   16246,   -6.234898e+00,   -2.500000e+00,   -7.818315e+00
   16247,   -7.818315e+00,   -7.750000e+01,   -6.234898e+00
   16248,   -7.818315e+00,   -7.500000e+01,   -6.234898e+00
   16249,   -7.818315e+00,   -7.250000e+01,   -6.234898e+00
   16250,   -7.818315e+00,   -7.000000e+01,   -6.234898e+00
   16251,   -7.818315e+00,   -6.750000e+01,   -6.234898e+00
   16252,   -7.818315e+00,   -6.500000e+01,   -6.234898e+00
   16253,   -7.818315e+00,   -6.250000e+01,   -6.234898e+00
   16254,   -7.818315e+00,   -6.000000e+01,   -6.234898e+00
   16255,   -7.818315e+00,   -5.750000e+01,   -6.234898e+00
   16256,   -7.818315e+00,   -5.500000e+01,   -6.234898e+00
   16257,   -7.818315e+00,   -5.250000e+01,   -6.234898e+00
   16258,   -7.818315e+00,   -5.000000e+01,   -6.234898e+00
   16259,   -7.818315e+00,   -4.750000e+01,   -6.234898e+00
   16260,   -7.818315e+00,   -4.500000e+01,   -6.234898e+00
   16261,   -7.818315e+00,   -4.250000e+01,   -6.234898e+00
   16262,   -7.818315e+00,   -4.000000e+01,   -6.234898e+00
   16263,   -7.818315e+00,   -3.750000e+01,   -6.234898e+00
   16264,   -7.818315e+00,   -3.500000e+01,   -6.234898e+00
   16265,   -7.818315e+00,   -3.250000e+01,   -6.234898e+00
   16266,   -7.818315e+00,   -3.000000e+01,   -6.234898e+00
   16267,   -7.818315e+00,   -2.750000e+01,   -6.234898e+00
   16268,   -7.818315e+00,   -2.500000e+01,   -6.234898e+00
   16269,   -7.818315e+00,   -2.250000e+01,   -6.234898e+00
   16270,   -7.818315e+00,   -2.000000e+01,   -6.234898e+00
   16271,   -7.818315e+00,   -1.750000e+01,   -6.234898e+00
   16272,   -7.818315e+00,   -1.500000e+01,   -6.234898e+00
   16273,   -7.818315e+00,   -1.250000e+01,   -6.234898e+00
   16274,   -7.818315e+00,   -1.000000e+01,   -6.234898e+00
   16275,   -7.818315e+00,   -7.500000e+00,   -6.234898e+00
   16276,   -7.818315e+00,   -5.000000e+00,   -6.234898e+00
   16277,   -7.818315e+00,   -2.500000e+00,   -6.234898e+00
   16278,   -9.009689e+00,   -7.750000e+01,   -4.338837e+00
   16279,   -9.009689e+00,   -7.500000e+01,   -4.338837e+00
   16280,   -9.009689e+00,   -7.250000e+01,   -4.338837e+00
   16281,   -9.009689e+00,   -7.000000e+01,   -4.338837e+00
   16282,   -9.009689e+00,   -6.750000e+01,   -4.338837e+00
   16283,   -9.009689e+00,   -6.500000e+01,   -4.338837e+00
   16284,   -9.009689e+00,   -6.250000e+01,   -4.338837e+00
   16285,   -9.009689e+00,   -6.000000e+01,   -4.338837e+00
   16286,   -9.009689e+00,   -5.750000e+01,   -4.338837e+00
   16287,   -9.009689e+00,   -5.500000e+01,   -4.338837e+00
   16288,   -9.009689e+00,   -5.250000e+01,   -4.338837e+00
   16289,   -9.009689e+00,   -5.000000e+01,   -4.338837e+00
   16290,   -9.009689e+00,   -4.750000e+01,   -4.338837e+00
   16291,   -9.009689e+00,   -4.500000e+01,   -4.338837e+00
   16292,   -9.009689e+00,   -4.250000e+01,   -4.338837e+00
   16293,   -9.009689e+00,   -4.000000e+01,   -4.338837e+00
   16294,   -9.009689e+00,   -3.750000e+01,   -4.338837e+00
   16295,   -9.009689e+00,   -3.500000e+01,   -4.338837e+00
   16296,   -9.009689e+00,   -3.250000e+01,   -4.338837e+00
   16297,   -9.009689e+00,   -3.000000e+01,   -4.338837e+00
   16298,   -9.009689e+00,   -2.750000e+01,   -4.338837e+00
   16299,   -9.009689e+00,   -2.500000e+01,   -4.338837e+00
   16300,   -9.009689e+00,   -2.250000e+01,   -4.338837e+00
   16301,   -9.009689e+00,   -2.000000e+01,   -4.338837e+00
   16302,   -9.009689e+00,   -1.750000e+01,   -4.338837e+00
   16303,   -9.009689e+00,   -1.500000e+01,   -4.338837e+00
   16304,   -9.009689e+00,   -1.250000e+01,   -4.338837e+00
   16305,   -9.009689e+00,   -1.000000e+01,   -4.338837e+00
   16306,   -9.009689e+00,   -7.500000e+00,   -4.338837e+00
   16307,   -9.009689e+00,   -5.000000e+00,   -4.338837e+00
   16308,   -9.009689e+00,   -2.500000e+00,   -4.338837e+00
   16309,   -9.749279e+00,   -7.750000e+01,   -2.225209e+00
   16310,   -9.749279e+00,   -7.500000e+01,   -2.225209e+00
   16311,   -9.749279e+00,   -7.250000e+01,   -2.225209e+00
   16312,   -9.749279e+00,   -7.000000e+01,   -2.225209e+00
   16313,   -9.749279e+00,   -6.750000e+01,   -2.225209e+00
   16314,   -9.749279e+00,   -6.500000e+01,   -2.225209e+00
   16315,   -9.749279e+00,   -6.250000e+01,   -2.225209e+00
   16316,   -9.749279e+00,   -6.000000e+01,   -2.225209e+00
   16317,   -9.749279e+00,   -5.750000e+01,   -2.225209e+00
   16318,   -9.749279e+00,   -5.500000e+01,   -2.225209e+00
   16319,   -9.749279e+00,   -5.250000e+01,   -2.225209e+00
   16320,   -9.749279e+00,   -5.000000e+01,   -2.225209e+00
   16321,   -9.749279e+00,   -4.750000e+01,   -2.225209e+00
   16322,   -9.749279e+00,   -4.500000e+01,   -2.225209e+00
   16323,   -9.749279e+00,   -4.250000e+01,   -2.225209e+00
   16324,   -9.749279e+00,   -4.000000e+01,   -2.225209e+00
   16325,   -9.749279e+00,   -3.750000e+01,   -2.225209e+00
   16326,   -9.749279e+00,   -3.500000e+01,   -2.225209e+00
   16327,   -9.749279e+00,   -3.250000e+01,   -2.225209e+00
   16328,   -9.749279e+00,   -3.000000e+01,   -2.225209e+00
   16329,   -9.749279e+00,   -2.750000e+01,   -2.225209e+00
   16330,   -9.749279e+00,   -2.500000e+01,   -2.225209e+00
   16331,   -9.749279e+00,   -2.250000e+01,   -2.225209e+00
   16332,   -9.749279e+00,   -2.000000e+01,   -2.225209e+00
   16333,   -9.749279e+00,   -1.750000e+01,   -2.225209e+00
   16334,   -9.749279e+00,   -1.500000e+01,   -2.225209e+00
   16335,   -9.749279e+00,   -1.250000e+01,   -2.225209e+00
   16336,   -9.749279e+00,   -1.000000e+01,   -2.225209e+00
   16337,   -9.749279e+00,   -7.500000e+00,   -2.225209e+00
   16338,   -9.749279e+00,   -5.000000e+00,   -2.225209e+00
   16339,   -9.749279e+00,   -2.500000e+00,   -2.225209e+00
   16340,   -1.100000e+01,    1.499760e-31,    0.000000e+00
   16341,   -2.447730e+00,   -6.566683e-16,   -1.072421e+01
   16342,   -4.772721e+00,   -6.068528e-16,   -9.910658e+00
   16343,   -6.858388e+00,   -5.266071e-16,   -8.600146e+00
   16344,   -8.600146e+00,   -4.199551e-16,   -6.858388e+00
   16345,   -9.910658e+00,   -2.922449e-16,   -4.772721e+00
   16346,   -1.072421e+01,   -1.498803e-16,   -2.447730e+00
   16347,   -1.100000e+01,   -8.000000e+01,    0.000000e+00
   16348,   -1.100000e+01,   -2.500000e+00,   -2.296213e-15
   16349,   -1.100000e+01,   -5.000000e+00,   -2.143132e-15
   16350,   -1.100000e+01,   -7.500000e+00,   -1.990051e-15
   16351,   -1.100000e+01,   -1.000000e+01,   -1.836970e-15
   16352,   -1.100000e+01,   -1.250000e+01,   -1.683889e-15
   16353,   -1.100000e+01,   -1.500000e+01,   -1.530808e-15
   16354,   -1.100000e+01,   -1.750000e+01,   -1.377728e-15
   16355,   -1.100000e+01,   -2.000000e+01,   -1.224647e-15
   16356,   -1.100000e+01,   -2.250000e+01,   -1.071566e-15
   16357,   -1.100000e+01,   -2.500000e+01,   -9.184851e-16
   16358,   -1.100000e+01,   -2.750000e+01,   -7.654042e-16
   16359,   -1.100000e+01,   -3.000000e+01,   -6.123234e-16
   16360,   -1.100000e+01,   -3.250000e+01,   -4.592425e-16
   16361,   -1.100000e+01,   -3.500000e+01,   -3.061617e-16
   16362,   -1.100000e+01,   -3.750000e+01,   -1.530808e-16
   16363,   -1.100000e+01,   -4.000000e+01,    0.000000e+00
   16364,   -1.100000e+01,   -4.250000e+01,    1.530808e-16
   16365,   -1.100000e+01,   -4.500000e+01,    3.061617e-16
   16366,   -1.100000e+01,   -4.750000e+01,    4.592425e-16
   16367,   -1.100000e+01,   -5.000000e+01,    6.123234e-16
   16368,   -1.100000e+01,   -5.250000e+01,    7.654042e-16
   16369,   -1.100000e+01,   -5.500000e+01,    9.184851e-16
   16370,   -1.100000e+01,   -5.750000e+01,    1.071566e-15
   16371,   -1.100000e+01,   -6.000000e+01,    1.224647e-15
   16372,   -1.100000e+01,   -6.250000e+01,    1.377728e-15
   16373,   -1.100000e+01,   -6.500000e+01,    1.530808e-15
   16374,   -1.100000e+01,   -6.750000e+01,    1.683889e-15
   16375,   -1.100000e+01,   -7.000000e+01,    1.836970e-15
   16376,   -1.100000e+01,   -7.250000e+01,    1.990051e-15
   16377,   -1.100000e+01,   -7.500000e+01,    2.143132e-15
   16378,   -1.100000e+01,   -7.750000e+01,    2.296213e-15
   16379,   -1.072421e+01,   -8.000000e+01,   -2.447730e+00
   16380,   -9.910658e+00,   -8.000000e+01,   -4.772721e+00
   16381,   -8.600146e+00,   -8.000000e+01,   -6.858388e+00
   16382,   -6.858388e+00,   -8.000000e+01,   -8.600146e+00
   16383,   -4.772721e+00,   -8.000000e+01,   -9.910658e+00
   16384,   -2.447730e+00,   -8.000000e+01,   -1.072421e+01
   16385,   -2.447730e+00,   -2.500000e+00,   -1.072421e+01
   16386,   -2.447730e+00,   -5.000000e+00,   -1.072421e+01
   16387,   -2.447730e+00,   -7.500000e+00,   -1.072421e+01
   16388,   -2.447730e+00,   -1.000000e+01,   -1.072421e+01
   16389,   -2.447730e+00,   -1.250000e+01,   -1.072421e+01
   16390,   -2.447730e+00,   -1.500000e+01,   -1.072421e+01
   16391,   -2.447730e+00,   -1.750000e+01,   -1.072421e+01
   16392,   -2.447730e+00,   -2.000000e+01,   -1.072421e+01
   16393,   -2.447730e+00,   -2.250000e+01,   -1.072421e+01
   16394,   -2.447730e+00,   -2.500000e+01,   -1.072421e+01
   16395,   -2.447730e+00,   -2.750000e+01,   -1.072421e+01
   16396,   -2.447730e+00,   -3.000000e+01,   -1.072421e+01
   16397,   -2.447730e+00,   -3.250000e+01,   -1.072421e+01
   16398,   -2.447730e+00,   -3.500000e+01,   -1.072421e+01
   16399,   -2.447730e+00,   -3.750000e+01,   -1.072421e+01
   16400,   -2.447730e+00,   -4.000000e+01,   -1.072421e+01
   16401,   -2.447730e+00,   -4.250000e+01,   -1.072421e+01
   16402,   -2.447730e+00,   -4.500000e+01,   -1.072421e+01
   16403,   -2.447730e+00,   -4.750000e+01,   -1.072421e+01
   16404,   -2.447730e+00,   -5.000000e+01,   -1.072421e+01
   16405,   -2.447730e+00,   -5.250000e+01,   -1.072421e+01
   16406,   -2.447730e+00,   -5.500000e+01,   -1.072421e+01
   16407,   -2.447730e+00,   -5.750000e+01,   -1.072421e+01
   16408,   -2.447730e+00,   -6.000000e+01,   -1.072421e+01
   16409,   -2.447730e+00,   -6.250000e+01,   -1.072421e+01
   16410,   -2.447730e+00,   -6.500000e+01,   -1.072421e+01
   16411,   -2.447730e+00,   -6.750000e+01,   -1.072421e+01
   16412,   -2.447730e+00,   -7.000000e+01,   -1.072421e+01
   16413,   -2.447730e+00,   -7.250000e+01,   -1.072421e+01
   16414,   -2.447730e+00,   -7.500000e+01,   -1.072421e+01
   16415,   -2.447730e+00,   -7.750000e+01,   -1.072421e+01
   16416,   -4.772721e+00,   -2.500000e+00,   -9.910658e+00
   16417,   -4.772721e+00,   -5.000000e+00,   -9.910658e+00
   16418,   -4.772721e+00,   -7.500000e+00,   -9.910658e+00
   16419,   -4.772721e+00,   -1.000000e+01,   -9.910658e+00
   16420,   -4.772721e+00,   -1.250000e+01,   -9.910658e+00
   16421,   -4.772721e+00,   -1.500000e+01,   -9.910658e+00
   16422,   -4.772721e+00,   -1.750000e+01,   -9.910658e+00
   16423,   -4.772721e+00,   -2.000000e+01,   -9.910658e+00
   16424,   -4.772721e+00,   -2.250000e+01,   -9.910658e+00
   16425,   -4.772721e+00,   -2.500000e+01,   -9.910658e+00
   16426,   -4.772721e+00,   -2.750000e+01,   -9.910658e+00
   16427,   -4.772721e+00,   -3.000000e+01,   -9.910658e+00
   16428,   -4.772721e+00,   -3.250000e+01,   -9.910658e+00
   16429,   -4.772721e+00,   -3.500000e+01,   -9.910658e+00
   16430,   -4.772721e+00,   -3.750000e+01,   -9.910658e+00
   16431,   -4.772721e+00,   -4.000000e+01,   -9.910658e+00
   16432,   -4.772721e+00,   -4.250000e+01,   -9.910658e+00
   16433,   -4.772721e+00,   -4.500000e+01,   -9.910658e+00
   16434,   -4.772721e+00,   -4.750000e+01,   -9.910658e+00
   16435,   -4.772721e+00,   -5.000000e+01,   -9.910658e+00
   16436,   -4.772721e+00,   -5.250000e+01,   -9.910658e+00
   16437,   -4.772721e+00,   -5.500000e+01,   -9.910658e+00
   16438,   -4.772721e+00,   -5.750000e+01,   -9.910658e+00
   16439,   -4.772721e+00,   -6.000000e+01,   -9.910658e+00
   16440,   -4.772721e+00,   -6.250000e+01,   -9.910658e+00
   16441,   -4.772721e+00,   -6.500000e+01,   -9.910658e+00
   16442,   -4.772721e+00,   -6.750000e+01,   -9.910658e+00
   16443,   -4.772721e+00,   -7.000000e+01,   -9.910658e+00
   16444,   -4.772721e+00,   -7.250000e+01,   -9.910658e+00
   16445,   -4.772721e+00,   -7.500000e+01,   -9.910658e+00
   16446,   -4.772721e+00,   -7.750000e+01,   -9.910658e+00
   16447,   -6.858388e+00,   -2.500000e+00,   -8.600146e+00
   16448,   -6.858388e+00,   -5.000000e+00,   -8.600146e+00
   16449,   -6.858388e+00,   -7.500000e+00,   -8.600146e+00
   16450,   -6.858388e+00,   -1.000000e+01,   -8.600146e+00
   16451,   -6.858388e+00,   -1.250000e+01,   -8.600146e+00
   16452,   -6.858388e+00,   -1.500000e+01,   -8.600146e+00
   16453,   -6.858388e+00,   -1.750000e+01,   -8.600146e+00
   16454,   -6.858388e+00,   -2.000000e+01,   -8.600146e+00
   16455,   -6.858388e+00,   -2.250000e+01,   -8.600146e+00
   16456,   -6.858388e+00,   -2.500000e+01,   -8.600146e+00
   16457,   -6.858388e+00,   -2.750000e+01,   -8.600146e+00
   16458,   -6.858388e+00,   -3.000000e+01,   -8.600146e+00
   16459,   -6.858388e+00,   -3.250000e+01,   -8.600146e+00
   16460,   -6.858388e+00,   -3.500000e+01,   -8.600146e+00
   16461,   -6.858388e+00,   -3.750000e+01,   -8.600146e+00
   16462,   -6.858388e+00,   -4.000000e+01,   -8.600146e+00
   16463,   -6.858388e+00,   -4.250000e+01,   -8.600146e+00
   16464,   -6.858388e+00,   -4.500000e+01,   -8.600146e+00
   16465,   -6.858388e+00,   -4.750000e+01,   -8.600146e+00
   16466,   -6.858388e+00,   -5.000000e+01,   -8.600146e+00
   16467,   -6.858388e+00,   -5.250000e+01,   -8.600146e+00
   16468,   -6.858388e+00,   -5.500000e+01,   -8.600146e+00
   16469,   -6.858388e+00,   -5.750000e+01,   -8.600146e+00
   16470,   -6.858388e+00,   -6.000000e+01,   -8.600146e+00
   16471,   -6.858388e+00,   -6.250000e+01,   -8.600146e+00
   16472,   -6.858388e+00,   -6.500000e+01,   -8.600146e+00
   16473,   -6.858388e+00,   -6.750000e+01,   -8.600146e+00
   16474,   -6.858388e+00,   -7.000000e+01,   -8.600146e+00
   16475,   -6.858388e+00,   -7.250000e+01,   -8.600146e+00
   16476,   -6.858388e+00,   -7.500000e+01,   -8.600146e+00
   16477,   -6.858388e+00,   -7.750000e+01,   -8.600146e+00
   16478,   -8.600146e+00,   -2.500000e+00,   -6.858388e+00
   16479,   -8.600146e+00,   -5.000000e+00,   -6.858388e+00
   16480,   -8.600146e+00,   -7.500000e+00,   -6.858388e+00
   16481,   -8.600146e+00,   -1.000000e+01,   -6.858388e+00
   16482,   -8.600146e+00,   -1.250000e+01,   -6.858388e+00
   16483,   -8.600146e+00,   -1.500000e+01,   -6.858388e+00
   16484,   -8.600146e+00,   -1.750000e+01,   -6.858388e+00
   16485,   -8.600146e+00,   -2.000000e+01,   -6.858388e+00
   16486,   -8.600146e+00,   -2.250000e+01,   -6.858388e+00
   16487,   -8.600146e+00,   -2.500000e+01,   -6.858388e+00
   16488,   -8.600146e+00,   -2.750000e+01,   -6.858388e+00
   16489,   -8.600146e+00,   -3.000000e+01,   -6.858388e+00
   16490,   -8.600146e+00,   -3.250000e+01,   -6.858388e+00
   16491,   -8.600146e+00,   -3.500000e+01,   -6.858388e+00
   16492,   -8.600146e+00,   -3.750000e+01,   -6.858388e+00
   16493,   -8.600146e+00,   -4.000000e+01,   -6.858388e+00
   16494,   -8.600146e+00,   -4.250000e+01,   -6.858388e+00
   16495,   -8.600146e+00,   -4.500000e+01,   -6.858388e+00
   16496,   -8.600146e+00,   -4.750000e+01,   -6.858388e+00
   16497,   -8.600146e+00,   -5.000000e+01,   -6.858388e+00
   16498,   -8.600146e+00,   -5.250000e+01,   -6.858388e+00
   16499,   -8.600146e+00,   -5.500000e+01,   -6.858388e+00
   16500,   -8.600146e+00,   -5.750000e+01,   -6.858388e+00
   16501,   -8.600146e+00,   -6.000000e+01,   -6.858388e+00
   16502,   -8.600146e+00,   -6.250000e+01,   -6.858388e+00
   16503,   -8.600146e+00,   -6.500000e+01,   -6.858388e+00
   16504,   -8.600146e+00,   -6.750000e+01,   -6.858388e+00
   16505,   -8.600146e+00,   -7.000000e+01,   -6.858388e+00
   16506,   -8.600146e+00,   -7.250000e+01,   -6.858388e+00
   16507,   -8.600146e+00,   -7.500000e+01,   -6.858388e+00
   16508,   -8.600146e+00,   -7.750000e+01,   -6.858388e+00
   16509,   -9.910658e+00,   -2.500000e+00,   -4.772721e+00
   16510,   -9.910658e+00,   -5.000000e+00,   -4.772721e+00
   16511,   -9.910658e+00,   -7.500000e+00,   -4.772721e+00
   16512,   -9.910658e+00,   -1.000000e+01,   -4.772721e+00
   16513,   -9.910658e+00,   -1.250000e+01,   -4.772721e+00
   16514,   -9.910658e+00,   -1.500000e+01,   -4.772721e+00
   16515,   -9.910658e+00,   -1.750000e+01,   -4.772721e+00
   16516,   -9.910658e+00,   -2.000000e+01,   -4.772721e+00
   16517,   -9.910658e+00,   -2.250000e+01,   -4.772721e+00
   16518,   -9.910658e+00,   -2.500000e+01,   -4.772721e+00
   16519,   -9.910658e+00,   -2.750000e+01,   -4.772721e+00
   16520,   -9.910658e+00,   -3.000000e+01,   -4.772721e+00
   16521,   -9.910658e+00,   -3.250000e+01,   -4.772721e+00
   16522,   -9.910658e+00,   -3.500000e+01,   -4.772721e+00
   16523,   -9.910658e+00,   -3.750000e+01,   -4.772721e+00
   16524,   -9.910658e+00,   -4.000000e+01,   -4.772721e+00
   16525,   -9.910658e+00,   -4.250000e+01,   -4.772721e+00
   16526,   -9.910658e+00,   -4.500000e+01,   -4.772721e+00
   16527,   -9.910658e+00,   -4.750000e+01,   -4.772721e+00
   16528,   -9.910658e+00,   -5.000000e+01,   -4.772721e+00
   16529,   -9.910658e+00,   -5.250000e+01,   -4.772721e+00
   16530,   -9.910658e+00,   -5.500000e+01,   -4.772721e+00
   16531,   -9.910658e+00,   -5.750000e+01,   -4.772721e+00
   16532,   -9.910658e+00,   -6.000000e+01,   -4.772721e+00
   16533,   -9.910658e+00,   -6.250000e+01,   -4.772721e+00
   16534,   -9.910658e+00,   -6.500000e+01,   -4.772721e+00
   16535,   -9.910658e+00,   -6.750000e+01,   -4.772721e+00
   16536,   -9.910658e+00,   -7.000000e+01,   -4.772721e+00
   16537,   -9.910658e+00,   -7.250000e+01,   -4.772721e+00
   16538,   -9.910658e+00,   -7.500000e+01,   -4.772721e+00
   16539,   -9.910658e+00,   -7.750000e+01,   -4.772721e+00
   16540,   -1.072421e+01,   -2.500000e+00,   -2.447730e+00
   16541,   -1.072421e+01,   -5.000000e+00,   -2.447730e+00
   16542,   -1.072421e+01,   -7.500000e+00,   -2.447730e+00
   16543,   -1.072421e+01,   -1.000000e+01,   -2.447730e+00
   16544,   -1.072421e+01,   -1.250000e+01,   -2.447730e+00
   16545,   -1.072421e+01,   -1.500000e+01,   -2.447730e+00
   16546,   -1.072421e+01,   -1.750000e+01,   -2.447730e+00
   16547,   -1.072421e+01,   -2.000000e+01,   -2.447730e+00
   16548,   -1.072421e+01,   -2.250000e+01,   -2.447730e+00
   16549,   -1.072421e+01,   -2.500000e+01,   -2.447730e+00
   16550,   -1.072421e+01,   -2.750000e+01,   -2.447730e+00
   16551,   -1.072421e+01,   -3.000000e+01,   -2.447730e+00
   16552,   -1.072421e+01,   -3.250000e+01,   -2.447730e+00
   16553,   -1.072421e+01,   -3.500000e+01,   -2.447730e+00
   16554,   -1.072421e+01,   -3.750000e+01,   -2.447730e+00
   16555,   -1.072421e+01,   -4.000000e+01,   -2.447730e+00
   16556,   -1.072421e+01,   -4.250000e+01,   -2.447730e+00
   16557,   -1.072421e+01,   -4.500000e+01,   -2.447730e+00
   16558,   -1.072421e+01,   -4.750000e+01,   -2.447730e+00
   16559,   -1.072421e+01,   -5.000000e+01,   -2.447730e+00
   16560,   -1.072421e+01,   -5.250000e+01,   -2.447730e+00
   16561,   -1.072421e+01,   -5.500000e+01,   -2.447730e+00
   16562,   -1.072421e+01,   -5.750000e+01,   -2.447730e+00
   16563,   -1.072421e+01,   -6.000000e+01,   -2.447730e+00
   16564,   -1.072421e+01,   -6.250000e+01,   -2.447730e+00
   16565,   -1.072421e+01,   -6.500000e+01,   -2.447730e+00
   16566,   -1.072421e+01,   -6.750000e+01,   -2.447730e+00
   16567,   -1.072421e+01,   -7.000000e+01,   -2.447730e+00
   16568,   -1.072421e+01,   -7.250000e+01,   -2.447730e+00
   16569,   -1.072421e+01,   -7.500000e+01,   -2.447730e+00
   16570,   -1.072421e+01,   -7.750000e+01,   -2.447730e+00
   18496,   -1.128571e+01,    6.666670e+00,    0.000000e+00
   18497,   -1.257143e+01,    6.666670e+00,    0.000000e+00
   18498,   -1.385714e+01,    6.666670e+00,    0.000000e+00
   18499,   -1.514286e+01,    6.666670e+00,    0.000000e+00
   18500,   -1.642857e+01,    6.666670e+00,    0.000000e+00
   18501,   -1.771429e+01,    6.666670e+00,    0.000000e+00
   18502,   -2.511308e+00,    6.666670e+00,   -1.100276e+01
   18503,   -2.797406e+00,    6.666670e+00,   -1.225624e+01
   18504,   -3.083504e+00,    6.666670e+00,   -1.350972e+01
   18505,   -3.369603e+00,    6.666670e+00,   -1.476319e+01
   18506,   -3.655701e+00,    6.666670e+00,   -1.601667e+01
   18507,   -3.941799e+00,    6.666670e+00,   -1.727015e+01
   18508,   -4.896688e+00,    6.666670e+00,   -1.016808e+01
   18509,   -5.454538e+00,    6.666670e+00,   -1.132647e+01
   18510,   -6.012389e+00,    6.666670e+00,   -1.248485e+01
   18511,   -6.570239e+00,    6.666670e+00,   -1.364324e+01
   18512,   -7.128090e+00,    6.666670e+00,   -1.480163e+01
   18513,   -7.685941e+00,    6.666670e+00,   -1.596002e+01
   18514,   -7.036528e+00,    6.666670e+00,   -8.823527e+00
   18515,   -7.838158e+00,    6.666670e+00,   -9.828739e+00
   18516,   -8.639787e+00,    6.666670e+00,   -1.083395e+01
   18517,   -9.441417e+00,    6.666670e+00,   -1.183916e+01
   18518,   -1.024305e+01,    6.666670e+00,   -1.284437e+01
   18519,   -1.104468e+01,    6.666670e+00,   -1.384959e+01
   18520,   -8.823527e+00,    6.666670e+00,   -7.036528e+00
   18521,   -9.828739e+00,    6.666670e+00,   -7.838158e+00
   18522,   -1.083395e+01,    6.666670e+00,   -8.639787e+00
   18523,   -1.183916e+01,    6.666670e+00,   -9.441417e+00
   18524,   -1.284437e+01,    6.666670e+00,   -1.024305e+01
   18525,   -1.384959e+01,    6.666670e+00,   -1.104468e+01
   18526,   -1.016808e+01,    6.666670e+00,   -4.896688e+00
   18527,   -1.132647e+01,    6.666670e+00,   -5.454538e+00
   18528,   -1.248485e+01,    6.666670e+00,   -6.012389e+00
   18529,   -1.364324e+01,    6.666670e+00,   -6.570239e+00
   18530,   -1.480163e+01,    6.666670e+00,   -7.128090e+00
   18531,   -1.596002e+01,    6.666670e+00,   -7.685941e+00
   18532,   -1.100276e+01,    6.666670e+00,   -2.511308e+00
   18533,   -1.225624e+01,    6.666670e+00,   -2.797406e+00
   18534,   -1.350972e+01,    6.666670e+00,   -3.083504e+00
   18535,   -1.476319e+01,    6.666670e+00,   -3.369603e+00
   18536,   -1.601667e+01,    6.666670e+00,   -3.655701e+00
   18537,   -1.727015e+01,    6.666670e+00,   -3.941799e+00
   18538,   -1.771429e+01,    0.000000e+00,    0.000000e+00
   18539,   -1.642857e+01,    0.000000e+00,    0.000000e+00
   18540,   -1.514286e+01,    0.000000e+00,    0.000000e+00
   18541,   -1.385714e+01,    0.000000e+00,    0.000000e+00
   18542,   -1.257143e+01,    0.000000e+00,    0.000000e+00
   18543,   -1.128571e+01,    0.000000e+00,    0.000000e+00
   18544,   -1.771429e+01,    4.444447e+00,    0.000000e+00
   18545,   -1.771429e+01,    2.222223e+00,    0.000000e+00
   18546,   -1.642857e+01,    4.444447e+00,    0.000000e+00
   18547,   -1.642857e+01,    2.222223e+00,    0.000000e+00
   18548,   -1.514286e+01,    4.444447e+00,    0.000000e+00
   18549,   -1.514286e+01,    2.222223e+00,    0.000000e+00
   18550,   -1.385714e+01,    4.444447e+00,    0.000000e+00
   18551,   -1.385714e+01,    2.222223e+00,    0.000000e+00
   18552,   -1.257143e+01,    4.444447e+00,    0.000000e+00
   18553,   -1.257143e+01,    2.222223e+00,    0.000000e+00
   18554,   -1.128571e+01,    4.444447e+00,    0.000000e+00
   18555,   -1.128571e+01,    2.222223e+00,    0.000000e+00
   18556,   -3.941799e+00,    0.000000e+00,   -1.727015e+01
   18557,   -3.655701e+00,    0.000000e+00,   -1.601667e+01
   18558,   -3.369603e+00,    0.000000e+00,   -1.476319e+01
   18559,   -3.083504e+00,    0.000000e+00,   -1.350972e+01
   18560,   -2.797406e+00,    0.000000e+00,   -1.225624e+01
   18561,   -2.511308e+00,    0.000000e+00,   -1.100276e+01
   18562,   -7.685941e+00,    0.000000e+00,   -1.596002e+01
   18563,   -7.128090e+00,    0.000000e+00,   -1.480163e+01
   18564,   -6.570239e+00,    0.000000e+00,   -1.364324e+01
   18565,   -6.012389e+00,    0.000000e+00,   -1.248485e+01
   18566,   -5.454538e+00,    0.000000e+00,   -1.132647e+01
   18567,   -4.896688e+00,    0.000000e+00,   -1.016808e+01
   18568,   -1.104468e+01,    0.000000e+00,   -1.384959e+01
   18569,   -1.024305e+01,    0.000000e+00,   -1.284437e+01
   18570,   -9.441417e+00,    0.000000e+00,   -1.183916e+01
   18571,   -8.639787e+00,    0.000000e+00,   -1.083395e+01
   18572,   -7.838158e+00,    0.000000e+00,   -9.828739e+00
   18573,   -7.036528e+00,    0.000000e+00,   -8.823527e+00
   18574,   -1.384959e+01,    0.000000e+00,   -1.104468e+01
   18575,   -1.284437e+01,    0.000000e+00,   -1.024305e+01
   18576,   -1.183916e+01,    0.000000e+00,   -9.441417e+00
   18577,   -1.083395e+01,    0.000000e+00,   -8.639787e+00
   18578,   -9.828739e+00,    0.000000e+00,   -7.838158e+00
   18579,   -8.823527e+00,    0.000000e+00,   -7.036528e+00
   18580,   -1.596002e+01,    0.000000e+00,   -7.685941e+00
   18581,   -1.480163e+01,    0.000000e+00,   -7.128090e+00
   18582,   -1.364324e+01,    0.000000e+00,   -6.570239e+00
   18583,   -1.248485e+01,    0.000000e+00,   -6.012389e+00
   18584,   -1.132647e+01,    0.000000e+00,   -5.454538e+00
   18585,   -1.016808e+01,    0.000000e+00,   -4.896688e+00
   18586,   -1.727015e+01,    0.000000e+00,   -3.941799e+00
   18587,   -1.601667e+01,    0.000000e+00,   -3.655701e+00
   18588,   -1.476319e+01,    0.000000e+00,   -3.369603e+00
   18589,   -1.350972e+01,    0.000000e+00,   -3.083504e+00
   18590,   -1.225624e+01,    0.000000e+00,   -2.797406e+00
   18591,   -1.100276e+01,    0.000000e+00,   -2.511308e+00
   18592,   -1.727015e+01,    4.444447e+00,   -3.941799e+00
   18593,   -1.601667e+01,    4.444447e+00,   -3.655701e+00
   18594,   -1.476319e+01,    4.444447e+00,   -3.369603e+00
   18595,   -1.350972e+01,    4.444447e+00,   -3.083504e+00
   18596,   -1.225624e+01,    4.444447e+00,   -2.797406e+00
   18597,   -1.100276e+01,    4.444447e+00,   -2.511308e+00
   18598,   -1.727015e+01,    2.222223e+00,   -3.941799e+00
   18599,   -1.601667e+01,    2.222223e+00,   -3.655701e+00
   18600,   -1.476319e+01,    2.222223e+00,   -3.369603e+00
   18601,   -1.350972e+01,    2.222223e+00,   -3.083504e+00
   18602,   -1.225624e+01,    2.222223e+00,   -2.797406e+00
   18603,   -1.100276e+01,    2.222223e+00,   -2.511308e+00
   18604,   -1.596002e+01,    4.444447e+00,   -7.685941e+00
   18605,   -1.480163e+01,    4.444447e+00,   -7.128090e+00
   18606,   -1.364324e+01,    4.444447e+00,   -6.570239e+00
   18607,   -1.248485e+01,    4.444447e+00,   -6.012389e+00
   18608,   -1.132647e+01,    4.444447e+00,   -5.454538e+00
   18609,   -1.016808e+01,    4.444447e+00,   -4.896688e+00
   18610,   -1.596002e+01,    2.222223e+00,   -7.685941e+00
   18611,   -1.480163e+01,    2.222223e+00,   -7.128090e+00
   18612,   -1.364324e+01,    2.222223e+00,   -6.570239e+00
   18613,   -1.248485e+01,    2.222223e+00,   -6.012389e+00
   18614,   -1.132647e+01,    2.222223e+00,   -5.454538e+00
   18615,   -1.016808e+01,    2.222223e+00,   -4.896688e+00
   18616,   -1.384959e+01,    4.444447e+00,   -1.104468e+01
   18617,   -1.284437e+01,    4.444447e+00,   -1.024305e+01
   18618,   -1.183916e+01,    4.444447e+00,   -9.441417e+00
   18619,   -1.083395e+01,    4.444447e+00,   -8.639787e+00
   18620,   -9.828739e+00,    4.444447e+00,   -7.838158e+00
   18621,   -8.823527e+00,    4.444447e+00,   -7.036528e+00
   18622,   -1.384959e+01,    2.222223e+00,   -1.104468e+01
   18623,   -1.284437e+01,    2.222223e+00,   -1.024305e+01
   18624,   -1.183916e+01,    2.222223e+00,   -9.441417e+00
   18625,   -1.083395e+01,    2.222223e+00,   -8.639787e+00
   18626,   -9.828739e+00,    2.222223e+00,   -7.838158e+00
   18627,   -8.823527e+00,    2.222223e+00,   -7.036528e+00
   18628,   -1.104468e+01,    4.444447e+00,   -1.384959e+01
   18629,   -1.024305e+01,    4.444447e+00,   -1.284437e+01
   18630,   -9.441417e+00,    4.444447e+00,   -1.183916e+01
   18631,   -8.639787e+00,    4.444447e+00,   -1.083395e+01
   18632,   -7.838158e+00,    4.444447e+00,   -9.828739e+00
   18633,   -7.036528e+00,    4.444447e+00,   -8.823527e+00
   18634,   -1.104468e+01,    2.222223e+00,   -1.384959e+01
   18635,   -1.024305e+01,    2.222223e+00,   -1.284437e+01
   18636,   -9.441417e+00,    2.222223e+00,   -1.183916e+01
   18637,   -8.639787e+00,    2.222223e+00,   -1.083395e+01
   18638,   -7.838158e+00,    2.222223e+00,   -9.828739e+00
   18639,   -7.036528e+00,    2.222223e+00,   -8.823527e+00
   18640,   -7.685941e+00,    4.444447e+00,   -1.596002e+01
   18641,   -7.128090e+00,    4.444447e+00,   -1.480163e+01
   18642,   -6.570239e+00,    4.444447e+00,   -1.364324e+01
   18643,   -6.012389e+00,    4.444447e+00,   -1.248485e+01
   18644,   -5.454538e+00,    4.444447e+00,   -1.132647e+01
   18645,   -4.896688e+00,    4.444447e+00,   -1.016808e+01
   18646,   -7.685941e+00,    2.222223e+00,   -1.596002e+01
   18647,   -7.128090e+00,    2.222223e+00,   -1.480163e+01
   18648,   -6.570239e+00,    2.222223e+00,   -1.364324e+01
   18649,   -6.012389e+00,    2.222223e+00,   -1.248485e+01
   18650,   -5.454538e+00,    2.222223e+00,   -1.132647e+01
   18651,   -4.896688e+00,    2.222223e+00,   -1.016808e+01
   18652,   -3.941799e+00,    4.444447e+00,   -1.727015e+01
   18653,   -3.655701e+00,    4.444447e+00,   -1.601667e+01
   18654,   -3.369603e+00,    4.444447e+00,   -1.476319e+01
   18655,   -3.083504e+00,    4.444447e+00,   -1.350972e+01
   18656,   -2.797406e+00,    4.444447e+00,   -1.225624e+01
   18657,   -2.511308e+00,    4.444447e+00,   -1.100276e+01
   18658,   -3.941799e+00,    2.222223e+00,   -1.727015e+01
   18659,   -3.655701e+00,    2.222223e+00,   -1.601667e+01
   18660,   -3.369603e+00,    2.222223e+00,   -1.476319e+01
   18661,   -3.083504e+00,    2.222223e+00,   -1.350972e+01
   18662,   -2.797406e+00,    2.222223e+00,   -1.225624e+01
   18663,   -2.511308e+00,    2.222223e+00,   -1.100276e+01
   18664,   -1.128571e+01,    2.000000e+01,    0.000000e+00
   18665,   -1.257143e+01,    2.000000e+01,    0.000000e+00
   18666,   -1.385714e+01,    2.000000e+01,    0.000000e+00
   18667,   -1.514286e+01,    2.000000e+01,    0.000000e+00
   18668,   -1.642857e+01,    2.000000e+01,    0.000000e+00
   18669,   -1.771429e+01,    2.000000e+01,    0.000000e+00
   18670,   -2.511308e+00,    2.000000e+01,   -1.100276e+01
   18671,   -2.797406e+00,    2.000000e+01,   -1.225624e+01
   18672,   -3.083504e+00,    2.000000e+01,   -1.350972e+01
   18673,   -3.369603e+00,    2.000000e+01,   -1.476319e+01
   18674,   -3.655701e+00,    2.000000e+01,   -1.601667e+01
   18675,   -3.941799e+00,    2.000000e+01,   -1.727015e+01
   18676,   -4.896688e+00,    2.000000e+01,   -1.016808e+01
   18677,   -5.454538e+00,    2.000000e+01,   -1.132647e+01
   18678,   -6.012389e+00,    2.000000e+01,   -1.248485e+01
   18679,   -6.570239e+00,    2.000000e+01,   -1.364324e+01
   18680,   -7.128090e+00,    2.000000e+01,   -1.480163e+01
   18681,   -7.685941e+00,    2.000000e+01,   -1.596002e+01
   18682,   -7.036528e+00,    2.000000e+01,   -8.823527e+00
   18683,   -7.838158e+00,    2.000000e+01,   -9.828739e+00
   18684,   -8.639787e+00,    2.000000e+01,   -1.083395e+01
   18685,   -9.441417e+00,    2.000000e+01,   -1.183916e+01
   18686,   -1.024305e+01,    2.000000e+01,   -1.284437e+01
   18687,   -1.104468e+01,    2.000000e+01,   -1.384959e+01
   18688,   -8.823527e+00,    2.000000e+01,   -7.036528e+00
   18689,   -9.828739e+00,    2.000000e+01,   -7.838158e+00
   18690,   -1.083395e+01,    2.000000e+01,   -8.639787e+00
   18691,   -1.183916e+01,    2.000000e+01,   -9.441417e+00
   18692,   -1.284437e+01,    2.000000e+01,   -1.024305e+01
   18693,   -1.384959e+01,    2.000000e+01,   -1.104468e+01
   18694,   -1.016808e+01,    2.000000e+01,   -4.896688e+00
   18695,   -1.132647e+01,    2.000000e+01,   -5.454538e+00
   18696,   -1.248485e+01,    2.000000e+01,   -6.012389e+00
   18697,   -1.364324e+01,    2.000000e+01,   -6.570239e+00
   18698,   -1.480163e+01,    2.000000e+01,   -7.128090e+00
   18699,   -1.596002e+01,    2.000000e+01,   -7.685941e+00
   18700,   -1.100276e+01,    2.000000e+01,   -2.511308e+00
   18701,   -1.225624e+01,    2.000000e+01,   -2.797406e+00
   18702,   -1.350972e+01,    2.000000e+01,   -3.083504e+00
   18703,   -1.476319e+01,    2.000000e+01,   -3.369603e+00
   18704,   -1.601667e+01,    2.000000e+01,   -3.655701e+00
   18705,   -1.727015e+01,    2.000000e+01,   -3.941799e+00
   18706,   -1.771429e+01,    1.777778e+01,    0.000000e+00
   18707,   -1.771429e+01,    1.555556e+01,    0.000000e+00
   18708,   -1.771429e+01,    1.333333e+01,    0.000000e+00
   18709,   -1.771429e+01,    1.111111e+01,    0.000000e+00
   18710,   -1.771429e+01,    8.888892e+00,    0.000000e+00
   18711,   -1.642857e+01,    1.777778e+01,    0.000000e+00
   18712,   -1.642857e+01,    1.555556e+01,    0.000000e+00
   18713,   -1.642857e+01,    1.333333e+01,    0.000000e+00
   18714,   -1.642857e+01,    1.111111e+01,    0.000000e+00
   18715,   -1.642857e+01,    8.888892e+00,    0.000000e+00
   18716,   -1.514286e+01,    1.777778e+01,    0.000000e+00
   18717,   -1.514286e+01,    1.555556e+01,    0.000000e+00
   18718,   -1.514286e+01,    1.333333e+01,    0.000000e+00
   18719,   -1.514286e+01,    1.111111e+01,    0.000000e+00
   18720,   -1.514286e+01,    8.888892e+00,    0.000000e+00
   18721,   -1.385714e+01,    1.777778e+01,    0.000000e+00
   18722,   -1.385714e+01,    1.555556e+01,    0.000000e+00
   18723,   -1.385714e+01,    1.333333e+01,    0.000000e+00
   18724,   -1.385714e+01,    1.111111e+01,    0.000000e+00
   18725,   -1.385714e+01,    8.888892e+00,    0.000000e+00
   18726,   -1.257143e+01,    1.777778e+01,    0.000000e+00
   18727,   -1.257143e+01,    1.555556e+01,    0.000000e+00
   18728,   -1.257143e+01,    1.333333e+01,    0.000000e+00
   18729,   -1.257143e+01,    1.111111e+01,    0.000000e+00
   18730,   -1.257143e+01,    8.888892e+00,    0.000000e+00
   18731,   -1.128571e+01,    1.777778e+01,    0.000000e+00
   18732,   -1.128571e+01,    1.555556e+01,    0.000000e+00
   18733,   -1.128571e+01,    1.333333e+01,    0.000000e+00
   18734,   -1.128571e+01,    1.111111e+01,    0.000000e+00
   18735,   -1.128571e+01,    8.888892e+00,    0.000000e+00
   18736,   -1.727015e+01,    1.777778e+01,   -3.941799e+00
   18737,   -1.601667e+01,    1.777778e+01,   -3.655701e+00
   18738,   -1.476319e+01,    1.777778e+01,   -3.369603e+00
   18739,   -1.350972e+01,    1.777778e+01,   -3.083504e+00
   18740,   -1.225624e+01,    1.777778e+01,   -2.797406e+00
   18741,   -1.100276e+01,    1.777778e+01,   -2.511308e+00
   18742,   -1.727015e+01,    1.555556e+01,   -3.941799e+00
   18743,   -1.601667e+01,    1.555556e+01,   -3.655701e+00
   18744,   -1.476319e+01,    1.555556e+01,   -3.369603e+00
   18745,   -1.350972e+01,    1.555556e+01,   -3.083504e+00
   18746,   -1.225624e+01,    1.555556e+01,   -2.797406e+00
   18747,   -1.100276e+01,    1.555556e+01,   -2.511308e+00
   18748,   -1.727015e+01,    1.333333e+01,   -3.941799e+00
   18749,   -1.601667e+01,    1.333333e+01,   -3.655701e+00
   18750,   -1.476319e+01,    1.333333e+01,   -3.369603e+00
   18751,   -1.350972e+01,    1.333333e+01,   -3.083504e+00
   18752,   -1.225624e+01,    1.333333e+01,   -2.797406e+00
   18753,   -1.100276e+01,    1.333333e+01,   -2.511308e+00
   18754,   -1.727015e+01,    1.111111e+01,   -3.941799e+00
   18755,   -1.601667e+01,    1.111111e+01,   -3.655701e+00
   18756,   -1.476319e+01,    1.111111e+01,   -3.369603e+00
   18757,   -1.350972e+01,    1.111111e+01,   -3.083504e+00
   18758,   -1.225624e+01,    1.111111e+01,   -2.797406e+00
   18759,   -1.100276e+01,    1.111111e+01,   -2.511308e+00
   18760,   -1.727015e+01,    8.888892e+00,   -3.941799e+00
   18761,   -1.601667e+01,    8.888892e+00,   -3.655701e+00
   18762,   -1.476319e+01,    8.888892e+00,   -3.369603e+00
   18763,   -1.350972e+01,    8.888892e+00,   -3.083504e+00
   18764,   -1.225624e+01,    8.888892e+00,   -2.797406e+00
   18765,   -1.100276e+01,    8.888892e+00,   -2.511308e+00
   18766,   -1.596002e+01,    1.777778e+01,   -7.685941e+00
   18767,   -1.480163e+01,    1.777778e+01,   -7.128090e+00
   18768,   -1.364324e+01,    1.777778e+01,   -6.570239e+00
   18769,   -1.248485e+01,    1.777778e+01,   -6.012389e+00
   18770,   -1.132647e+01,    1.777778e+01,   -5.454538e+00
   18771,   -1.016808e+01,    1.777778e+01,   -4.896688e+00
   18772,   -1.596002e+01,    1.555556e+01,   -7.685941e+00
   18773,   -1.480163e+01,    1.555556e+01,   -7.128090e+00
   18774,   -1.364324e+01,    1.555556e+01,   -6.570239e+00
   18775,   -1.248485e+01,    1.555556e+01,   -6.012389e+00
   18776,   -1.132647e+01,    1.555556e+01,   -5.454538e+00
   18777,   -1.016808e+01,    1.555556e+01,   -4.896688e+00
   18778,   -1.596002e+01,    1.333333e+01,   -7.685941e+00
   18779,   -1.480163e+01,    1.333333e+01,   -7.128090e+00
   18780,   -1.364324e+01,    1.333334e+01,   -6.570239e+00
   18781,   -1.248485e+01,    1.333334e+01,   -6.012389e+00
   18782,   -1.132647e+01,    1.333333e+01,   -5.454538e+00
   18783,   -1.016808e+01,    1.333333e+01,   -4.896688e+00
   18784,   -1.596002e+01,    1.111111e+01,   -7.685941e+00
   18785,   -1.480163e+01,    1.111111e+01,   -7.128090e+00
   18786,   -1.364324e+01,    1.111111e+01,   -6.570239e+00
   18787,   -1.248485e+01,    1.111111e+01,   -6.012389e+00
   18788,   -1.132647e+01,    1.111111e+01,   -5.454538e+00
   18789,   -1.016808e+01,    1.111111e+01,   -4.896688e+00
   18790,   -1.596002e+01,    8.888892e+00,   -7.685941e+00
   18791,   -1.480163e+01,    8.888892e+00,   -7.128090e+00
   18792,   -1.364324e+01,    8.888892e+00,   -6.570239e+00
   18793,   -1.248485e+01,    8.888892e+00,   -6.012389e+00
   18794,   -1.132647e+01,    8.888892e+00,   -5.454538e+00
   18795,   -1.016808e+01,    8.888892e+00,   -4.896688e+00
   18796,   -1.384959e+01,    1.777778e+01,   -1.104468e+01
   18797,   -1.284437e+01,    1.777778e+01,   -1.024305e+01
   18798,   -1.183916e+01,    1.777778e+01,   -9.441417e+00
   18799,   -1.083395e+01,    1.777778e+01,   -8.639787e+00
   18800,   -9.828739e+00,    1.777778e+01,   -7.838158e+00
   18801,   -8.823527e+00,    1.777778e+01,   -7.036528e+00
   18802,   -1.384959e+01,    1.555556e+01,   -1.104468e+01
   18803,   -1.284437e+01,    1.555556e+01,   -1.024305e+01
   18804,   -1.183916e+01,    1.555556e+01,   -9.441417e+00
   18805,   -1.083395e+01,    1.555556e+01,   -8.639787e+00
   18806,   -9.828739e+00,    1.555556e+01,   -7.838158e+00
   18807,   -8.823527e+00,    1.555556e+01,   -7.036528e+00
   18808,   -1.384959e+01,    1.333333e+01,   -1.104468e+01
   18809,   -1.284437e+01,    1.333333e+01,   -1.024305e+01
   18810,   -1.183916e+01,    1.333333e+01,   -9.441417e+00
   18811,   -1.083395e+01,    1.333333e+01,   -8.639787e+00
   18812,   -9.828739e+00,    1.333334e+01,   -7.838158e+00
   18813,   -8.823527e+00,    1.333333e+01,   -7.036528e+00
   18814,   -1.384959e+01,    1.111111e+01,   -1.104468e+01
   18815,   -1.284437e+01,    1.111111e+01,   -1.024305e+01
   18816,   -1.183916e+01,    1.111111e+01,   -9.441417e+00
   18817,   -1.083395e+01,    1.111111e+01,   -8.639787e+00
   18818,   -9.828739e+00,    1.111111e+01,   -7.838158e+00
   18819,   -8.823527e+00,    1.111111e+01,   -7.036528e+00
   18820,   -1.384959e+01,    8.888892e+00,   -1.104468e+01
   18821,   -1.284437e+01,    8.888892e+00,   -1.024305e+01
   18822,   -1.183916e+01,    8.888892e+00,   -9.441417e+00
   18823,   -1.083395e+01,    8.888892e+00,   -8.639787e+00
   18824,   -9.828739e+00,    8.888892e+00,   -7.838158e+00
   18825,   -8.823527e+00,    8.888892e+00,   -7.036528e+00
   18826,   -1.104468e+01,    1.777778e+01,   -1.384959e+01
   18827,   -1.024305e+01,    1.777778e+01,   -1.284437e+01
   18828,   -9.441417e+00,    1.777778e+01,   -1.183916e+01
   18829,   -8.639787e+00,    1.777778e+01,   -1.083395e+01
   18830,   -7.838158e+00,    1.777778e+01,   -9.828739e+00
   18831,   -7.036528e+00,    1.777778e+01,   -8.823527e+00
   18832,   -1.104468e+01,    1.555556e+01,   -1.384959e+01
   18833,   -1.024305e+01,    1.555556e+01,   -1.284437e+01
   18834,   -9.441417e+00,    1.555556e+01,   -1.183916e+01
   18835,   -8.639787e+00,    1.555556e+01,   -1.083395e+01
   18836,   -7.838158e+00,    1.555556e+01,   -9.828739e+00
   18837,   -7.036528e+00,    1.555556e+01,   -8.823527e+00
   18838,   -1.104468e+01,    1.333334e+01,   -1.384959e+01
   18839,   -1.024305e+01,    1.333334e+01,   -1.284437e+01
   18840,   -9.441417e+00,    1.333334e+01,   -1.183916e+01
   18841,   -8.639787e+00,    1.333333e+01,   -1.083395e+01
   18842,   -7.838158e+00,    1.333333e+01,   -9.828739e+00
   18843,   -7.036528e+00,    1.333333e+01,   -8.823527e+00
   18844,   -1.104468e+01,    1.111111e+01,   -1.384959e+01
   18845,   -1.024305e+01,    1.111111e+01,   -1.284437e+01
   18846,   -9.441417e+00,    1.111111e+01,   -1.183916e+01
   18847,   -8.639787e+00,    1.111111e+01,   -1.083395e+01
   18848,   -7.838158e+00,    1.111111e+01,   -9.828739e+00
   18849,   -7.036528e+00,    1.111111e+01,   -8.823527e+00
   18850,   -1.104468e+01,    8.888892e+00,   -1.384959e+01
   18851,   -1.024305e+01,    8.888892e+00,   -1.284437e+01
   18852,   -9.441417e+00,    8.888892e+00,   -1.183916e+01
   18853,   -8.639787e+00,    8.888892e+00,   -1.083395e+01
   18854,   -7.838158e+00,    8.888892e+00,   -9.828739e+00
   18855,   -7.036528e+00,    8.888892e+00,   -8.823527e+00
   18856,   -7.685941e+00,    1.777778e+01,   -1.596002e+01
   18857,   -7.128090e+00,    1.777778e+01,   -1.480163e+01
   18858,   -6.570239e+00,    1.777778e+01,   -1.364324e+01
   18859,   -6.012389e+00,    1.777778e+01,   -1.248485e+01
   18860,   -5.454538e+00,    1.777778e+01,   -1.132647e+01
   18861,   -4.896688e+00,    1.777778e+01,   -1.016808e+01
   18862,   -7.685941e+00,    1.555556e+01,   -1.596002e+01
   18863,   -7.128090e+00,    1.555556e+01,   -1.480163e+01
   18864,   -6.570239e+00,    1.555556e+01,   -1.364324e+01
   18865,   -6.012389e+00,    1.555556e+01,   -1.248485e+01
   18866,   -5.454538e+00,    1.555556e+01,   -1.132647e+01
   18867,   -4.896688e+00,    1.555556e+01,   -1.016808e+01
   18868,   -7.685941e+00,    1.333334e+01,   -1.596002e+01
   18869,   -7.128090e+00,    1.333333e+01,   -1.480163e+01
   18870,   -6.570239e+00,    1.333333e+01,   -1.364324e+01
   18871,   -6.012389e+00,    1.333334e+01,   -1.248485e+01
   18872,   -5.454538e+00,    1.333334e+01,   -1.132647e+01
   18873,   -4.896688e+00,    1.333333e+01,   -1.016808e+01
   18874,   -7.685941e+00,    1.111111e+01,   -1.596002e+01
   18875,   -7.128090e+00,    1.111111e+01,   -1.480163e+01
   18876,   -6.570239e+00,    1.111111e+01,   -1.364324e+01
   18877,   -6.012389e+00,    1.111111e+01,   -1.248485e+01
   18878,   -5.454538e+00,    1.111111e+01,   -1.132647e+01
   18879,   -4.896688e+00,    1.111111e+01,   -1.016808e+01
   18880,   -7.685941e+00,    8.888892e+00,   -1.596002e+01
   18881,   -7.128090e+00,    8.888892e+00,   -1.480163e+01
   18882,   -6.570239e+00,    8.888892e+00,   -1.364324e+01
   18883,   -6.012389e+00,    8.888892e+00,   -1.248485e+01
   18884,   -5.454538e+00,    8.888892e+00,   -1.132647e+01
   18885,   -4.896688e+00,    8.888892e+00,   -1.016808e+01
   18886,   -3.941799e+00,    1.777778e+01,   -1.727015e+01
   18887,   -3.655701e+00,    1.777778e+01,   -1.601667e+01
   18888,   -3.369603e+00,    1.777778e+01,   -1.476319e+01
   18889,   -3.083504e+00,    1.777778e+01,   -1.350972e+01
   18890,   -2.797406e+00,    1.777778e+01,   -1.225624e+01
   18891,   -2.511308e+00,    1.777778e+01,   -1.100276e+01
   18892,   -3.941799e+00,    1.555556e+01,   -1.727015e+01
   18893,   -3.655701e+00,    1.555556e+01,   -1.601667e+01
   18894,   -3.369603e+00,    1.555556e+01,   -1.476319e+01
   18895,   -3.083504e+00,    1.555556e+01,   -1.350972e+01
   18896,   -2.797406e+00,    1.555556e+01,   -1.225624e+01
   18897,   -2.511308e+00,    1.555556e+01,   -1.100276e+01
   18898,   -3.941799e+00,    1.333333e+01,   -1.727015e+01
   18899,   -3.655701e+00,    1.333333e+01,   -1.601667e+01
   18900,   -3.369603e+00,    1.333334e+01,   -1.476319e+01
   18901,   -3.083504e+00,    1.333333e+01,   -1.350972e+01
   18902,   -2.797406e+00,    1.333333e+01,   -1.225624e+01
   18903,   -2.511308e+00,    1.333333e+01,   -1.100276e+01
   18904,   -3.941799e+00,    1.111111e+01,   -1.727015e+01
   18905,   -3.655701e+00,    1.111111e+01,   -1.601667e+01
   18906,   -3.369603e+00,    1.111111e+01,   -1.476319e+01
   18907,   -3.083504e+00,    1.111111e+01,   -1.350972e+01
   18908,   -2.797406e+00,    1.111111e+01,   -1.225624e+01
   18909,   -2.511308e+00,    1.111111e+01,   -1.100276e+01
   18910,   -3.941799e+00,    8.888892e+00,   -1.727015e+01
   18911,   -3.655701e+00,    8.888892e+00,   -1.601667e+01
   18912,   -3.369603e+00,    8.888892e+00,   -1.476319e+01
   18913,   -3.083504e+00,    8.888892e+00,   -1.350972e+01
   18914,   -2.797406e+00,    8.888892e+00,   -1.225624e+01
   18915,   -2.511308e+00,    8.888892e+00,   -1.100276e+01
********************************** E L E M E N T S ****************************
*ELEMENT, TYPE=C3D8I, ELSET=anchor
       1,    5099,    5069,    5050,    5090,    4510,    4503,    4502,    4505
       2,    5100,    5088,    5069,    5099,    4509,    4504,    4503,    4510
       3,    4950,    4892,    5088,    5100,    4495,    4494,    4504,    4509
       4,    5098,    4931,    4950,    5100,    4516,    4496,    4495,    4509
       5,    5097,    5098,    5100,    5099,    4515,    4516,    4509,    4510
       6,    5089,    5097,    5099,    5090,    4508,    4515,    4510,    4505
       7,    5096,    4912,    4931,    5098,    4514,    4497,    4496,    4516
       8,    5095,    5096,    5098,    5097,    4513,    4514,    4516,    4515
       9,    5091,    5095,    5097,    5089,    4507,    4513,    4515,    4508
      10,    5094,    4893,    4912,    5096,    4512,    4498,    4497,    4514
      11,    5093,    5094,    5096,    5095,    4511,    4512,    4514,    4513
      12,    5092,    5093,    5095,    5091,    4506,    4511,    4513,    4507
      13,    4850,    4793,    4893,    5094,    4493,    4490,    4498,    4512
      14,    4831,    4850,    5094,    5093,    4492,    4493,    4512,    4511
      15,    4812,    4831,    5093,    5092,    4491,    4492,    4511,    4506
      16,    4993,    4788,    4812,    5092,    4499,    4489,    4491,    4506
      17,    5012,    4993,    5092,    5091,    4500,    4499,    4506,    4507
      18,    5031,    5012,    5091,    5089,    4501,    4500,    4507,    4508
      19,    5050,    5031,    5089,    5090,    4502,    4501,    4508,    4505
      20,    5111,    5068,    5049,    5102,    5099,    5069,    5050,    5090
      21,    5112,    5087,    5068,    5111,    5100,    5088,    5069,    5099
      22,    4951,    4891,    5087,    5112,    4950,    4892,    5088,    5100
      23,    5110,    4932,    4951,    5112,    5098,    4931,    4950,    5100
      24,    5109,    5110,    5112,    5111,    5097,    5098,    5100,    5099
      25,    5101,    5109,    5111,    5102,    5089,    5097,    5099,    5090
      26,    5108,    4913,    4932,    5110,    5096,    4912,    4931,    5098
      27,    5107,    5108,    5110,    5109,    5095,    5096,    5098,    5097
      28,    5103,    5107,    5109,    5101,    5091,    5095,    5097,    5089
      29,    5106,    4894,    4913,    5108,    5094,    4893,    4912,    5096
      30,    5105,    5106,    5108,    5107,    5093,    5094,    5096,    5095
      31,    5104,    5105,    5107,    5103,    5092,    5093,    5095,    5091
      32,    4851,    4794,    4894,    5106,    4850,    4793,    4893,    5094
      33,    4832,    4851,    5106,    5105,    4831,    4850,    5094,    5093
      34,    4813,    4832,    5105,    5104,    4812,    4831,    5093,    5092
      35,    4992,    4787,    4813,    5104,    4993,    4788,    4812,    5092
      36,    5011,    4992,    5104,    5103,    5012,    4993,    5092,    5091
      37,    5030,    5011,    5103,    5101,    5031,    5012,    5091,    5089
      38,    5049,    5030,    5101,    5102,    5050,    5031,    5089,    5090
      39,    5123,    5067,    5048,    5114,    5111,    5068,    5049,    5102
      40,    5124,    5086,    5067,    5123,    5112,    5087,    5068,    5111
      41,    4952,    4890,    5086,    5124,    4951,    4891,    5087,    5112
      42,    5122,    4933,    4952,    5124,    5110,    4932,    4951,    5112
      43,    5121,    5122,    5124,    5123,    5109,    5110,    5112,    5111
      44,    5113,    5121,    5123,    5114,    5101,    5109,    5111,    5102
      45,    5120,    4914,    4933,    5122,    5108,    4913,    4932,    5110
      46,    5119,    5120,    5122,    5121,    5107,    5108,    5110,    5109
      47,    5115,    5119,    5121,    5113,    5103,    5107,    5109,    5101
      48,    5118,    4895,    4914,    5120,    5106,    4894,    4913,    5108
      49,    5117,    5118,    5120,    5119,    5105,    5106,    5108,    5107
      50,    5116,    5117,    5119,    5115,    5104,    5105,    5107,    5103
      51,    4852,    4795,    4895,    5118,    4851,    4794,    4894,    5106
      52,    4833,    4852,    5118,    5117,    4832,    4851,    5106,    5105
      53,    4814,    4833,    5117,    5116,    4813,    4832,    5105,    5104
      54,    4991,    4786,    4814,    5116,    4992,    4787,    4813,    5104
      55,    5010,    4991,    5116,    5115,    5011,    4992,    5104,    5103
      56,    5029,    5010,    5115,    5113,    5030,    5011,    5103,    5101
      57,    5048,    5029,    5113,    5114,    5049,    5030,    5101,    5102
      58,    5135,    5066,    5047,    5126,    5123,    5067,    5048,    5114
      59,    5136,    5085,    5066,    5135,    5124,    5086,    5067,    5123
      60,    4953,    4889,    5085,    5136,    4952,    4890,    5086,    5124
      61,    5134,    4934,    4953,    5136,    5122,    4933,    4952,    5124
      62,    5133,    5134,    5136,    5135,    5121,    5122,    5124,    5123
      63,    5125,    5133,    5135,    5126,    5113,    5121,    5123,    5114
      64,    5132,    4915,    4934,    5134,    5120,    4914,    4933,    5122
      65,    5131,    5132,    5134,    5133,    5119,    5120,    5122,    5121
      66,    5127,    5131,    5133,    5125,    5115,    5119,    5121,    5113
      67,    5130,    4896,    4915,    5132,    5118,    4895,    4914,    5120
      68,    5129,    5130,    5132,    5131,    5117,    5118,    5120,    5119
      69,    5128,    5129,    5131,    5127,    5116,    5117,    5119,    5115
      70,    4853,    4796,    4896,    5130,    4852,    4795,    4895,    5118
      71,    4834,    4853,    5130,    5129,    4833,    4852,    5118,    5117
      72,    4815,    4834,    5129,    5128,    4814,    4833,    5117,    5116
      73,    4990,    4785,    4815,    5128,    4991,    4786,    4814,    5116
      74,    5009,    4990,    5128,    5127,    5010,    4991,    5116,    5115
      75,    5028,    5009,    5127,    5125,    5029,    5010,    5115,    5113
      76,    5047,    5028,    5125,    5126,    5048,    5029,    5113,    5114
      77,    5147,    5065,    5046,    5138,    5135,    5066,    5047,    5126
      78,    5148,    5084,    5065,    5147,    5136,    5085,    5066,    5135
      79,    4954,    4888,    5084,    5148,    4953,    4889,    5085,    5136
      80,    5146,    4935,    4954,    5148,    5134,    4934,    4953,    5136
      81,    5145,    5146,    5148,    5147,    5133,    5134,    5136,    5135
      82,    5137,    5145,    5147,    5138,    5125,    5133,    5135,    5126
      83,    5144,    4916,    4935,    5146,    5132,    4915,    4934,    5134
      84,    5143,    5144,    5146,    5145,    5131,    5132,    5134,    5133
      85,    5139,    5143,    5145,    5137,    5127,    5131,    5133,    5125
      86,    5142,    4897,    4916,    5144,    5130,    4896,    4915,    5132
      87,    5141,    5142,    5144,    5143,    5129,    5130,    5132,    5131
      88,    5140,    5141,    5143,    5139,    5128,    5129,    5131,    5127
      89,    4854,    4797,    4897,    5142,    4853,    4796,    4896,    5130
      90,    4835,    4854,    5142,    5141,    4834,    4853,    5130,    5129
      91,    4816,    4835,    5141,    5140,    4815,    4834,    5129,    5128
      92,    4989,    4784,    4816,    5140,    4990,    4785,    4815,    5128
      93,    5008,    4989,    5140,    5139,    5009,    4990,    5128,    5127
      94,    5027,    5008,    5139,    5137,    5028,    5009,    5127,    5125
      95,    5046,    5027,    5137,    5138,    5047,    5028,    5125,    5126
      96,    5159,    5064,    5045,    5150,    5147,    5065,    5046,    5138
      97,    5160,    5083,    5064,    5159,    5148,    5084,    5065,    5147
      98,    4955,    4887,    5083,    5160,    4954,    4888,    5084,    5148
      99,    5158,    4936,    4955,    5160,    5146,    4935,    4954,    5148
     100,    5157,    5158,    5160,    5159,    5145,    5146,    5148,    5147
     101,    5149,    5157,    5159,    5150,    5137,    5145,    5147,    5138
     102,    5156,    4917,    4936,    5158,    5144,    4916,    4935,    5146
     103,    5155,    5156,    5158,    5157,    5143,    5144,    5146,    5145
     104,    5151,    5155,    5157,    5149,    5139,    5143,    5145,    5137
     105,    5154,    4898,    4917,    5156,    5142,    4897,    4916,    5144
     106,    5153,    5154,    5156,    5155,    5141,    5142,    5144,    5143
     107,    5152,    5153,    5155,    5151,    5140,    5141,    5143,    5139
     108,    4855,    4798,    4898,    5154,    4854,    4797,    4897,    5142
     109,    4836,    4855,    5154,    5153,    4835,    4854,    5142,    5141
     110,    4817,    4836,    5153,    5152,    4816,    4835,    5141,    5140
     111,    4988,    4783,    4817,    5152,    4989,    4784,    4816,    5140
     112,    5007,    4988,    5152,    5151,    5008,    4989,    5140,    5139
     113,    5026,    5007,    5151,    5149,    5027,    5008,    5139,    5137
     114,    5045,    5026,    5149,    5150,    5046,    5027,    5137,    5138
     115,    5171,    5063,    5044,    5162,    5159,    5064,    5045,    5150
     116,    5172,    5082,    5063,    5171,    5160,    5083,    5064,    5159
     117,    4956,    4886,    5082,    5172,    4955,    4887,    5083,    5160
     118,    5170,    4937,    4956,    5172,    5158,    4936,    4955,    5160
     119,    5169,    5170,    5172,    5171,    5157,    5158,    5160,    5159
     120,    5161,    5169,    5171,    5162,    5149,    5157,    5159,    5150
     121,    5168,    4918,    4937,    5170,    5156,    4917,    4936,    5158
     122,    5167,    5168,    5170,    5169,    5155,    5156,    5158,    5157
     123,    5163,    5167,    5169,    5161,    5151,    5155,    5157,    5149
     124,    5166,    4899,    4918,    5168,    5154,    4898,    4917,    5156
     125,    5165,    5166,    5168,    5167,    5153,    5154,    5156,    5155
     126,    5164,    5165,    5167,    5163,    5152,    5153,    5155,    5151
     127,    4856,    4799,    4899,    5166,    4855,    4798,    4898,    5154
     128,    4837,    4856,    5166,    5165,    4836,    4855,    5154,    5153
     129,    4818,    4837,    5165,    5164,    4817,    4836,    5153,    5152
     130,    4987,    4782,    4818,    5164,    4988,    4783,    4817,    5152
     131,    5006,    4987,    5164,    5163,    5007,    4988,    5152,    5151
     132,    5025,    5006,    5163,    5161,    5026,    5007,    5151,    5149
     133,    5044,    5025,    5161,    5162,    5045,    5026,    5149,    5150
     134,    5183,    5062,    5043,    5174,    5171,    5063,    5044,    5162
     135,    5184,    5081,    5062,    5183,    5172,    5082,    5063,    5171
     136,    4957,    4885,    5081,    5184,    4956,    4886,    5082,    5172
     137,    5182,    4938,    4957,    5184,    5170,    4937,    4956,    5172
     138,    5181,    5182,    5184,    5183,    5169,    5170,    5172,    5171
     139,    5173,    5181,    5183,    5174,    5161,    5169,    5171,    5162
     140,    5180,    4919,    4938,    5182,    5168,    4918,    4937,    5170
     141,    5179,    5180,    5182,    5181,    5167,    5168,    5170,    5169
     142,    5175,    5179,    5181,    5173,    5163,    5167,    5169,    5161
     143,    5178,    4900,    4919,    5180,    5166,    4899,    4918,    5168
     144,    5177,    5178,    5180,    5179,    5165,    5166,    5168,    5167
     145,    5176,    5177,    5179,    5175,    5164,    5165,    5167,    5163
     146,    4857,    4800,    4900,    5178,    4856,    4799,    4899,    5166
     147,    4838,    4857,    5178,    5177,    4837,    4856,    5166,    5165
     148,    4819,    4838,    5177,    5176,    4818,    4837,    5165,    5164
     149,    4986,    4781,    4819,    5176,    4987,    4782,    4818,    5164
     150,    5005,    4986,    5176,    5175,    5006,    4987,    5164,    5163
     151,    5024,    5005,    5175,    5173,    5025,    5006,    5163,    5161
     152,    5043,    5024,    5173,    5174,    5044,    5025,    5161,    5162
     153,    5195,    5061,    5042,    5186,    5183,    5062,    5043,    5174
     154,    5196,    5080,    5061,    5195,    5184,    5081,    5062,    5183
     155,    4958,    4884,    5080,    5196,    4957,    4885,    5081,    5184
     156,    5194,    4939,    4958,    5196,    5182,    4938,    4957,    5184
     157,    5193,    5194,    5196,    5195,    5181,    5182,    5184,    5183
     158,    5185,    5193,    5195,    5186,    5173,    5181,    5183,    5174
     159,    5192,    4920,    4939,    5194,    5180,    4919,    4938,    5182
     160,    5191,    5192,    5194,    5193,    5179,    5180,    5182,    5181
     161,    5187,    5191,    5193,    5185,    5175,    5179,    5181,    5173
     162,    5190,    4901,    4920,    5192,    5178,    4900,    4919,    5180
     163,    5189,    5190,    5192,    5191,    5177,    5178,    5180,    5179
     164,    5188,    5189,    5191,    5187,    5176,    5177,    5179,    5175
     165,    4858,    4801,    4901,    5190,    4857,    4800,    4900,    5178
     166,    4839,    4858,    5190,    5189,    4838,    4857,    5178,    5177
     167,    4820,    4839,    5189,    5188,    4819,    4838,    5177,    5176
     168,    4985,    4780,    4820,    5188,    4986,    4781,    4819,    5176
     169,    5004,    4985,    5188,    5187,    5005,    4986,    5176,    5175
     170,    5023,    5004,    5187,    5185,    5024,    5005,    5175,    5173
     171,    5042,    5023,    5185,    5186,    5043,    5024,    5173,    5174
     172,    5207,    5060,    5041,    5198,    5195,    5061,    5042,    5186
     173,    5208,    5079,    5060,    5207,    5196,    5080,    5061,    5195
     174,    4959,    4883,    5079,    5208,    4958,    4884,    5080,    5196
     175,    5206,    4940,    4959,    5208,    5194,    4939,    4958,    5196
     176,    5205,    5206,    5208,    5207,    5193,    5194,    5196,    5195
     177,    5197,    5205,    5207,    5198,    5185,    5193,    5195,    5186
     178,    5204,    4921,    4940,    5206,    5192,    4920,    4939,    5194
     179,    5203,    5204,    5206,    5205,    5191,    5192,    5194,    5193
     180,    5199,    5203,    5205,    5197,    5187,    5191,    5193,    5185
     181,    5202,    4902,    4921,    5204,    5190,    4901,    4920,    5192
     182,    5201,    5202,    5204,    5203,    5189,    5190,    5192,    5191
     183,    5200,    5201,    5203,    5199,    5188,    5189,    5191,    5187
     184,    4859,    4802,    4902,    5202,    4858,    4801,    4901,    5190
     185,    4840,    4859,    5202,    5201,    4839,    4858,    5190,    5189
     186,    4821,    4840,    5201,    5200,    4820,    4839,    5189,    5188
     187,    4984,    4779,    4821,    5200,    4985,    4780,    4820,    5188
     188,    5003,    4984,    5200,    5199,    5004,    4985,    5188,    5187
     189,    5022,    5003,    5199,    5197,    5023,    5004,    5187,    5185
     190,    5041,    5022,    5197,    5198,    5042,    5023,    5185,    5186
     191,    5219,    5059,    5040,    5210,    5207,    5060,    5041,    5198
     192,    5220,    5078,    5059,    5219,    5208,    5079,    5060,    5207
     193,    4960,    4882,    5078,    5220,    4959,    4883,    5079,    5208
     194,    5218,    4941,    4960,    5220,    5206,    4940,    4959,    5208
     195,    5217,    5218,    5220,    5219,    5205,    5206,    5208,    5207
     196,    5209,    5217,    5219,    5210,    5197,    5205,    5207,    5198
     197,    5216,    4922,    4941,    5218,    5204,    4921,    4940,    5206
     198,    5215,    5216,    5218,    5217,    5203,    5204,    5206,    5205
     199,    5211,    5215,    5217,    5209,    5199,    5203,    5205,    5197
     200,    5214,    4903,    4922,    5216,    5202,    4902,    4921,    5204
     201,    5213,    5214,    5216,    5215,    5201,    5202,    5204,    5203
     202,    5212,    5213,    5215,    5211,    5200,    5201,    5203,    5199
     203,    4860,    4803,    4903,    5214,    4859,    4802,    4902,    5202
     204,    4841,    4860,    5214,    5213,    4840,    4859,    5202,    5201
     205,    4822,    4841,    5213,    5212,    4821,    4840,    5201,    5200
     206,    4983,    4778,    4822,    5212,    4984,    4779,    4821,    5200
     207,    5002,    4983,    5212,    5211,    5003,    4984,    5200,    5199
     208,    5021,    5002,    5211,    5209,    5022,    5003,    5199,    5197
     209,    5040,    5021,    5209,    5210,    5041,    5022,    5197,    5198
     210,    5231,    5058,    5039,    5222,    5219,    5059,    5040,    5210
     211,    5232,    5077,    5058,    5231,    5220,    5078,    5059,    5219
     212,    4961,    4881,    5077,    5232,    4960,    4882,    5078,    5220
     213,    5230,    4942,    4961,    5232,    5218,    4941,    4960,    5220
     214,    5229,    5230,    5232,    5231,    5217,    5218,    5220,    5219
     215,    5221,    5229,    5231,    5222,    5209,    5217,    5219,    5210
     216,    5228,    4923,    4942,    5230,    5216,    4922,    4941,    5218
     217,    5227,    5228,    5230,    5229,    5215,    5216,    5218,    5217
     218,    5223,    5227,    5229,    5221,    5211,    5215,    5217,    5209
     219,    5226,    4904,    4923,    5228,    5214,    4903,    4922,    5216
     220,    5225,    5226,    5228,    5227,    5213,    5214,    5216,    5215
     221,    5224,    5225,    5227,    5223,    5212,    5213,    5215,    5211
     222,    4861,    4804,    4904,    5226,    4860,    4803,    4903,    5214
     223,    4842,    4861,    5226,    5225,    4841,    4860,    5214,    5213
     224,    4823,    4842,    5225,    5224,    4822,    4841,    5213,    5212
     225,    4982,    4777,    4823,    5224,    4983,    4778,    4822,    5212
     226,    5001,    4982,    5224,    5223,    5002,    4983,    5212,    5211
     227,    5020,    5001,    5223,    5221,    5021,    5002,    5211,    5209
     228,    5039,    5020,    5221,    5222,    5040,    5021,    5209,    5210
     229,    5243,    5057,    5038,    5234,    5231,    5058,    5039,    5222
     230,    5244,    5076,    5057,    5243,    5232,    5077,    5058,    5231
     231,    4962,    4880,    5076,    5244,    4961,    4881,    5077,    5232
     232,    5242,    4943,    4962,    5244,    5230,    4942,    4961,    5232
     233,    5241,    5242,    5244,    5243,    5229,    5230,    5232,    5231
     234,    5233,    5241,    5243,    5234,    5221,    5229,    5231,    5222
     235,    5240,    4924,    4943,    5242,    5228,    4923,    4942,    5230
     236,    5239,    5240,    5242,    5241,    5227,    5228,    5230,    5229
     237,    5235,    5239,    5241,    5233,    5223,    5227,    5229,    5221
     238,    5238,    4905,    4924,    5240,    5226,    4904,    4923,    5228
     239,    5237,    5238,    5240,    5239,    5225,    5226,    5228,    5227
     240,    5236,    5237,    5239,    5235,    5224,    5225,    5227,    5223
     241,    4862,    4805,    4905,    5238,    4861,    4804,    4904,    5226
     242,    4843,    4862,    5238,    5237,    4842,    4861,    5226,    5225
     243,    4824,    4843,    5237,    5236,    4823,    4842,    5225,    5224
     244,    4981,    4776,    4824,    5236,    4982,    4777,    4823,    5224
     245,    5000,    4981,    5236,    5235,    5001,    4982,    5224,    5223
     246,    5019,    5000,    5235,    5233,    5020,    5001,    5223,    5221
     247,    5038,    5019,    5233,    5234,    5039,    5020,    5221,    5222
     248,    5255,    5056,    5037,    5246,    5243,    5057,    5038,    5234
     249,    5256,    5075,    5056,    5255,    5244,    5076,    5057,    5243
     250,    4963,    4879,    5075,    5256,    4962,    4880,    5076,    5244
     251,    5254,    4944,    4963,    5256,    5242,    4943,    4962,    5244
     252,    5253,    5254,    5256,    5255,    5241,    5242,    5244,    5243
     253,    5245,    5253,    5255,    5246,    5233,    5241,    5243,    5234
     254,    5252,    4925,    4944,    5254,    5240,    4924,    4943,    5242
     255,    5251,    5252,    5254,    5253,    5239,    5240,    5242,    5241
     256,    5247,    5251,    5253,    5245,    5235,    5239,    5241,    5233
     257,    5250,    4906,    4925,    5252,    5238,    4905,    4924,    5240
     258,    5249,    5250,    5252,    5251,    5237,    5238,    5240,    5239
     259,    5248,    5249,    5251,    5247,    5236,    5237,    5239,    5235
     260,    4863,    4806,    4906,    5250,    4862,    4805,    4905,    5238
     261,    4844,    4863,    5250,    5249,    4843,    4862,    5238,    5237
     262,    4825,    4844,    5249,    5248,    4824,    4843,    5237,    5236
     263,    4980,    4775,    4825,    5248,    4981,    4776,    4824,    5236
     264,    4999,    4980,    5248,    5247,    5000,    4981,    5236,    5235
     265,    5018,    4999,    5247,    5245,    5019,    5000,    5235,    5233
     266,    5037,    5018,    5245,    5246,    5038,    5019,    5233,    5234
     267,    5267,    5055,    5036,    5258,    5255,    5056,    5037,    5246
     268,    5268,    5074,    5055,    5267,    5256,    5075,    5056,    5255
     269,    4964,    4878,    5074,    5268,    4963,    4879,    5075,    5256
     270,    5266,    4945,    4964,    5268,    5254,    4944,    4963,    5256
     271,    5265,    5266,    5268,    5267,    5253,    5254,    5256,    5255
     272,    5257,    5265,    5267,    5258,    5245,    5253,    5255,    5246
     273,    5264,    4926,    4945,    5266,    5252,    4925,    4944,    5254
     274,    5263,    5264,    5266,    5265,    5251,    5252,    5254,    5253
     275,    5259,    5263,    5265,    5257,    5247,    5251,    5253,    5245
     276,    5262,    4907,    4926,    5264,    5250,    4906,    4925,    5252
     277,    5261,    5262,    5264,    5263,    5249,    5250,    5252,    5251
     278,    5260,    5261,    5263,    5259,    5248,    5249,    5251,    5247
     279,    4864,    4807,    4907,    5262,    4863,    4806,    4906,    5250
     280,    4845,    4864,    5262,    5261,    4844,    4863,    5250,    5249
     281,    4826,    4845,    5261,    5260,    4825,    4844,    5249,    5248
     282,    4979,    4774,    4826,    5260,    4980,    4775,    4825,    5248
     283,    4998,    4979,    5260,    5259,    4999,    4980,    5248,    5247
     284,    5017,    4998,    5259,    5257,    5018,    4999,    5247,    5245
     285,    5036,    5017,    5257,    5258,    5037,    5018,    5245,    5246
     286,    5279,    5054,    5035,    5270,    5267,    5055,    5036,    5258
     287,    5280,    5073,    5054,    5279,    5268,    5074,    5055,    5267
     288,    4965,    4877,    5073,    5280,    4964,    4878,    5074,    5268
     289,    5278,    4946,    4965,    5280,    5266,    4945,    4964,    5268
     290,    5277,    5278,    5280,    5279,    5265,    5266,    5268,    5267
     291,    5269,    5277,    5279,    5270,    5257,    5265,    5267,    5258
     292,    5276,    4927,    4946,    5278,    5264,    4926,    4945,    5266
     293,    5275,    5276,    5278,    5277,    5263,    5264,    5266,    5265
     294,    5271,    5275,    5277,    5269,    5259,    5263,    5265,    5257
     295,    5274,    4908,    4927,    5276,    5262,    4907,    4926,    5264
     296,    5273,    5274,    5276,    5275,    5261,    5262,    5264,    5263
     297,    5272,    5273,    5275,    5271,    5260,    5261,    5263,    5259
     298,    4865,    4808,    4908,    5274,    4864,    4807,    4907,    5262
     299,    4846,    4865,    5274,    5273,    4845,    4864,    5262,    5261
     300,    4827,    4846,    5273,    5272,    4826,    4845,    5261,    5260
     301,    4978,    4773,    4827,    5272,    4979,    4774,    4826,    5260
     302,    4997,    4978,    5272,    5271,    4998,    4979,    5260,    5259
     303,    5016,    4997,    5271,    5269,    5017,    4998,    5259,    5257
     304,    5035,    5016,    5269,    5270,    5036,    5017,    5257,    5258
     305,    5291,    5053,    5034,    5282,    5279,    5054,    5035,    5270
     306,    5292,    5072,    5053,    5291,    5280,    5073,    5054,    5279
     307,    4966,    4876,    5072,    5292,    4965,    4877,    5073,    5280
     308,    5290,    4947,    4966,    5292,    5278,    4946,    4965,    5280
     309,    5289,    5290,    5292,    5291,    5277,    5278,    5280,    5279
     310,    5281,    5289,    5291,    5282,    5269,    5277,    5279,    5270
     311,    5288,    4928,    4947,    5290,    5276,    4927,    4946,    5278
     312,    5287,    5288,    5290,    5289,    5275,    5276,    5278,    5277
     313,    5283,    5287,    5289,    5281,    5271,    5275,    5277,    5269
     314,    5286,    4909,    4928,    5288,    5274,    4908,    4927,    5276
     315,    5285,    5286,    5288,    5287,    5273,    5274,    5276,    5275
     316,    5284,    5285,    5287,    5283,    5272,    5273,    5275,    5271
     317,    4866,    4809,    4909,    5286,    4865,    4808,    4908,    5274
     318,    4847,    4866,    5286,    5285,    4846,    4865,    5274,    5273
     319,    4828,    4847,    5285,    5284,    4827,    4846,    5273,    5272
     320,    4977,    4772,    4828,    5284,    4978,    4773,    4827,    5272
     321,    4996,    4977,    5284,    5283,    4997,    4978,    5272,    5271
     322,    5015,    4996,    5283,    5281,    5016,    4997,    5271,    5269
     323,    5034,    5015,    5281,    5282,    5035,    5016,    5269,    5270
     324,    5303,    5052,    5033,    5294,    5291,    5053,    5034,    5282
     325,    5304,    5071,    5052,    5303,    5292,    5072,    5053,    5291
     326,    4967,    4875,    5071,    5304,    4966,    4876,    5072,    5292
     327,    5302,    4948,    4967,    5304,    5290,    4947,    4966,    5292
     328,    5301,    5302,    5304,    5303,    5289,    5290,    5292,    5291
     329,    5293,    5301,    5303,    5294,    5281,    5289,    5291,    5282
     330,    5300,    4929,    4948,    5302,    5288,    4928,    4947,    5290
     331,    5299,    5300,    5302,    5301,    5287,    5288,    5290,    5289
     332,    5295,    5299,    5301,    5293,    5283,    5287,    5289,    5281
     333,    5298,    4910,    4929,    5300,    5286,    4909,    4928,    5288
     334,    5297,    5298,    5300,    5299,    5285,    5286,    5288,    5287
     335,    5296,    5297,    5299,    5295,    5284,    5285,    5287,    5283
     336,    4867,    4810,    4910,    5298,    4866,    4809,    4909,    5286
     337,    4848,    4867,    5298,    5297,    4847,    4866,    5286,    5285
     338,    4829,    4848,    5297,    5296,    4828,    4847,    5285,    5284
     339,    4976,    4771,    4829,    5296,    4977,    4772,    4828,    5284
     340,    4995,    4976,    5296,    5295,    4996,    4977,    5284,    5283
     341,    5014,    4995,    5295,    5293,    5015,    4996,    5283,    5281
     342,    5033,    5014,    5293,    5294,    5034,    5015,    5281,    5282
     343,    5315,    5051,    5032,    5306,    5303,    5052,    5033,    5294
     344,    5316,    5070,    5051,    5315,    5304,    5071,    5052,    5303
     345,    4968,    4874,    5070,    5316,    4967,    4875,    5071,    5304
     346,    5314,    4949,    4968,    5316,    5302,    4948,    4967,    5304
     347,    5313,    5314,    5316,    5315,    5301,    5302,    5304,    5303
     348,    5305,    5313,    5315,    5306,    5293,    5301,    5303,    5294
     349,    5312,    4930,    4949,    5314,    5300,    4929,    4948,    5302
     350,    5311,    5312,    5314,    5313,    5299,    5300,    5302,    5301
     351,    5307,    5311,    5313,    5305,    5295,    5299,    5301,    5293
     352,    5310,    4911,    4930,    5312,    5298,    4910,    4929,    5300
     353,    5309,    5310,    5312,    5311,    5297,    5298,    5300,    5299
     354,    5308,    5309,    5311,    5307,    5296,    5297,    5299,    5295
     355,    4868,    4811,    4911,    5310,    4867,    4810,    4910,    5298
     356,    4849,    4868,    5310,    5309,    4848,    4867,    5298,    5297
     357,    4830,    4849,    5309,    5308,    4829,    4848,    5297,    5296
     358,    4975,    4770,    4830,    5308,    4976,    4771,    4829,    5296
     359,    4994,    4975,    5308,    5307,    4995,    4976,    5296,    5295
     360,    5013,    4994,    5307,    5305,    5014,    4995,    5295,    5293
     361,    5032,    5013,    5305,    5306,    5033,    5014,    5293,    5294
     362,    5327,    4973,    4972,    5318,    5315,    5051,    5032,    5306
     363,    5328,    4974,    4973,    5327,    5316,    5070,    5051,    5315
     364,    4873,    4869,    4974,    5328,    4968,    4874,    5070,    5316
     365,    5326,    4872,    4873,    5328,    5314,    4949,    4968,    5316
     366,    5325,    5326,    5328,    5327,    5313,    5314,    5316,    5315
     367,    5317,    5325,    5327,    5318,    5305,    5313,    5315,    5306
     368,    5324,    4871,    4872,    5326,    5312,    4930,    4949,    5314
     369,    5323,    5324,    5326,    5325,    5311,    5312,    5314,    5313
     370,    5319,    5323,    5325,    5317,    5307,    5311,    5313,    5305
     371,    5322,    4870,    4871,    5324,    5310,    4911,    4930,    5312
     372,    5321,    5322,    5324,    5323,    5309,    5310,    5312,    5311
     373,    5320,    5321,    5323,    5319,    5308,    5309,    5311,    5307
     374,    4790,    4789,    4870,    5322,    4868,    4811,    4911,    5310
     375,    4791,    4790,    5322,    5321,    4849,    4868,    5310,    5309
     376,    4792,    4791,    5321,    5320,    4830,    4849,    5309,    5308
     377,    4969,    4769,    4792,    5320,    4975,    4770,    4830,    5308
     378,    4970,    4969,    5320,    5319,    4994,    4975,    5308,    5307
     379,    4971,    4970,    5319,    5317,    5013,    4994,    5307,    5305
     380,    4972,    4971,    5317,    5318,    5032,    5013,    5305,    5306
     381,    4510,    4503,    4502,    4505,    4671,    4538,    4536,    4661
     382,    4509,    4504,    4503,    4510,    4672,    4540,    4538,    4671
     383,    4495,    4494,    4504,    4509,    4624,    4522,    4540,    4672
     384,    4516,    4496,    4495,    4509,    4670,    4616,    4624,    4672
     385,    4515,    4516,    4509,    4510,    4669,    4670,    4672,    4671
     386,    4508,    4515,    4510,    4505,    4662,    4669,    4671,    4661
     387,    4514,    4497,    4496,    4516,    4668,    4608,    4616,    4670
     388,    4513,    4514,    4516,    4515,    4667,    4668,    4670,    4669
     389,    4507,    4513,    4515,    4508,    4663,    4667,    4669,    4662
     390,    4512,    4498,    4497,    4514,    4666,    4600,    4608,    4668
     391,    4511,    4512,    4514,    4513,    4665,    4666,    4668,    4667
     392,    4506,    4511,    4513,    4507,    4664,    4665,    4667,    4663
     393,    4493,    4490,    4498,    4512,    4561,    4549,    4600,    4666
     394,    4492,    4493,    4512,    4511,    4560,    4561,    4666,    4665
     395,    4491,    4492,    4511,    4506,    4559,    4560,    4665,    4664
     396,    4499,    4489,    4491,    4506,    4530,    4519,    4559,    4664
     397,    4500,    4499,    4506,    4507,    4532,    4530,    4664,    4663
     398,    4501,    4500,    4507,    4508,    4534,    4532,    4663,    4662
     399,    4502,    4501,    4508,    4505,    4536,    4534,    4662,    4661
     400,    4671,    4538,    4536,    4661,    4683,    4537,    4535,    4673
     401,    4672,    4540,    4538,    4671,    4684,    4539,    4537,    4683
     402,    4624,    4522,    4540,    4672,    4623,    4521,    4539,    4684
     403,    4670,    4616,    4624,    4672,    4682,    4615,    4623,    4684
     404,    4669,    4670,    4672,    4671,    4681,    4682,    4684,    4683
     405,    4662,    4669,    4671,    4661,    4674,    4681,    4683,    4673
     406,    4668,    4608,    4616,    4670,    4680,    4607,    4615,    4682
     407,    4667,    4668,    4670,    4669,    4679,    4680,    4682,    4681
     408,    4663,    4667,    4669,    4662,    4675,    4679,    4681,    4674
     409,    4666,    4600,    4608,    4668,    4678,    4599,    4607,    4680
     410,    4665,    4666,    4668,    4667,    4677,    4678,    4680,    4679
     411,    4664,    4665,    4667,    4663,    4676,    4677,    4679,    4675
     412,    4561,    4549,    4600,    4666,    4564,    4548,    4599,    4678
     413,    4560,    4561,    4666,    4665,    4563,    4564,    4678,    4677
     414,    4559,    4560,    4665,    4664,    4562,    4563,    4677,    4676
     415,    4530,    4519,    4559,    4664,    4529,    4518,    4562,    4676
     416,    4532,    4530,    4664,    4663,    4531,    4529,    4676,    4675
     417,    4534,    4532,    4663,    4662,    4533,    4531,    4675,    4674
     418,    4536,    4534,    4662,    4661,    4535,    4533,    4674,    4673
     419,    4683,    4537,    4535,    4673,    4695,    4524,    4525,    4685
     420,    4684,    4539,    4537,    4683,    4696,    4523,    4524,    4695
     421,    4623,    4521,    4539,    4684,    4622,    4520,    4523,    4696
     422,    4682,    4615,    4623,    4684,    4694,    4614,    4622,    4696
     423,    4681,    4682,    4684,    4683,    4693,    4694,    4696,    4695
     424,    4674,    4681,    4683,    4673,    4686,    4693,    4695,    4685
     425,    4680,    4607,    4615,    4682,    4692,    4606,    4614,    4694
     426,    4679,    4680,    4682,    4681,    4691,    4692,    4694,    4693
     427,    4675,    4679,    4681,    4674,    4687,    4691,    4693,    4686
     428,    4678,    4599,    4607,    4680,    4690,    4598,    4606,    4692
     429,    4677,    4678,    4680,    4679,    4689,    4690,    4692,    4691
     430,    4676,    4677,    4679,    4675,    4688,    4689,    4691,    4687
     431,    4564,    4548,    4599,    4678,    4567,    4547,    4598,    4690
     432,    4563,    4564,    4678,    4677,    4566,    4567,    4690,    4689
     433,    4562,    4563,    4677,    4676,    4565,    4566,    4689,    4688
     434,    4529,    4518,    4562,    4676,    4528,    4517,    4565,    4688
     435,    4531,    4529,    4676,    4675,    4527,    4528,    4688,    4687
     436,    4533,    4531,    4675,    4674,    4526,    4527,    4687,    4686
     437,    4535,    4533,    4674,    4673,    4525,    4526,    4686,    4685
     438,    4695,    4524,    4525,    4685,    4707,    4655,    4650,    4697
     439,    4696,    4523,    4524,    4695,    4708,    4660,    4655,    4707
     440,    4622,    4520,    4523,    4696,    4621,    4588,    4660,    4708
     441,    4694,    4614,    4622,    4696,    4706,    4613,    4621,    4708
     442,    4693,    4694,    4696,    4695,    4705,    4706,    4708,    4707
     443,    4686,    4693,    4695,    4685,    4698,    4705,    4707,    4697
     444,    4692,    4606,    4614,    4694,    4704,    4605,    4613,    4706
     445,    4691,    4692,    4694,    4693,    4703,    4704,    4706,    4705
     446,    4687,    4691,    4693,    4686,    4699,    4703,    4705,    4698
     447,    4690,    4598,    4606,    4692,    4702,    4597,    4605,    4704
     448,    4689,    4690,    4692,    4691,    4701,    4702,    4704,    4703
     449,    4688,    4689,    4691,    4687,    4700,    4701,    4703,    4699
     450,    4567,    4547,    4598,    4690,    4570,    4546,    4597,    4702
     451,    4566,    4567,    4690,    4689,    4569,    4570,    4702,    4701
     452,    4565,    4566,    4689,    4688,    4568,    4569,    4701,    4700
     453,    4528,    4517,    4565,    4688,    4635,    4558,    4568,    4700
     454,    4527,    4528,    4688,    4687,    4640,    4635,    4700,    4699
     455,    4526,    4527,    4687,    4686,    4645,    4640,    4699,    4698
     456,    4525,    4526,    4686,    4685,    4650,    4645,    4698,    4697
     457,    4707,    4655,    4650,    4697,    4719,    4654,    4649,    4709
     458,    4708,    4660,    4655,    4707,    4720,    4659,    4654,    4719
     459,    4621,    4588,    4660,    4708,    4620,    4587,    4659,    4720
     460,    4706,    4613,    4621,    4708,    4718,    4612,    4620,    4720
     461,    4705,    4706,    4708,    4707,    4717,    4718,    4720,    4719
     462,    4698,    4705,    4707,    4697,    4710,    4717,    4719,    4709
     463,    4704,    4605,    4613,    4706,    4716,    4604,    4612,    4718
     464,    4703,    4704,    4706,    4705,    4715,    4716,    4718,    4717
     465,    4699,    4703,    4705,    4698,    4711,    4715,    4717,    4710
     466,    4702,    4597,    4605,    4704,    4714,    4596,    4604,    4716
     467,    4701,    4702,    4704,    4703,    4713,    4714,    4716,    4715
     468,    4700,    4701,    4703,    4699,    4712,    4713,    4715,    4711
     469,    4570,    4546,    4597,    4702,    4573,    4545,    4596,    4714
     470,    4569,    4570,    4702,    4701,    4572,    4573,    4714,    4713
     471,    4568,    4569,    4701,    4700,    4571,    4572,    4713,    4712
     472,    4635,    4558,    4568,    4700,    4634,    4557,    4571,    4712
     473,    4640,    4635,    4700,    4699,    4639,    4634,    4712,    4711
     474,    4645,    4640,    4699,    4698,    4644,    4639,    4711,    4710
     475,    4650,    4645,    4698,    4697,    4649,    4644,    4710,    4709
     476,    4719,    4654,    4649,    4709,    4731,    4653,    4648,    4721
     477,    4720,    4659,    4654,    4719,    4732,    4658,    4653,    4731
     478,    4620,    4587,    4659,    4720,    4619,    4586,    4658,    4732
     479,    4718,    4612,    4620,    4720,    4730,    4611,    4619,    4732
     480,    4717,    4718,    4720,    4719,    4729,    4730,    4732,    4731
     481,    4710,    4717,    4719,    4709,    4722,    4729,    4731,    4721
     482,    4716,    4604,    4612,    4718,    4728,    4603,    4611,    4730
     483,    4715,    4716,    4718,    4717,    4727,    4728,    4730,    4729
     484,    4711,    4715,    4717,    4710,    4723,    4727,    4729,    4722
     485,    4714,    4596,    4604,    4716,    4726,    4595,    4603,    4728
     486,    4713,    4714,    4716,    4715,    4725,    4726,    4728,    4727
     487,    4712,    4713,    4715,    4711,    4724,    4725,    4727,    4723
     488,    4573,    4545,    4596,    4714,    4576,    4544,    4595,    4726
     489,    4572,    4573,    4714,    4713,    4575,    4576,    4726,    4725
     490,    4571,    4572,    4713,    4712,    4574,    4575,    4725,    4724
     491,    4634,    4557,    4571,    4712,    4633,    4556,    4574,    4724
     492,    4639,    4634,    4712,    4711,    4638,    4633,    4724,    4723
     493,    4644,    4639,    4711,    4710,    4643,    4638,    4723,    4722
     494,    4649,    4644,    4710,    4709,    4648,    4643,    4722,    4721
     495,    4731,    4653,    4648,    4721,    4743,    4652,    4647,    4733
     496,    4732,    4658,    4653,    4731,    4744,    4657,    4652,    4743
     497,    4619,    4586,    4658,    4732,    4618,    4585,    4657,    4744
     498,    4730,    4611,    4619,    4732,    4742,    4610,    4618,    4744
     499,    4729,    4730,    4732,    4731,    4741,    4742,    4744,    4743
     500,    4722,    4729,    4731,    4721,    4734,    4741,    4743,    4733
     501,    4728,    4603,    4611,    4730,    4740,    4602,    4610,    4742
     502,    4727,    4728,    4730,    4729,    4739,    4740,    4742,    4741
     503,    4723,    4727,    4729,    4722,    4735,    4739,    4741,    4734
     504,    4726,    4595,    4603,    4728,    4738,    4594,    4602,    4740
     505,    4725,    4726,    4728,    4727,    4737,    4738,    4740,    4739
     506,    4724,    4725,    4727,    4723,    4736,    4737,    4739,    4735
     507,    4576,    4544,    4595,    4726,    4579,    4543,    4594,    4738
     508,    4575,    4576,    4726,    4725,    4578,    4579,    4738,    4737
     509,    4574,    4575,    4725,    4724,    4577,    4578,    4737,    4736
     510,    4633,    4556,    4574,    4724,    4632,    4555,    4577,    4736
     511,    4638,    4633,    4724,    4723,    4637,    4632,    4736,    4735
     512,    4643,    4638,    4723,    4722,    4642,    4637,    4735,    4734
     513,    4648,    4643,    4722,    4721,    4647,    4642,    4734,    4733
     514,    4743,    4652,    4647,    4733,    4755,    4651,    4646,    4745
     515,    4744,    4657,    4652,    4743,    4756,    4656,    4651,    4755
     516,    4618,    4585,    4657,    4744,    4617,    4584,    4656,    4756
     517,    4742,    4610,    4618,    4744,    4754,    4609,    4617,    4756
     518,    4741,    4742,    4744,    4743,    4753,    4754,    4756,    4755
     519,    4734,    4741,    4743,    4733,    4746,    4753,    4755,    4745
     520,    4740,    4602,    4610,    4742,    4752,    4601,    4609,    4754
     521,    4739,    4740,    4742,    4741,    4751,    4752,    4754,    4753
     522,    4735,    4739,    4741,    4734,    4747,    4751,    4753,    4746
     523,    4738,    4594,    4602,    4740,    4750,    4593,    4601,    4752
     524,    4737,    4738,    4740,    4739,    4749,    4750,    4752,    4751
     525,    4736,    4737,    4739,    4735,    4748,    4749,    4751,    4747
     526,    4579,    4543,    4594,    4738,    4582,    4542,    4593,    4750
     527,    4578,    4579,    4738,    4737,    4581,    4582,    4750,    4749
     528,    4577,    4578,    4737,    4736,    4580,    4581,    4749,    4748
     529,    4632,    4555,    4577,    4736,    4631,    4554,    4580,    4748
     530,    4637,    4632,    4736,    4735,    4636,    4631,    4748,    4747
     531,    4642,    4637,    4735,    4734,    4641,    4636,    4747,    4746
     532,    4647,    4642,    4734,    4733,    4646,    4641,    4746,    4745
     533,    4755,    4651,    4646,    4745,    4767,    4629,    4628,    4757
     534,    4756,    4656,    4651,    4755,    4768,    4630,    4629,    4767
     535,    4617,    4584,    4656,    4756,    4589,    4583,    4630,    4768
     536,    4754,    4609,    4617,    4756,    4766,    4590,    4589,    4768
     537,    4753,    4754,    4756,    4755,    4765,    4766,    4768,    4767
     538,    4746,    4753,    4755,    4745,    4758,    4765,    4767,    4757
     539,    4752,    4601,    4609,    4754,    4764,    4591,    4590,    4766
     540,    4751,    4752,    4754,    4753,    4763,    4764,    4766,    4765
     541,    4747,    4751,    4753,    4746,    4759,    4763,    4765,    4758
     542,    4750,    4593,    4601,    4752,    4762,    4592,    4591,    4764
     543,    4749,    4750,    4752,    4751,    4761,    4762,    4764,    4763
     544,    4748,    4749,    4751,    4747,    4760,    4761,    4763,    4759
     545,    4582,    4542,    4593,    4750,    4553,    4541,    4592,    4762
     546,    4581,    4582,    4750,    4749,    4552,    4553,    4762,    4761
     547,    4580,    4581,    4749,    4748,    4551,    4552,    4761,    4760
     548,    4631,    4554,    4580,    4748,    4625,    4550,    4551,    4760
     549,    4636,    4631,    4748,    4747,    4626,    4625,    4760,    4759
     550,    4641,    4636,    4747,    4746,    4627,    4626,    4759,    4758
     551,    4646,    4641,    4746,    4745,    4628,    4627,    4758,    4757
     552,   11250,   11136,   11348,   11350,   10900,   10899,   10909,   10914
     553,   11231,   11250,   11350,   11354,   10901,   10900,   10914,   10915
     554,   11212,   11231,   11354,   11358,   10902,   10901,   10915,   10910
     555,   11357,   11193,   11212,   11358,   10913,   10903,   10902,   10910
     556,   11359,   11174,   11193,   11357,   10912,   10904,   10903,   10913
     557,   11360,   11155,   11174,   11359,   10911,   10905,   10904,   10912
     558,    4812,    4788,   11155,   11360,    4491,    4489,   10905,   10911
     559,   11356,    4831,    4812,   11360,   10921,    4492,    4491,   10911
     560,   11355,   11356,   11360,   11359,   10920,   10921,   10911,   10912
     561,   11353,   11355,   11359,   11357,   10919,   10920,   10912,   10913
     562,   11354,   11353,   11357,   11358,   10915,   10919,   10913,   10910
     563,   11352,    4850,    4831,   11356,   10918,    4493,    4492,   10921
     564,   11351,   11352,   11356,   11355,   10917,   10918,   10921,   10920
     565,   11349,   11351,   11355,   11353,   10916,   10917,   10920,   10919
     566,   11350,   11349,   11353,   11354,   10914,   10916,   10919,   10915
     567,   11291,    4793,    4850,   11352,   10906,    4490,    4493,   10918
     568,   11310,   11291,   11352,   11351,   10907,   10906,   10918,   10917
     569,   11329,   11310,   11351,   11349,   10908,   10907,   10917,   10916
     570,   11348,   11329,   11349,   11350,   10909,   10908,   10916,   10914
     571,   11251,   11137,   11347,   11362,   11250,   11136,   11348,   11350
     572,   11232,   11251,   11362,   11366,   11231,   11250,   11350,   11354
     573,   11213,   11232,   11366,   11370,   11212,   11231,   11354,   11358
     574,   11369,   11194,   11213,   11370,   11357,   11193,   11212,   11358
     575,   11371,   11175,   11194,   11369,   11359,   11174,   11193,   11357
     576,   11372,   11156,   11175,   11371,   11360,   11155,   11174,   11359
     577,    4813,    4787,   11156,   11372,    4812,    4788,   11155,   11360
     578,   11368,    4832,    4813,   11372,   11356,    4831,    4812,   11360
     579,   11367,   11368,   11372,   11371,   11355,   11356,   11360,   11359
     580,   11365,   11367,   11371,   11369,   11353,   11355,   11359,   11357
     581,   11366,   11365,   11369,   11370,   11354,   11353,   11357,   11358
     582,   11364,    4851,    4832,   11368,   11352,    4850,    4831,   11356
     583,   11363,   11364,   11368,   11367,   11351,   11352,   11356,   11355
     584,   11361,   11363,   11367,   11365,   11349,   11351,   11355,   11353
     585,   11362,   11361,   11365,   11366,   11350,   11349,   11353,   11354
     586,   11290,    4794,    4851,   11364,   11291,    4793,    4850,   11352
     587,   11309,   11290,   11364,   11363,   11310,   11291,   11352,   11351
     588,   11328,   11309,   11363,   11361,   11329,   11310,   11351,   11349
     589,   11347,   11328,   11361,   11362,   11348,   11329,   11349,   11350
     590,   11252,   11138,   11346,   11374,   11251,   11137,   11347,   11362
     591,   11233,   11252,   11374,   11378,   11232,   11251,   11362,   11366
     592,   11214,   11233,   11378,   11382,   11213,   11232,   11366,   11370
     593,   11381,   11195,   11214,   11382,   11369,   11194,   11213,   11370
     594,   11383,   11176,   11195,   11381,   11371,   11175,   11194,   11369
     595,   11384,   11157,   11176,   11383,   11372,   11156,   11175,   11371
     596,    4814,    4786,   11157,   11384,    4813,    4787,   11156,   11372
     597,   11380,    4833,    4814,   11384,   11368,    4832,    4813,   11372
     598,   11379,   11380,   11384,   11383,   11367,   11368,   11372,   11371
     599,   11377,   11379,   11383,   11381,   11365,   11367,   11371,   11369
     600,   11378,   11377,   11381,   11382,   11366,   11365,   11369,   11370
     601,   11376,    4852,    4833,   11380,   11364,    4851,    4832,   11368
     602,   11375,   11376,   11380,   11379,   11363,   11364,   11368,   11367
     603,   11373,   11375,   11379,   11377,   11361,   11363,   11367,   11365
     604,   11374,   11373,   11377,   11378,   11362,   11361,   11365,   11366
     605,   11289,    4795,    4852,   11376,   11290,    4794,    4851,   11364
     606,   11308,   11289,   11376,   11375,   11309,   11290,   11364,   11363
     607,   11327,   11308,   11375,   11373,   11328,   11309,   11363,   11361
     608,   11346,   11327,   11373,   11374,   11347,   11328,   11361,   11362
     609,   11253,   11139,   11345,   11386,   11252,   11138,   11346,   11374
     610,   11234,   11253,   11386,   11390,   11233,   11252,   11374,   11378
     611,   11215,   11234,   11390,   11394,   11214,   11233,   11378,   11382
     612,   11393,   11196,   11215,   11394,   11381,   11195,   11214,   11382
     613,   11395,   11177,   11196,   11393,   11383,   11176,   11195,   11381
     614,   11396,   11158,   11177,   11395,   11384,   11157,   11176,   11383
     615,    4815,    4785,   11158,   11396,    4814,    4786,   11157,   11384
     616,   11392,    4834,    4815,   11396,   11380,    4833,    4814,   11384
     617,   11391,   11392,   11396,   11395,   11379,   11380,   11384,   11383
     618,   11389,   11391,   11395,   11393,   11377,   11379,   11383,   11381
     619,   11390,   11389,   11393,   11394,   11378,   11377,   11381,   11382
     620,   11388,    4853,    4834,   11392,   11376,    4852,    4833,   11380
     621,   11387,   11388,   11392,   11391,   11375,   11376,   11380,   11379
     622,   11385,   11387,   11391,   11389,   11373,   11375,   11379,   11377
     623,   11386,   11385,   11389,   11390,   11374,   11373,   11377,   11378
     624,   11288,    4796,    4853,   11388,   11289,    4795,    4852,   11376
     625,   11307,   11288,   11388,   11387,   11308,   11289,   11376,   11375
     626,   11326,   11307,   11387,   11385,   11327,   11308,   11375,   11373
     627,   11345,   11326,   11385,   11386,   11346,   11327,   11373,   11374
     628,   11254,   11140,   11344,   11398,   11253,   11139,   11345,   11386
     629,   11235,   11254,   11398,   11402,   11234,   11253,   11386,   11390
     630,   11216,   11235,   11402,   11406,   11215,   11234,   11390,   11394
     631,   11405,   11197,   11216,   11406,   11393,   11196,   11215,   11394
     632,   11407,   11178,   11197,   11405,   11395,   11177,   11196,   11393
     633,   11408,   11159,   11178,   11407,   11396,   11158,   11177,   11395
     634,    4816,    4784,   11159,   11408,    4815,    4785,   11158,   11396
     635,   11404,    4835,    4816,   11408,   11392,    4834,    4815,   11396
     636,   11403,   11404,   11408,   11407,   11391,   11392,   11396,   11395
     637,   11401,   11403,   11407,   11405,   11389,   11391,   11395,   11393
     638,   11402,   11401,   11405,   11406,   11390,   11389,   11393,   11394
     639,   11400,    4854,    4835,   11404,   11388,    4853,    4834,   11392
     640,   11399,   11400,   11404,   11403,   11387,   11388,   11392,   11391
     641,   11397,   11399,   11403,   11401,   11385,   11387,   11391,   11389
     642,   11398,   11397,   11401,   11402,   11386,   11385,   11389,   11390
     643,   11287,    4797,    4854,   11400,   11288,    4796,    4853,   11388
     644,   11306,   11287,   11400,   11399,   11307,   11288,   11388,   11387
     645,   11325,   11306,   11399,   11397,   11326,   11307,   11387,   11385
     646,   11344,   11325,   11397,   11398,   11345,   11326,   11385,   11386
     647,   11255,   11141,   11343,   11410,   11254,   11140,   11344,   11398
     648,   11236,   11255,   11410,   11414,   11235,   11254,   11398,   11402
     649,   11217,   11236,   11414,   11418,   11216,   11235,   11402,   11406
     650,   11417,   11198,   11217,   11418,   11405,   11197,   11216,   11406
     651,   11419,   11179,   11198,   11417,   11407,   11178,   11197,   11405
     652,   11420,   11160,   11179,   11419,   11408,   11159,   11178,   11407
     653,    4817,    4783,   11160,   11420,    4816,    4784,   11159,   11408
     654,   11416,    4836,    4817,   11420,   11404,    4835,    4816,   11408
     655,   11415,   11416,   11420,   11419,   11403,   11404,   11408,   11407
     656,   11413,   11415,   11419,   11417,   11401,   11403,   11407,   11405
     657,   11414,   11413,   11417,   11418,   11402,   11401,   11405,   11406
     658,   11412,    4855,    4836,   11416,   11400,    4854,    4835,   11404
     659,   11411,   11412,   11416,   11415,   11399,   11400,   11404,   11403
     660,   11409,   11411,   11415,   11413,   11397,   11399,   11403,   11401
     661,   11410,   11409,   11413,   11414,   11398,   11397,   11401,   11402
     662,   11286,    4798,    4855,   11412,   11287,    4797,    4854,   11400
     663,   11305,   11286,   11412,   11411,   11306,   11287,   11400,   11399
     664,   11324,   11305,   11411,   11409,   11325,   11306,   11399,   11397
     665,   11343,   11324,   11409,   11410,   11344,   11325,   11397,   11398
     666,   11256,   11142,   11342,   11422,   11255,   11141,   11343,   11410
     667,   11237,   11256,   11422,   11426,   11236,   11255,   11410,   11414
     668,   11218,   11237,   11426,   11430,   11217,   11236,   11414,   11418
     669,   11429,   11199,   11218,   11430,   11417,   11198,   11217,   11418
     670,   11431,   11180,   11199,   11429,   11419,   11179,   11198,   11417
     671,   11432,   11161,   11180,   11431,   11420,   11160,   11179,   11419
     672,    4818,    4782,   11161,   11432,    4817,    4783,   11160,   11420
     673,   11428,    4837,    4818,   11432,   11416,    4836,    4817,   11420
     674,   11427,   11428,   11432,   11431,   11415,   11416,   11420,   11419
     675,   11425,   11427,   11431,   11429,   11413,   11415,   11419,   11417
     676,   11426,   11425,   11429,   11430,   11414,   11413,   11417,   11418
     677,   11424,    4856,    4837,   11428,   11412,    4855,    4836,   11416
     678,   11423,   11424,   11428,   11427,   11411,   11412,   11416,   11415
     679,   11421,   11423,   11427,   11425,   11409,   11411,   11415,   11413
     680,   11422,   11421,   11425,   11426,   11410,   11409,   11413,   11414
     681,   11285,    4799,    4856,   11424,   11286,    4798,    4855,   11412
     682,   11304,   11285,   11424,   11423,   11305,   11286,   11412,   11411
     683,   11323,   11304,   11423,   11421,   11324,   11305,   11411,   11409
     684,   11342,   11323,   11421,   11422,   11343,   11324,   11409,   11410
     685,   11257,   11143,   11341,   11434,   11256,   11142,   11342,   11422
     686,   11238,   11257,   11434,   11438,   11237,   11256,   11422,   11426
     687,   11219,   11238,   11438,   11442,   11218,   11237,   11426,   11430
     688,   11441,   11200,   11219,   11442,   11429,   11199,   11218,   11430
     689,   11443,   11181,   11200,   11441,   11431,   11180,   11199,   11429
     690,   11444,   11162,   11181,   11443,   11432,   11161,   11180,   11431
     691,    4819,    4781,   11162,   11444,    4818,    4782,   11161,   11432
     692,   11440,    4838,    4819,   11444,   11428,    4837,    4818,   11432
     693,   11439,   11440,   11444,   11443,   11427,   11428,   11432,   11431
     694,   11437,   11439,   11443,   11441,   11425,   11427,   11431,   11429
     695,   11438,   11437,   11441,   11442,   11426,   11425,   11429,   11430
     696,   11436,    4857,    4838,   11440,   11424,    4856,    4837,   11428
     697,   11435,   11436,   11440,   11439,   11423,   11424,   11428,   11427
     698,   11433,   11435,   11439,   11437,   11421,   11423,   11427,   11425
     699,   11434,   11433,   11437,   11438,   11422,   11421,   11425,   11426
     700,   11284,    4800,    4857,   11436,   11285,    4799,    4856,   11424
     701,   11303,   11284,   11436,   11435,   11304,   11285,   11424,   11423
     702,   11322,   11303,   11435,   11433,   11323,   11304,   11423,   11421
     703,   11341,   11322,   11433,   11434,   11342,   11323,   11421,   11422
     704,   11258,   11144,   11340,   11446,   11257,   11143,   11341,   11434
     705,   11239,   11258,   11446,   11450,   11238,   11257,   11434,   11438
     706,   11220,   11239,   11450,   11454,   11219,   11238,   11438,   11442
     707,   11453,   11201,   11220,   11454,   11441,   11200,   11219,   11442
     708,   11455,   11182,   11201,   11453,   11443,   11181,   11200,   11441
     709,   11456,   11163,   11182,   11455,   11444,   11162,   11181,   11443
     710,    4820,    4780,   11163,   11456,    4819,    4781,   11162,   11444
     711,   11452,    4839,    4820,   11456,   11440,    4838,    4819,   11444
     712,   11451,   11452,   11456,   11455,   11439,   11440,   11444,   11443
     713,   11449,   11451,   11455,   11453,   11437,   11439,   11443,   11441
     714,   11450,   11449,   11453,   11454,   11438,   11437,   11441,   11442
     715,   11448,    4858,    4839,   11452,   11436,    4857,    4838,   11440
     716,   11447,   11448,   11452,   11451,   11435,   11436,   11440,   11439
     717,   11445,   11447,   11451,   11449,   11433,   11435,   11439,   11437
     718,   11446,   11445,   11449,   11450,   11434,   11433,   11437,   11438
     719,   11283,    4801,    4858,   11448,   11284,    4800,    4857,   11436
     720,   11302,   11283,   11448,   11447,   11303,   11284,   11436,   11435
     721,   11321,   11302,   11447,   11445,   11322,   11303,   11435,   11433
     722,   11340,   11321,   11445,   11446,   11341,   11322,   11433,   11434
     723,   11259,   11145,   11339,   11458,   11258,   11144,   11340,   11446
     724,   11240,   11259,   11458,   11462,   11239,   11258,   11446,   11450
     725,   11221,   11240,   11462,   11466,   11220,   11239,   11450,   11454
     726,   11465,   11202,   11221,   11466,   11453,   11201,   11220,   11454
     727,   11467,   11183,   11202,   11465,   11455,   11182,   11201,   11453
     728,   11468,   11164,   11183,   11467,   11456,   11163,   11182,   11455
     729,    4821,    4779,   11164,   11468,    4820,    4780,   11163,   11456
     730,   11464,    4840,    4821,   11468,   11452,    4839,    4820,   11456
     731,   11463,   11464,   11468,   11467,   11451,   11452,   11456,   11455
     732,   11461,   11463,   11467,   11465,   11449,   11451,   11455,   11453
     733,   11462,   11461,   11465,   11466,   11450,   11449,   11453,   11454
     734,   11460,    4859,    4840,   11464,   11448,    4858,    4839,   11452
     735,   11459,   11460,   11464,   11463,   11447,   11448,   11452,   11451
     736,   11457,   11459,   11463,   11461,   11445,   11447,   11451,   11449
     737,   11458,   11457,   11461,   11462,   11446,   11445,   11449,   11450
     738,   11282,    4802,    4859,   11460,   11283,    4801,    4858,   11448
     739,   11301,   11282,   11460,   11459,   11302,   11283,   11448,   11447
     740,   11320,   11301,   11459,   11457,   11321,   11302,   11447,   11445
     741,   11339,   11320,   11457,   11458,   11340,   11321,   11445,   11446
     742,   11260,   11146,   11338,   11470,   11259,   11145,   11339,   11458
     743,   11241,   11260,   11470,   11474,   11240,   11259,   11458,   11462
     744,   11222,   11241,   11474,   11478,   11221,   11240,   11462,   11466
     745,   11477,   11203,   11222,   11478,   11465,   11202,   11221,   11466
     746,   11479,   11184,   11203,   11477,   11467,   11183,   11202,   11465
     747,   11480,   11165,   11184,   11479,   11468,   11164,   11183,   11467
     748,    4822,    4778,   11165,   11480,    4821,    4779,   11164,   11468
     749,   11476,    4841,    4822,   11480,   11464,    4840,    4821,   11468
     750,   11475,   11476,   11480,   11479,   11463,   11464,   11468,   11467
     751,   11473,   11475,   11479,   11477,   11461,   11463,   11467,   11465
     752,   11474,   11473,   11477,   11478,   11462,   11461,   11465,   11466
     753,   11472,    4860,    4841,   11476,   11460,    4859,    4840,   11464
     754,   11471,   11472,   11476,   11475,   11459,   11460,   11464,   11463
     755,   11469,   11471,   11475,   11473,   11457,   11459,   11463,   11461
     756,   11470,   11469,   11473,   11474,   11458,   11457,   11461,   11462
     757,   11281,    4803,    4860,   11472,   11282,    4802,    4859,   11460
     758,   11300,   11281,   11472,   11471,   11301,   11282,   11460,   11459
     759,   11319,   11300,   11471,   11469,   11320,   11301,   11459,   11457
     760,   11338,   11319,   11469,   11470,   11339,   11320,   11457,   11458
     761,   11261,   11147,   11337,   11482,   11260,   11146,   11338,   11470
     762,   11242,   11261,   11482,   11486,   11241,   11260,   11470,   11474
     763,   11223,   11242,   11486,   11490,   11222,   11241,   11474,   11478
     764,   11489,   11204,   11223,   11490,   11477,   11203,   11222,   11478
     765,   11491,   11185,   11204,   11489,   11479,   11184,   11203,   11477
     766,   11492,   11166,   11185,   11491,   11480,   11165,   11184,   11479
     767,    4823,    4777,   11166,   11492,    4822,    4778,   11165,   11480
     768,   11488,    4842,    4823,   11492,   11476,    4841,    4822,   11480
     769,   11487,   11488,   11492,   11491,   11475,   11476,   11480,   11479
     770,   11485,   11487,   11491,   11489,   11473,   11475,   11479,   11477
     771,   11486,   11485,   11489,   11490,   11474,   11473,   11477,   11478
     772,   11484,    4861,    4842,   11488,   11472,    4860,    4841,   11476
     773,   11483,   11484,   11488,   11487,   11471,   11472,   11476,   11475
     774,   11481,   11483,   11487,   11485,   11469,   11471,   11475,   11473
     775,   11482,   11481,   11485,   11486,   11470,   11469,   11473,   11474
     776,   11280,    4804,    4861,   11484,   11281,    4803,    4860,   11472
     777,   11299,   11280,   11484,   11483,   11300,   11281,   11472,   11471
     778,   11318,   11299,   11483,   11481,   11319,   11300,   11471,   11469
     779,   11337,   11318,   11481,   11482,   11338,   11319,   11469,   11470
     780,   11262,   11148,   11336,   11494,   11261,   11147,   11337,   11482
     781,   11243,   11262,   11494,   11498,   11242,   11261,   11482,   11486
     782,   11224,   11243,   11498,   11502,   11223,   11242,   11486,   11490
     783,   11501,   11205,   11224,   11502,   11489,   11204,   11223,   11490
     784,   11503,   11186,   11205,   11501,   11491,   11185,   11204,   11489
     785,   11504,   11167,   11186,   11503,   11492,   11166,   11185,   11491
     786,    4824,    4776,   11167,   11504,    4823,    4777,   11166,   11492
     787,   11500,    4843,    4824,   11504,   11488,    4842,    4823,   11492
     788,   11499,   11500,   11504,   11503,   11487,   11488,   11492,   11491
     789,   11497,   11499,   11503,   11501,   11485,   11487,   11491,   11489
     790,   11498,   11497,   11501,   11502,   11486,   11485,   11489,   11490
     791,   11496,    4862,    4843,   11500,   11484,    4861,    4842,   11488
     792,   11495,   11496,   11500,   11499,   11483,   11484,   11488,   11487
     793,   11493,   11495,   11499,   11497,   11481,   11483,   11487,   11485
     794,   11494,   11493,   11497,   11498,   11482,   11481,   11485,   11486
     795,   11279,    4805,    4862,   11496,   11280,    4804,    4861,   11484
     796,   11298,   11279,   11496,   11495,   11299,   11280,   11484,   11483
     797,   11317,   11298,   11495,   11493,   11318,   11299,   11483,   11481
     798,   11336,   11317,   11493,   11494,   11337,   11318,   11481,   11482
     799,   11263,   11149,   11335,   11506,   11262,   11148,   11336,   11494
     800,   11244,   11263,   11506,   11510,   11243,   11262,   11494,   11498
     801,   11225,   11244,   11510,   11514,   11224,   11243,   11498,   11502
     802,   11513,   11206,   11225,   11514,   11501,   11205,   11224,   11502
     803,   11515,   11187,   11206,   11513,   11503,   11186,   11205,   11501
     804,   11516,   11168,   11187,   11515,   11504,   11167,   11186,   11503
     805,    4825,    4775,   11168,   11516,    4824,    4776,   11167,   11504
     806,   11512,    4844,    4825,   11516,   11500,    4843,    4824,   11504
     807,   11511,   11512,   11516,   11515,   11499,   11500,   11504,   11503
     808,   11509,   11511,   11515,   11513,   11497,   11499,   11503,   11501
     809,   11510,   11509,   11513,   11514,   11498,   11497,   11501,   11502
     810,   11508,    4863,    4844,   11512,   11496,    4862,    4843,   11500
     811,   11507,   11508,   11512,   11511,   11495,   11496,   11500,   11499
     812,   11505,   11507,   11511,   11509,   11493,   11495,   11499,   11497
     813,   11506,   11505,   11509,   11510,   11494,   11493,   11497,   11498
     814,   11278,    4806,    4863,   11508,   11279,    4805,    4862,   11496
     815,   11297,   11278,   11508,   11507,   11298,   11279,   11496,   11495
     816,   11316,   11297,   11507,   11505,   11317,   11298,   11495,   11493
     817,   11335,   11316,   11505,   11506,   11336,   11317,   11493,   11494
     818,   11264,   11150,   11334,   11518,   11263,   11149,   11335,   11506
     819,   11245,   11264,   11518,   11522,   11244,   11263,   11506,   11510
     820,   11226,   11245,   11522,   11526,   11225,   11244,   11510,   11514
     821,   11525,   11207,   11226,   11526,   11513,   11206,   11225,   11514
     822,   11527,   11188,   11207,   11525,   11515,   11187,   11206,   11513
     823,   11528,   11169,   11188,   11527,   11516,   11168,   11187,   11515
     824,    4826,    4774,   11169,   11528,    4825,    4775,   11168,   11516
     825,   11524,    4845,    4826,   11528,   11512,    4844,    4825,   11516
     826,   11523,   11524,   11528,   11527,   11511,   11512,   11516,   11515
     827,   11521,   11523,   11527,   11525,   11509,   11511,   11515,   11513
     828,   11522,   11521,   11525,   11526,   11510,   11509,   11513,   11514
     829,   11520,    4864,    4845,   11524,   11508,    4863,    4844,   11512
     830,   11519,   11520,   11524,   11523,   11507,   11508,   11512,   11511
     831,   11517,   11519,   11523,   11521,   11505,   11507,   11511,   11509
     832,   11518,   11517,   11521,   11522,   11506,   11505,   11509,   11510
     833,   11277,    4807,    4864,   11520,   11278,    4806,    4863,   11508
     834,   11296,   11277,   11520,   11519,   11297,   11278,   11508,   11507
     835,   11315,   11296,   11519,   11517,   11316,   11297,   11507,   11505
     836,   11334,   11315,   11517,   11518,   11335,   11316,   11505,   11506
     837,   11265,   11151,   11333,   11530,   11264,   11150,   11334,   11518
     838,   11246,   11265,   11530,   11534,   11245,   11264,   11518,   11522
     839,   11227,   11246,   11534,   11538,   11226,   11245,   11522,   11526
     840,   11537,   11208,   11227,   11538,   11525,   11207,   11226,   11526
     841,   11539,   11189,   11208,   11537,   11527,   11188,   11207,   11525
     842,   11540,   11170,   11189,   11539,   11528,   11169,   11188,   11527
     843,    4827,    4773,   11170,   11540,    4826,    4774,   11169,   11528
     844,   11536,    4846,    4827,   11540,   11524,    4845,    4826,   11528
     845,   11535,   11536,   11540,   11539,   11523,   11524,   11528,   11527
     846,   11533,   11535,   11539,   11537,   11521,   11523,   11527,   11525
     847,   11534,   11533,   11537,   11538,   11522,   11521,   11525,   11526
     848,   11532,    4865,    4846,   11536,   11520,    4864,    4845,   11524
     849,   11531,   11532,   11536,   11535,   11519,   11520,   11524,   11523
     850,   11529,   11531,   11535,   11533,   11517,   11519,   11523,   11521
     851,   11530,   11529,   11533,   11534,   11518,   11517,   11521,   11522
     852,   11276,    4808,    4865,   11532,   11277,    4807,    4864,   11520
     853,   11295,   11276,   11532,   11531,   11296,   11277,   11520,   11519
     854,   11314,   11295,   11531,   11529,   11315,   11296,   11519,   11517
     855,   11333,   11314,   11529,   11530,   11334,   11315,   11517,   11518
     856,   11266,   11152,   11332,   11542,   11265,   11151,   11333,   11530
     857,   11247,   11266,   11542,   11546,   11246,   11265,   11530,   11534
     858,   11228,   11247,   11546,   11550,   11227,   11246,   11534,   11538
     859,   11549,   11209,   11228,   11550,   11537,   11208,   11227,   11538
     860,   11551,   11190,   11209,   11549,   11539,   11189,   11208,   11537
     861,   11552,   11171,   11190,   11551,   11540,   11170,   11189,   11539
     862,    4828,    4772,   11171,   11552,    4827,    4773,   11170,   11540
     863,   11548,    4847,    4828,   11552,   11536,    4846,    4827,   11540
     864,   11547,   11548,   11552,   11551,   11535,   11536,   11540,   11539
     865,   11545,   11547,   11551,   11549,   11533,   11535,   11539,   11537
     866,   11546,   11545,   11549,   11550,   11534,   11533,   11537,   11538
     867,   11544,    4866,    4847,   11548,   11532,    4865,    4846,   11536
     868,   11543,   11544,   11548,   11547,   11531,   11532,   11536,   11535
     869,   11541,   11543,   11547,   11545,   11529,   11531,   11535,   11533
     870,   11542,   11541,   11545,   11546,   11530,   11529,   11533,   11534
     871,   11275,    4809,    4866,   11544,   11276,    4808,    4865,   11532
     872,   11294,   11275,   11544,   11543,   11295,   11276,   11532,   11531
     873,   11313,   11294,   11543,   11541,   11314,   11295,   11531,   11529
     874,   11332,   11313,   11541,   11542,   11333,   11314,   11529,   11530
     875,   11267,   11153,   11331,   11554,   11266,   11152,   11332,   11542
     876,   11248,   11267,   11554,   11558,   11247,   11266,   11542,   11546
     877,   11229,   11248,   11558,   11562,   11228,   11247,   11546,   11550
     878,   11561,   11210,   11229,   11562,   11549,   11209,   11228,   11550
     879,   11563,   11191,   11210,   11561,   11551,   11190,   11209,   11549
     880,   11564,   11172,   11191,   11563,   11552,   11171,   11190,   11551
     881,    4829,    4771,   11172,   11564,    4828,    4772,   11171,   11552
     882,   11560,    4848,    4829,   11564,   11548,    4847,    4828,   11552
     883,   11559,   11560,   11564,   11563,   11547,   11548,   11552,   11551
     884,   11557,   11559,   11563,   11561,   11545,   11547,   11551,   11549
     885,   11558,   11557,   11561,   11562,   11546,   11545,   11549,   11550
     886,   11556,    4867,    4848,   11560,   11544,    4866,    4847,   11548
     887,   11555,   11556,   11560,   11559,   11543,   11544,   11548,   11547
     888,   11553,   11555,   11559,   11557,   11541,   11543,   11547,   11545
     889,   11554,   11553,   11557,   11558,   11542,   11541,   11545,   11546
     890,   11274,    4810,    4867,   11556,   11275,    4809,    4866,   11544
     891,   11293,   11274,   11556,   11555,   11294,   11275,   11544,   11543
     892,   11312,   11293,   11555,   11553,   11313,   11294,   11543,   11541
     893,   11331,   11312,   11553,   11554,   11332,   11313,   11541,   11542
     894,   11268,   11154,   11330,   11566,   11267,   11153,   11331,   11554
     895,   11249,   11268,   11566,   11570,   11248,   11267,   11554,   11558
     896,   11230,   11249,   11570,   11574,   11229,   11248,   11558,   11562
     897,   11573,   11211,   11230,   11574,   11561,   11210,   11229,   11562
     898,   11575,   11192,   11211,   11573,   11563,   11191,   11210,   11561
     899,   11576,   11173,   11192,   11575,   11564,   11172,   11191,   11563
     900,    4830,    4770,   11173,   11576,    4829,    4771,   11172,   11564
     901,   11572,    4849,    4830,   11576,   11560,    4848,    4829,   11564
     902,   11571,   11572,   11576,   11575,   11559,   11560,   11564,   11563
     903,   11569,   11571,   11575,   11573,   11557,   11559,   11563,   11561
     904,   11570,   11569,   11573,   11574,   11558,   11557,   11561,   11562
     905,   11568,    4868,    4849,   11572,   11556,    4867,    4848,   11560
     906,   11567,   11568,   11572,   11571,   11555,   11556,   11560,   11559
     907,   11565,   11567,   11571,   11569,   11553,   11555,   11559,   11557
     908,   11566,   11565,   11569,   11570,   11554,   11553,   11557,   11558
     909,   11273,    4811,    4868,   11568,   11274,    4810,    4867,   11556
     910,   11292,   11273,   11568,   11567,   11293,   11274,   11556,   11555
     911,   11311,   11292,   11567,   11565,   11312,   11293,   11555,   11553
     912,   11330,   11311,   11565,   11566,   11331,   11312,   11553,   11554
     913,   11130,   11129,   11269,   11578,   11268,   11154,   11330,   11566
     914,   11131,   11130,   11578,   11582,   11249,   11268,   11566,   11570
     915,   11132,   11131,   11582,   11586,   11230,   11249,   11570,   11574
     916,   11585,   11133,   11132,   11586,   11573,   11211,   11230,   11574
     917,   11587,   11134,   11133,   11585,   11575,   11192,   11211,   11573
     918,   11588,   11135,   11134,   11587,   11576,   11173,   11192,   11575
     919,    4792,    4769,   11135,   11588,    4830,    4770,   11173,   11576
     920,   11584,    4791,    4792,   11588,   11572,    4849,    4830,   11576
     921,   11583,   11584,   11588,   11587,   11571,   11572,   11576,   11575
     922,   11581,   11583,   11587,   11585,   11569,   11571,   11575,   11573
     923,   11582,   11581,   11585,   11586,   11570,   11569,   11573,   11574
     924,   11580,    4790,    4791,   11584,   11568,    4868,    4849,   11572
     925,   11579,   11580,   11584,   11583,   11567,   11568,   11572,   11571
     926,   11577,   11579,   11583,   11581,   11565,   11567,   11571,   11569
     927,   11578,   11577,   11581,   11582,   11566,   11565,   11569,   11570
     928,   11272,    4789,    4790,   11580,   11273,    4811,    4868,   11568
     929,   11271,   11272,   11580,   11579,   11292,   11273,   11568,   11567
     930,   11270,   11271,   11579,   11577,   11311,   11292,   11567,   11565
     931,   11269,   11270,   11577,   11578,   11330,   11311,   11565,   11566
     932,   10900,   10899,   10909,   10914,   10941,   10929,   11013,   11021
     933,   10901,   10900,   10914,   10915,   10939,   10941,   11021,   11025
     934,   10902,   10901,   10915,   10910,   10937,   10939,   11025,   11029
     935,   10913,   10903,   10902,   10910,   11030,   10935,   10937,   11029
     936,   10912,   10904,   10903,   10913,   11031,   10933,   10935,   11030
     937,   10911,   10905,   10904,   10912,   11032,   10931,   10933,   11031
     938,    4491,    4489,   10905,   10911,    4559,    4519,   10931,   11032
     939,   10921,    4492,    4491,   10911,   11028,    4560,    4559,   11032
     940,   10920,   10921,   10911,   10912,   11027,   11028,   11032,   11031
     941,   10919,   10920,   10912,   10913,   11026,   11027,   11031,   11030
     942,   10915,   10919,   10913,   10910,   11025,   11026,   11030,   11029
     943,   10918,    4493,    4492,   10921,   11024,    4561,    4560,   11028
     944,   10917,   10918,   10921,   10920,   11023,   11024,   11028,   11027
     945,   10916,   10917,   10920,   10919,   11022,   11023,   11027,   11026
     946,   10914,   10916,   10919,   10915,   11021,   11022,   11026,   11025
     947,   10906,    4490,    4493,   10918,   10989,    4549,    4561,   11024
     948,   10907,   10906,   10918,   10917,   10997,   10989,   11024,   11023
     949,   10908,   10907,   10917,   10916,   11005,   10997,   11023,   11022
     950,   10909,   10908,   10916,   10914,   11013,   11005,   11022,   11021
     951,   10941,   10929,   11013,   11021,   10942,   10930,   11014,   11033
     952,   10939,   10941,   11021,   11025,   10940,   10942,   11033,   11037
     953,   10937,   10939,   11025,   11029,   10938,   10940,   11037,   11041
     954,   11030,   10935,   10937,   11029,   11042,   10936,   10938,   11041
     955,   11031,   10933,   10935,   11030,   11043,   10934,   10936,   11042
     956,   11032,   10931,   10933,   11031,   11044,   10932,   10934,   11043
     957,    4559,    4519,   10931,   11032,    4562,    4518,   10932,   11044
     958,   11028,    4560,    4559,   11032,   11040,    4563,    4562,   11044
     959,   11027,   11028,   11032,   11031,   11039,   11040,   11044,   11043
     960,   11026,   11027,   11031,   11030,   11038,   11039,   11043,   11042
     961,   11025,   11026,   11030,   11029,   11037,   11038,   11042,   11041
     962,   11024,    4561,    4560,   11028,   11036,    4564,    4563,   11040
     963,   11023,   11024,   11028,   11027,   11035,   11036,   11040,   11039
     964,   11022,   11023,   11027,   11026,   11034,   11035,   11039,   11038
     965,   11021,   11022,   11026,   11025,   11033,   11034,   11038,   11037
     966,   10989,    4549,    4561,   11024,   10990,    4548,    4564,   11036
     967,   10997,   10989,   11024,   11023,   10998,   10990,   11036,   11035
     968,   11005,   10997,   11023,   11022,   11006,   10998,   11035,   11034
     969,   11013,   11005,   11022,   11021,   11014,   11006,   11034,   11033
     970,   10942,   10930,   11014,   11033,   10928,   10922,   11015,   11045
     971,   10940,   10942,   11033,   11037,   10927,   10928,   11045,   11049
     972,   10938,   10940,   11037,   11041,   10926,   10927,   11049,   11053
     973,   11042,   10936,   10938,   11041,   11054,   10925,   10926,   11053
     974,   11043,   10934,   10936,   11042,   11055,   10924,   10925,   11054
     975,   11044,   10932,   10934,   11043,   11056,   10923,   10924,   11055
     976,    4562,    4518,   10932,   11044,    4565,    4517,   10923,   11056
     977,   11040,    4563,    4562,   11044,   11052,    4566,    4565,   11056
     978,   11039,   11040,   11044,   11043,   11051,   11052,   11056,   11055
     979,   11038,   11039,   11043,   11042,   11050,   11051,   11055,   11054
     980,   11037,   11038,   11042,   11041,   11049,   11050,   11054,   11053
     981,   11036,    4564,    4563,   11040,   11048,    4567,    4566,   11052
     982,   11035,   11036,   11040,   11039,   11047,   11048,   11052,   11051
     983,   11034,   11035,   11039,   11038,   11046,   11047,   11051,   11050
     984,   11033,   11034,   11038,   11037,   11045,   11046,   11050,   11049
     985,   10990,    4548,    4564,   11036,   10991,    4547,    4567,   11048
     986,   10998,   10990,   11036,   11035,   10999,   10991,   11048,   11047
     987,   11006,   10998,   11035,   11034,   11007,   10999,   11047,   11046
     988,   11014,   11006,   11034,   11033,   11015,   11007,   11046,   11045
     989,   10928,   10922,   11015,   11045,   10980,   10950,   11016,   11057
     990,   10927,   10928,   11045,   11049,   10975,   10980,   11057,   11061
     991,   10926,   10927,   11049,   11053,   10970,   10975,   11061,   11065
     992,   11054,   10925,   10926,   11053,   11066,   10965,   10970,   11065
     993,   11055,   10924,   10925,   11054,   11067,   10960,   10965,   11066
     994,   11056,   10923,   10924,   11055,   11068,   10955,   10960,   11067
     995,    4565,    4517,   10923,   11056,    4568,    4558,   10955,   11068
     996,   11052,    4566,    4565,   11056,   11064,    4569,    4568,   11068
     997,   11051,   11052,   11056,   11055,   11063,   11064,   11068,   11067
     998,   11050,   11051,   11055,   11054,   11062,   11063,   11067,   11066
     999,   11049,   11050,   11054,   11053,   11061,   11062,   11066,   11065
    1000,   11048,    4567,    4566,   11052,   11060,    4570,    4569,   11064
    1001,   11047,   11048,   11052,   11051,   11059,   11060,   11064,   11063
    1002,   11046,   11047,   11051,   11050,   11058,   11059,   11063,   11062
    1003,   11045,   11046,   11050,   11049,   11057,   11058,   11062,   11061
    1004,   10991,    4547,    4567,   11048,   10992,    4546,    4570,   11060
    1005,   10999,   10991,   11048,   11047,   11000,   10992,   11060,   11059
    1006,   11007,   10999,   11047,   11046,   11008,   11000,   11059,   11058
    1007,   11015,   11007,   11046,   11045,   11016,   11008,   11058,   11057
    1008,   10980,   10950,   11016,   11057,   10981,   10951,   11017,   11069
    1009,   10975,   10980,   11057,   11061,   10976,   10981,   11069,   11073
    1010,   10970,   10975,   11061,   11065,   10971,   10976,   11073,   11077
    1011,   11066,   10965,   10970,   11065,   11078,   10966,   10971,   11077
    1012,   11067,   10960,   10965,   11066,   11079,   10961,   10966,   11078
    1013,   11068,   10955,   10960,   11067,   11080,   10956,   10961,   11079
    1014,    4568,    4558,   10955,   11068,    4571,    4557,   10956,   11080
    1015,   11064,    4569,    4568,   11068,   11076,    4572,    4571,   11080
    1016,   11063,   11064,   11068,   11067,   11075,   11076,   11080,   11079
    1017,   11062,   11063,   11067,   11066,   11074,   11075,   11079,   11078
    1018,   11061,   11062,   11066,   11065,   11073,   11074,   11078,   11077
    1019,   11060,    4570,    4569,   11064,   11072,    4573,    4572,   11076
    1020,   11059,   11060,   11064,   11063,   11071,   11072,   11076,   11075
    1021,   11058,   11059,   11063,   11062,   11070,   11071,   11075,   11074
    1022,   11057,   11058,   11062,   11061,   11069,   11070,   11074,   11073
    1023,   10992,    4546,    4570,   11060,   10993,    4545,    4573,   11072
    1024,   11000,   10992,   11060,   11059,   11001,   10993,   11072,   11071
    1025,   11008,   11000,   11059,   11058,   11009,   11001,   11071,   11070
    1026,   11016,   11008,   11058,   11057,   11017,   11009,   11070,   11069
    1027,   10981,   10951,   11017,   11069,   10982,   10952,   11018,   11081
    1028,   10976,   10981,   11069,   11073,   10977,   10982,   11081,   11085
    1029,   10971,   10976,   11073,   11077,   10972,   10977,   11085,   11089
    1030,   11078,   10966,   10971,   11077,   11090,   10967,   10972,   11089
    1031,   11079,   10961,   10966,   11078,   11091,   10962,   10967,   11090
    1032,   11080,   10956,   10961,   11079,   11092,   10957,   10962,   11091
    1033,    4571,    4557,   10956,   11080,    4574,    4556,   10957,   11092
    1034,   11076,    4572,    4571,   11080,   11088,    4575,    4574,   11092
    1035,   11075,   11076,   11080,   11079,   11087,   11088,   11092,   11091
    1036,   11074,   11075,   11079,   11078,   11086,   11087,   11091,   11090
    1037,   11073,   11074,   11078,   11077,   11085,   11086,   11090,   11089
    1038,   11072,    4573,    4572,   11076,   11084,    4576,    4575,   11088
    1039,   11071,   11072,   11076,   11075,   11083,   11084,   11088,   11087
    1040,   11070,   11071,   11075,   11074,   11082,   11083,   11087,   11086
    1041,   11069,   11070,   11074,   11073,   11081,   11082,   11086,   11085
    1042,   10993,    4545,    4573,   11072,   10994,    4544,    4576,   11084
    1043,   11001,   10993,   11072,   11071,   11002,   10994,   11084,   11083
    1044,   11009,   11001,   11071,   11070,   11010,   11002,   11083,   11082
    1045,   11017,   11009,   11070,   11069,   11018,   11010,   11082,   11081
    1046,   10982,   10952,   11018,   11081,   10983,   10953,   11019,   11093
    1047,   10977,   10982,   11081,   11085,   10978,   10983,   11093,   11097
    1048,   10972,   10977,   11085,   11089,   10973,   10978,   11097,   11101
    1049,   11090,   10967,   10972,   11089,   11102,   10968,   10973,   11101
    1050,   11091,   10962,   10967,   11090,   11103,   10963,   10968,   11102
    1051,   11092,   10957,   10962,   11091,   11104,   10958,   10963,   11103
    1052,    4574,    4556,   10957,   11092,    4577,    4555,   10958,   11104
    1053,   11088,    4575,    4574,   11092,   11100,    4578,    4577,   11104
    1054,   11087,   11088,   11092,   11091,   11099,   11100,   11104,   11103
    1055,   11086,   11087,   11091,   11090,   11098,   11099,   11103,   11102
    1056,   11085,   11086,   11090,   11089,   11097,   11098,   11102,   11101
    1057,   11084,    4576,    4575,   11088,   11096,    4579,    4578,   11100
    1058,   11083,   11084,   11088,   11087,   11095,   11096,   11100,   11099
    1059,   11082,   11083,   11087,   11086,   11094,   11095,   11099,   11098
    1060,   11081,   11082,   11086,   11085,   11093,   11094,   11098,   11097
    1061,   10994,    4544,    4576,   11084,   10995,    4543,    4579,   11096
    1062,   11002,   10994,   11084,   11083,   11003,   10995,   11096,   11095
    1063,   11010,   11002,   11083,   11082,   11011,   11003,   11095,   11094
    1064,   11018,   11010,   11082,   11081,   11019,   11011,   11094,   11093
    1065,   10983,   10953,   11019,   11093,   10984,   10954,   11020,   11105
    1066,   10978,   10983,   11093,   11097,   10979,   10984,   11105,   11109
    1067,   10973,   10978,   11097,   11101,   10974,   10979,   11109,   11113
    1068,   11102,   10968,   10973,   11101,   11114,   10969,   10974,   11113
    1069,   11103,   10963,   10968,   11102,   11115,   10964,   10969,   11114
    1070,   11104,   10958,   10963,   11103,   11116,   10959,   10964,   11115
    1071,    4577,    4555,   10958,   11104,    4580,    4554,   10959,   11116
    1072,   11100,    4578,    4577,   11104,   11112,    4581,    4580,   11116
    1073,   11099,   11100,   11104,   11103,   11111,   11112,   11116,   11115
    1074,   11098,   11099,   11103,   11102,   11110,   11111,   11115,   11114
    1075,   11097,   11098,   11102,   11101,   11109,   11110,   11114,   11113
    1076,   11096,    4579,    4578,   11100,   11108,    4582,    4581,   11112
    1077,   11095,   11096,   11100,   11099,   11107,   11108,   11112,   11111
    1078,   11094,   11095,   11099,   11098,   11106,   11107,   11111,   11110
    1079,   11093,   11094,   11098,   11097,   11105,   11106,   11110,   11109
    1080,   10995,    4543,    4579,   11096,   10996,    4542,    4582,   11108
    1081,   11003,   10995,   11096,   11095,   11004,   10996,   11108,   11107
    1082,   11011,   11003,   11095,   11094,   11012,   11004,   11107,   11106
    1083,   11019,   11011,   11094,   11093,   11020,   11012,   11106,   11105
    1084,   10984,   10954,   11020,   11105,   10944,   10943,   10988,   11117
    1085,   10979,   10984,   11105,   11109,   10945,   10944,   11117,   11121
    1086,   10974,   10979,   11109,   11113,   10946,   10945,   11121,   11125
    1087,   11114,   10969,   10974,   11113,   11126,   10947,   10946,   11125
    1088,   11115,   10964,   10969,   11114,   11127,   10948,   10947,   11126
    1089,   11116,   10959,   10964,   11115,   11128,   10949,   10948,   11127
    1090,    4580,    4554,   10959,   11116,    4551,    4550,   10949,   11128
    1091,   11112,    4581,    4580,   11116,   11124,    4552,    4551,   11128
    1092,   11111,   11112,   11116,   11115,   11123,   11124,   11128,   11127
    1093,   11110,   11111,   11115,   11114,   11122,   11123,   11127,   11126
    1094,   11109,   11110,   11114,   11113,   11121,   11122,   11126,   11125
    1095,   11108,    4582,    4581,   11112,   11120,    4553,    4552,   11124
    1096,   11107,   11108,   11112,   11111,   11119,   11120,   11124,   11123
    1097,   11106,   11107,   11111,   11110,   11118,   11119,   11123,   11122
    1098,   11105,   11106,   11110,   11109,   11117,   11118,   11122,   11121
    1099,   10996,    4542,    4582,   11108,   10985,    4541,    4553,   11120
    1100,   11004,   10996,   11108,   11107,   10986,   10985,   11120,   11119
    1101,   11012,   11004,   11107,   11106,   10987,   10986,   11119,   11118
    1102,   11020,   11012,   11106,   11105,   10988,   10987,   11118,   11117
*ELEMENT, TYPE=C3D8I, ELSET=plate
    1103,    6156,    6149,    6150,    6151,    5422,    5415,    5416,    5417
    1104,    6151,    6152,    6155,    6156,    5417,    5418,    5421,    5422
    1105,    6146,    6148,    6155,    6152,    5412,    5414,    5421,    5418
    1106,    6145,    6146,    6152,    6153,    5411,    5412,    5418,    5419
    1107,    6144,    6145,    6153,    6154,    5410,    5411,    5419,    5420
    1108,    6141,    6142,    6149,    6156,    5407,    5408,    5415,    5422
    1109,    6140,    6141,    6156,    6155,    5406,    5407,    5422,    5421
    1110,    6139,    6140,    6155,    6148,    5405,    5406,    5421,    5414
    1111,    6138,    6139,    6148,    6147,    5404,    5405,    5414,    5413
    1112,    6137,    6138,    6147,    6143,    5403,    5404,    5413,    5409
    1113,    6135,    6136,    6144,    6154,    5401,    5402,    5410,    5420
    1114,    6134,    6135,    6154,    6153,    5400,    5401,    5420,    5419
    1115,    6133,    6134,    6153,    6152,    5399,    5400,    5419,    5418
    1116,    6132,    6133,    6152,    6151,    5398,    5399,    5418,    5417
    1117,    6131,    6132,    6151,    6150,    5397,    5398,    5417,    5416
    1118,    6130,    6131,    6150,    6149,    5396,    5397,    5416,    5415
    1119,    6129,    6130,    6149,    6142,    5395,    5396,    5415,    5408
    1120,    6146,    6127,    6147,    6148,    5412,    5393,    5413,    5414
    1121,    6127,    6128,    6143,    6147,    5393,    5394,    5409,    5413
    1122,    6126,    6127,    6146,    6145,    5392,    5393,    5412,    5411
    1123,    6125,    6126,    6145,    6144,    5391,    5392,    5411,    5410
    1124,    6120,    6121,    6125,    6144,    5386,    5387,    5391,    5410
    1125,    6119,    6120,    6144,    6136,    5385,    5386,    5410,    5402
    1126,    6123,    6124,    6137,    6143,    5389,    5390,    5403,    5409
    1127,    6122,    6123,    6143,    6128,    5388,    5389,    5409,    5394
    1128,    6117,    6118,    6129,    6142,    5383,    5384,    5395,    5408
    1129,    6116,    6117,    6142,    6141,    5382,    5383,    5408,    5407
    1130,    6115,    6116,    6141,    6140,    5381,    5382,    5407,    5406
    1131,    6114,    6115,    6140,    6139,    5380,    5381,    5406,    5405
    1132,    6113,    6114,    6139,    6138,    5379,    5380,    5405,    5404
    1133,    6112,    6113,    6138,    6137,    5378,    5379,    5404,    5403
    1134,    6111,    6112,    6137,    6124,    5377,    5378,    5403,    5390
    1135,    6109,    6110,    6119,    6136,    5375,    5376,    5385,    5402
    1136,    6108,    6109,    6136,    6135,    5374,    5375,    5402,    5401
    1137,    6107,    6108,    6135,    6134,    5373,    5374,    5401,    5400
    1138,    6106,    6107,    6134,    6133,    5372,    5373,    5400,    5399
    1139,    6105,    6106,    6133,    6132,    5371,    5372,    5399,    5398
    1140,    6104,    6105,    6132,    6131,    5370,    5371,    5398,    5397
    1141,    6103,    6104,    6131,    6130,    5369,    5370,    5397,    5396
    1142,    6102,    6103,    6130,    6129,    5368,    5369,    5396,    5395
    1143,    6101,    6102,    6129,    6118,    5367,    5368,    5395,    5384
    1144,    6022,    6024,    6122,    6128,    5340,    5341,    5388,    5394
    1145,    6020,    6022,    6128,    6127,    5339,    5340,    5394,    5393
    1146,    6018,    6020,    6127,    6126,    5338,    5339,    5393,    5392
    1147,    6016,    6018,    6126,    6125,    5337,    5338,    5392,    5391
    1148,    6014,    6016,    6125,    6121,    5336,    5337,    5391,    5387
    1149,    6037,    6039,    6111,    6124,    5344,    5343,    5377,    5390
    1150,    6035,    6037,    6124,    6123,    5345,    5344,    5390,    5389
    1151,    6033,    6035,    6123,    6122,    5346,    5345,    5389,    5388
    1152,    6012,    6033,    6122,    6024,    5335,    5346,    5388,    5341
    1153,    6004,    5993,    6014,    6121,    5334,    5330,    5336,    5387
    1154,    6003,    6004,    6121,    6120,    5333,    5334,    5387,    5386
    1155,    6002,    6003,    6120,    6119,    5332,    5333,    5386,    5385
    1156,    6001,    6002,    6119,    6110,    5331,    5332,    5385,    5376
    1157,    6097,    6099,    6101,    6118,    5349,    5348,    5367,    5384
    1158,    6095,    6097,    6118,    6117,    5350,    5349,    5384,    5383
    1159,    6093,    6095,    6117,    6116,    5351,    5350,    5383,    5382
    1160,    6091,    6093,    6116,    6115,    5352,    5351,    5382,    5381
    1161,    6089,    6091,    6115,    6114,    5353,    5352,    5381,    5380
    1162,    6087,    6089,    6114,    6113,    5354,    5353,    5380,    5379
    1163,    6085,    6087,    6113,    6112,    5355,    5354,    5379,    5378
    1164,    6083,    6085,    6112,    6111,    5356,    5355,    5378,    5377
    1165,    6032,    6083,    6111,    6039,    5342,    5356,    5377,    5343
    1166,    6055,    5996,    6001,    6110,    5357,    5329,    5331,    5376
    1167,    6057,    6055,    6110,    6109,    5358,    5357,    5376,    5375
    1168,    6059,    6057,    6109,    6108,    5359,    5358,    5375,    5374
    1169,    6061,    6059,    6108,    6107,    5360,    5359,    5374,    5373
    1170,    6063,    6061,    6107,    6106,    5361,    5360,    5373,    5372
    1171,    6065,    6063,    6106,    6105,    5362,    5361,    5372,    5371
    1172,    6067,    6065,    6105,    6104,    5363,    5362,    5371,    5370
    1173,    6069,    6067,    6104,    6103,    5364,    5363,    5370,    5369
    1174,    6071,    6069,    6103,    6102,    5365,    5364,    5369,    5368
    1175,    6073,    6071,    6102,    6101,    5366,    5365,    5368,    5367
    1176,    6042,    6073,    6101,    6099,    5347,    5366,    5367,    5348
    1177,    6212,    6205,    6206,    6207,    6156,    6149,    6150,    6151
    1178,    6207,    6208,    6211,    6212,    6151,    6152,    6155,    6156
    1179,    6202,    6204,    6211,    6208,    6146,    6148,    6155,    6152
    1180,    6201,    6202,    6208,    6209,    6145,    6146,    6152,    6153
    1181,    6200,    6201,    6209,    6210,    6144,    6145,    6153,    6154
    1182,    6197,    6198,    6205,    6212,    6141,    6142,    6149,    6156
    1183,    6196,    6197,    6212,    6211,    6140,    6141,    6156,    6155
    1184,    6195,    6196,    6211,    6204,    6139,    6140,    6155,    6148
    1185,    6194,    6195,    6204,    6203,    6138,    6139,    6148,    6147
    1186,    6193,    6194,    6203,    6199,    6137,    6138,    6147,    6143
    1187,    6191,    6192,    6200,    6210,    6135,    6136,    6144,    6154
    1188,    6190,    6191,    6210,    6209,    6134,    6135,    6154,    6153
    1189,    6189,    6190,    6209,    6208,    6133,    6134,    6153,    6152
    1190,    6188,    6189,    6208,    6207,    6132,    6133,    6152,    6151
    1191,    6187,    6188,    6207,    6206,    6131,    6132,    6151,    6150
    1192,    6186,    6187,    6206,    6205,    6130,    6131,    6150,    6149
    1193,    6185,    6186,    6205,    6198,    6129,    6130,    6149,    6142
    1194,    6202,    6183,    6203,    6204,    6146,    6127,    6147,    6148
    1195,    6183,    6184,    6199,    6203,    6127,    6128,    6143,    6147
    1196,    6182,    6183,    6202,    6201,    6126,    6127,    6146,    6145
    1197,    6181,    6182,    6201,    6200,    6125,    6126,    6145,    6144
    1198,    6176,    6177,    6181,    6200,    6120,    6121,    6125,    6144
    1199,    6175,    6176,    6200,    6192,    6119,    6120,    6144,    6136
    1200,    6179,    6180,    6193,    6199,    6123,    6124,    6137,    6143
    1201,    6178,    6179,    6199,    6184,    6122,    6123,    6143,    6128
    1202,    6173,    6174,    6185,    6198,    6117,    6118,    6129,    6142
    1203,    6172,    6173,    6198,    6197,    6116,    6117,    6142,    6141
    1204,    6171,    6172,    6197,    6196,    6115,    6116,    6141,    6140
    1205,    6170,    6171,    6196,    6195,    6114,    6115,    6140,    6139
    1206,    6169,    6170,    6195,    6194,    6113,    6114,    6139,    6138
    1207,    6168,    6169,    6194,    6193,    6112,    6113,    6138,    6137
    1208,    6167,    6168,    6193,    6180,    6111,    6112,    6137,    6124
    1209,    6165,    6166,    6175,    6192,    6109,    6110,    6119,    6136
    1210,    6164,    6165,    6192,    6191,    6108,    6109,    6136,    6135
    1211,    6163,    6164,    6191,    6190,    6107,    6108,    6135,    6134
    1212,    6162,    6163,    6190,    6189,    6106,    6107,    6134,    6133
    1213,    6161,    6162,    6189,    6188,    6105,    6106,    6133,    6132
    1214,    6160,    6161,    6188,    6187,    6104,    6105,    6132,    6131
    1215,    6159,    6160,    6187,    6186,    6103,    6104,    6131,    6130
    1216,    6158,    6159,    6186,    6185,    6102,    6103,    6130,    6129
    1217,    6157,    6158,    6185,    6174,    6101,    6102,    6129,    6118
    1218,    6023,    6025,    6178,    6184,    6022,    6024,    6122,    6128
    1219,    6021,    6023,    6184,    6183,    6020,    6022,    6128,    6127
    1220,    6019,    6021,    6183,    6182,    6018,    6020,    6127,    6126
    1221,    6017,    6019,    6182,    6181,    6016,    6018,    6126,    6125
    1222,    6015,    6017,    6181,    6177,    6014,    6016,    6125,    6121
    1223,    6038,    6040,    6167,    6180,    6037,    6039,    6111,    6124
    1224,    6036,    6038,    6180,    6179,    6035,    6037,    6124,    6123
    1225,    6034,    6036,    6179,    6178,    6033,    6035,    6123,    6122
    1226,    6013,    6034,    6178,    6025,    6012,    6033,    6122,    6024
    1227,    6000,    5994,    6015,    6177,    6004,    5993,    6014,    6121
    1228,    5999,    6000,    6177,    6176,    6003,    6004,    6121,    6120
    1229,    5998,    5999,    6176,    6175,    6002,    6003,    6120,    6119
    1230,    5997,    5998,    6175,    6166,    6001,    6002,    6119,    6110
    1231,    6098,    6100,    6157,    6174,    6097,    6099,    6101,    6118
    1232,    6096,    6098,    6174,    6173,    6095,    6097,    6118,    6117
    1233,    6094,    6096,    6173,    6172,    6093,    6095,    6117,    6116
    1234,    6092,    6094,    6172,    6171,    6091,    6093,    6116,    6115
    1235,    6090,    6092,    6171,    6170,    6089,    6091,    6115,    6114
    1236,    6088,    6090,    6170,    6169,    6087,    6089,    6114,    6113
    1237,    6086,    6088,    6169,    6168,    6085,    6087,    6113,    6112
    1238,    6084,    6086,    6168,    6167,    6083,    6085,    6112,    6111
    1239,    6031,    6084,    6167,    6040,    6032,    6083,    6111,    6039
    1240,    6054,    5995,    5997,    6166,    6055,    5996,    6001,    6110
    1241,    6056,    6054,    6166,    6165,    6057,    6055,    6110,    6109
    1242,    6058,    6056,    6165,    6164,    6059,    6057,    6109,    6108
    1243,    6060,    6058,    6164,    6163,    6061,    6059,    6108,    6107
    1244,    6062,    6060,    6163,    6162,    6063,    6061,    6107,    6106
    1245,    6064,    6062,    6162,    6161,    6065,    6063,    6106,    6105
    1246,    6066,    6064,    6161,    6160,    6067,    6065,    6105,    6104
    1247,    6068,    6066,    6160,    6159,    6069,    6067,    6104,    6103
    1248,    6070,    6068,    6159,    6158,    6071,    6069,    6103,    6102
    1249,    6072,    6070,    6158,    6157,    6073,    6071,    6102,    6101
    1250,    6043,    6072,    6157,    6100,    6042,    6073,    6101,    6099
    1251,    6268,    6261,    6262,    6263,    6212,    6205,    6206,    6207
    1252,    6263,    6264,    6267,    6268,    6207,    6208,    6211,    6212
    1253,    6258,    6260,    6267,    6264,    6202,    6204,    6211,    6208
    1254,    6257,    6258,    6264,    6265,    6201,    6202,    6208,    6209
    1255,    6256,    6257,    6265,    6266,    6200,    6201,    6209,    6210
    1256,    6253,    6254,    6261,    6268,    6197,    6198,    6205,    6212
    1257,    6252,    6253,    6268,    6267,    6196,    6197,    6212,    6211
    1258,    6251,    6252,    6267,    6260,    6195,    6196,    6211,    6204
    1259,    6250,    6251,    6260,    6259,    6194,    6195,    6204,    6203
    1260,    6249,    6250,    6259,    6255,    6193,    6194,    6203,    6199
    1261,    6247,    6248,    6256,    6266,    6191,    6192,    6200,    6210
    1262,    6246,    6247,    6266,    6265,    6190,    6191,    6210,    6209
    1263,    6245,    6246,    6265,    6264,    6189,    6190,    6209,    6208
    1264,    6244,    6245,    6264,    6263,    6188,    6189,    6208,    6207
    1265,    6243,    6244,    6263,    6262,    6187,    6188,    6207,    6206
    1266,    6242,    6243,    6262,    6261,    6186,    6187,    6206,    6205
    1267,    6241,    6242,    6261,    6254,    6185,    6186,    6205,    6198
    1268,    6258,    6239,    6259,    6260,    6202,    6183,    6203,    6204
    1269,    6239,    6240,    6255,    6259,    6183,    6184,    6199,    6203
    1270,    6238,    6239,    6258,    6257,    6182,    6183,    6202,    6201
    1271,    6237,    6238,    6257,    6256,    6181,    6182,    6201,    6200
    1272,    6232,    6233,    6237,    6256,    6176,    6177,    6181,    6200
    1273,    6231,    6232,    6256,    6248,    6175,    6176,    6200,    6192
    1274,    6235,    6236,    6249,    6255,    6179,    6180,    6193,    6199
    1275,    6234,    6235,    6255,    6240,    6178,    6179,    6199,    6184
    1276,    6229,    6230,    6241,    6254,    6173,    6174,    6185,    6198
    1277,    6228,    6229,    6254,    6253,    6172,    6173,    6198,    6197
    1278,    6227,    6228,    6253,    6252,    6171,    6172,    6197,    6196
    1279,    6226,    6227,    6252,    6251,    6170,    6171,    6196,    6195
    1280,    6225,    6226,    6251,    6250,    6169,    6170,    6195,    6194
    1281,    6224,    6225,    6250,    6249,    6168,    6169,    6194,    6193
    1282,    6223,    6224,    6249,    6236,    6167,    6168,    6193,    6180
    1283,    6221,    6222,    6231,    6248,    6165,    6166,    6175,    6192
    1284,    6220,    6221,    6248,    6247,    6164,    6165,    6192,    6191
    1285,    6219,    6220,    6247,    6246,    6163,    6164,    6191,    6190
    1286,    6218,    6219,    6246,    6245,    6162,    6163,    6190,    6189
    1287,    6217,    6218,    6245,    6244,    6161,    6162,    6189,    6188
    1288,    6216,    6217,    6244,    6243,    6160,    6161,    6188,    6187
    1289,    6215,    6216,    6243,    6242,    6159,    6160,    6187,    6186
    1290,    6214,    6215,    6242,    6241,    6158,    6159,    6186,    6185
    1291,    6213,    6214,    6241,    6230,    6157,    6158,    6185,    6174
    1292,    6007,    6006,    6234,    6240,    6023,    6025,    6178,    6184
    1293,    6008,    6007,    6240,    6239,    6021,    6023,    6184,    6183
    1294,    6009,    6008,    6239,    6238,    6019,    6021,    6183,    6182
    1295,    6010,    6009,    6238,    6237,    6017,    6019,    6182,    6181
    1296,    6011,    6010,    6237,    6233,    6015,    6017,    6181,    6177
    1297,    6029,    6030,    6223,    6236,    6038,    6040,    6167,    6180
    1298,    6028,    6029,    6236,    6235,    6036,    6038,    6180,    6179
    1299,    6027,    6028,    6235,    6234,    6034,    6036,    6179,    6178
    1300,    6005,    6027,    6234,    6006,    6013,    6034,    6178,    6025
    1301,    5989,    5987,    6011,    6233,    6000,    5994,    6015,    6177
    1302,    5990,    5989,    6233,    6232,    5999,    6000,    6177,    6176
    1303,    5991,    5990,    6232,    6231,    5998,    5999,    6176,    6175
    1304,    5992,    5991,    6231,    6222,    5997,    5998,    6175,    6166
    1305,    6081,    6082,    6213,    6230,    6098,    6100,    6157,    6174
    1306,    6080,    6081,    6230,    6229,    6096,    6098,    6174,    6173
    1307,    6079,    6080,    6229,    6228,    6094,    6096,    6173,    6172
    1308,    6078,    6079,    6228,    6227,    6092,    6094,    6172,    6171
    1309,    6077,    6078,    6227,    6226,    6090,    6092,    6171,    6170
    1310,    6076,    6077,    6226,    6225,    6088,    6090,    6170,    6169
    1311,    6075,    6076,    6225,    6224,    6086,    6088,    6169,    6168
    1312,    6074,    6075,    6224,    6223,    6084,    6086,    6168,    6167
    1313,    6026,    6074,    6223,    6030,    6031,    6084,    6167,    6040
    1314,    6053,    5988,    5992,    6222,    6054,    5995,    5997,    6166
    1315,    6052,    6053,    6222,    6221,    6056,    6054,    6166,    6165
    1316,    6051,    6052,    6221,    6220,    6058,    6056,    6165,    6164
    1317,    6050,    6051,    6220,    6219,    6060,    6058,    6164,    6163
    1318,    6049,    6050,    6219,    6218,    6062,    6060,    6163,    6162
    1319,    6048,    6049,    6218,    6217,    6064,    6062,    6162,    6161
    1320,    6047,    6048,    6217,    6216,    6066,    6064,    6161,    6160
    1321,    6046,    6047,    6216,    6215,    6068,    6066,    6160,    6159
    1322,    6045,    6046,    6215,    6214,    6070,    6068,    6159,    6158
    1323,    6044,    6045,    6214,    6213,    6072,    6070,    6158,    6157
    1324,    6041,    6044,    6213,    6082,    6043,    6072,    6157,    6100
    1325,    5422,    5415,    5416,    5417,    5706,    5699,    5700,    5701
    1326,    5417,    5418,    5421,    5422,    5701,    5702,    5705,    5706
    1327,    5412,    5414,    5421,    5418,    5696,    5698,    5705,    5702
    1328,    5411,    5412,    5418,    5419,    5695,    5696,    5702,    5703
    1329,    5410,    5411,    5419,    5420,    5694,    5695,    5703,    5704
    1330,    5407,    5408,    5415,    5422,    5691,    5692,    5699,    5706
    1331,    5406,    5407,    5422,    5421,    5690,    5691,    5706,    5705
    1332,    5405,    5406,    5421,    5414,    5689,    5690,    5705,    5698
    1333,    5404,    5405,    5414,    5413,    5688,    5689,    5698,    5697
    1334,    5403,    5404,    5413,    5409,    5687,    5688,    5697,    5693
    1335,    5401,    5402,    5410,    5420,    5685,    5686,    5694,    5704
    1336,    5400,    5401,    5420,    5419,    5684,    5685,    5704,    5703
    1337,    5399,    5400,    5419,    5418,    5683,    5684,    5703,    5702
    1338,    5398,    5399,    5418,    5417,    5682,    5683,    5702,    5701
    1339,    5397,    5398,    5417,    5416,    5681,    5682,    5701,    5700
    1340,    5396,    5397,    5416,    5415,    5680,    5681,    5700,    5699
    1341,    5395,    5396,    5415,    5408,    5679,    5680,    5699,    5692
    1342,    5412,    5393,    5413,    5414,    5696,    5677,    5697,    5698
    1343,    5393,    5394,    5409,    5413,    5677,    5678,    5693,    5697
    1344,    5392,    5393,    5412,    5411,    5676,    5677,    5696,    5695
    1345,    5391,    5392,    5411,    5410,    5675,    5676,    5695,    5694
    1346,    5386,    5387,    5391,    5410,    5670,    5671,    5675,    5694
    1347,    5385,    5386,    5410,    5402,    5669,    5670,    5694,    5686
    1348,    5389,    5390,    5403,    5409,    5673,    5674,    5687,    5693
    1349,    5388,    5389,    5409,    5394,    5672,    5673,    5693,    5678
    1350,    5383,    5384,    5395,    5408,    5667,    5668,    5679,    5692
    1351,    5382,    5383,    5408,    5407,    5666,    5667,    5692,    5691
    1352,    5381,    5382,    5407,    5406,    5665,    5666,    5691,    5690
    1353,    5380,    5381,    5406,    5405,    5664,    5665,    5690,    5689
    1354,    5379,    5380,    5405,    5404,    5663,    5664,    5689,    5688
    1355,    5378,    5379,    5404,    5403,    5662,    5663,    5688,    5687
    1356,    5377,    5378,    5403,    5390,    5661,    5662,    5687,    5674
    1357,    5375,    5376,    5385,    5402,    5659,    5660,    5669,    5686
    1358,    5374,    5375,    5402,    5401,    5658,    5659,    5686,    5685
    1359,    5373,    5374,    5401,    5400,    5657,    5658,    5685,    5684
    1360,    5372,    5373,    5400,    5399,    5656,    5657,    5684,    5683
    1361,    5371,    5372,    5399,    5398,    5655,    5656,    5683,    5682
    1362,    5370,    5371,    5398,    5397,    5654,    5655,    5682,    5681
    1363,    5369,    5370,    5397,    5396,    5653,    5654,    5681,    5680
    1364,    5368,    5369,    5396,    5395,    5652,    5653,    5680,    5679
    1365,    5367,    5368,    5395,    5384,    5651,    5652,    5679,    5668
    1366,    5340,    5341,    5388,    5394,    5495,    5500,    5672,    5678
    1367,    5339,    5340,    5394,    5393,    5490,    5495,    5678,    5677
    1368,    5338,    5339,    5393,    5392,    5485,    5490,    5677,    5676
    1369,    5337,    5338,    5392,    5391,    5480,    5485,    5676,    5675
    1370,    5336,    5337,    5391,    5387,    5475,    5480,    5675,    5671
    1371,    5344,    5343,    5377,    5390,    5525,    5530,    5661,    5674
    1372,    5345,    5344,    5390,    5389,    5520,    5525,    5674,    5673
    1373,    5346,    5345,    5389,    5388,    5515,    5520,    5673,    5672
    1374,    5335,    5346,    5388,    5341,    5464,    5515,    5672,    5500
    1375,    5334,    5330,    5336,    5387,    5442,    5428,    5475,    5671
    1376,    5333,    5334,    5387,    5386,    5441,    5442,    5671,    5670
    1377,    5332,    5333,    5386,    5385,    5440,    5441,    5670,    5669
    1378,    5331,    5332,    5385,    5376,    5439,    5440,    5669,    5660
    1379,    5349,    5348,    5367,    5384,    5585,    5590,    5651,    5668
    1380,    5350,    5349,    5384,    5383,    5580,    5585,    5668,    5667
    1381,    5351,    5350,    5383,    5382,    5575,    5580,    5667,    5666
    1382,    5352,    5351,    5382,    5381,    5570,    5575,    5666,    5665
    1383,    5353,    5352,    5381,    5380,    5565,    5570,    5665,    5664
    1384,    5354,    5353,    5380,    5379,    5560,    5565,    5664,    5663
    1385,    5355,    5354,    5379,    5378,    5555,    5560,    5663,    5662
    1386,    5356,    5355,    5378,    5377,    5550,    5555,    5662,    5661
    1387,    5342,    5356,    5377,    5343,    5502,    5550,    5661,    5530
    1388,    5357,    5329,    5331,    5376,    5601,    5434,    5439,    5660
    1389,    5358,    5357,    5376,    5375,    5606,    5601,    5660,    5659
    1390,    5359,    5358,    5375,    5374,    5611,    5606,    5659,    5658
    1391,    5360,    5359,    5374,    5373,    5616,    5611,    5658,    5657
    1392,    5361,    5360,    5373,    5372,    5621,    5616,    5657,    5656
    1393,    5362,    5361,    5372,    5371,    5626,    5621,    5656,    5655
    1394,    5363,    5362,    5371,    5370,    5631,    5626,    5655,    5654
    1395,    5364,    5363,    5370,    5369,    5636,    5631,    5654,    5653
    1396,    5365,    5364,    5369,    5368,    5641,    5636,    5653,    5652
    1397,    5366,    5365,    5368,    5367,    5646,    5641,    5652,    5651
    1398,    5347,    5366,    5367,    5348,    5536,    5646,    5651,    5590
    1399,    5706,    5699,    5700,    5701,    5762,    5755,    5756,    5757
    1400,    5701,    5702,    5705,    5706,    5757,    5758,    5761,    5762
    1401,    5696,    5698,    5705,    5702,    5752,    5754,    5761,    5758
    1402,    5695,    5696,    5702,    5703,    5751,    5752,    5758,    5759
    1403,    5694,    5695,    5703,    5704,    5750,    5751,    5759,    5760
    1404,    5691,    5692,    5699,    5706,    5747,    5748,    5755,    5762
    1405,    5690,    5691,    5706,    5705,    5746,    5747,    5762,    5761
    1406,    5689,    5690,    5705,    5698,    5745,    5746,    5761,    5754
    1407,    5688,    5689,    5698,    5697,    5744,    5745,    5754,    5753
    1408,    5687,    5688,    5697,    5693,    5743,    5744,    5753,    5749
    1409,    5685,    5686,    5694,    5704,    5741,    5742,    5750,    5760
    1410,    5684,    5685,    5704,    5703,    5740,    5741,    5760,    5759
    1411,    5683,    5684,    5703,    5702,    5739,    5740,    5759,    5758
    1412,    5682,    5683,    5702,    5701,    5738,    5739,    5758,    5757
    1413,    5681,    5682,    5701,    5700,    5737,    5738,    5757,    5756
    1414,    5680,    5681,    5700,    5699,    5736,    5737,    5756,    5755
    1415,    5679,    5680,    5699,    5692,    5735,    5736,    5755,    5748
    1416,    5696,    5677,    5697,    5698,    5752,    5733,    5753,    5754
    1417,    5677,    5678,    5693,    5697,    5733,    5734,    5749,    5753
    1418,    5676,    5677,    5696,    5695,    5732,    5733,    5752,    5751
    1419,    5675,    5676,    5695,    5694,    5731,    5732,    5751,    5750
    1420,    5670,    5671,    5675,    5694,    5726,    5727,    5731,    5750
    1421,    5669,    5670,    5694,    5686,    5725,    5726,    5750,    5742
    1422,    5673,    5674,    5687,    5693,    5729,    5730,    5743,    5749
    1423,    5672,    5673,    5693,    5678,    5728,    5729,    5749,    5734
    1424,    5667,    5668,    5679,    5692,    5723,    5724,    5735,    5748
    1425,    5666,    5667,    5692,    5691,    5722,    5723,    5748,    5747
    1426,    5665,    5666,    5691,    5690,    5721,    5722,    5747,    5746
    1427,    5664,    5665,    5690,    5689,    5720,    5721,    5746,    5745
    1428,    5663,    5664,    5689,    5688,    5719,    5720,    5745,    5744
    1429,    5662,    5663,    5688,    5687,    5718,    5719,    5744,    5743
    1430,    5661,    5662,    5687,    5674,    5717,    5718,    5743,    5730
    1431,    5659,    5660,    5669,    5686,    5715,    5716,    5725,    5742
    1432,    5658,    5659,    5686,    5685,    5714,    5715,    5742,    5741
    1433,    5657,    5658,    5685,    5684,    5713,    5714,    5741,    5740
    1434,    5656,    5657,    5684,    5683,    5712,    5713,    5740,    5739
    1435,    5655,    5656,    5683,    5682,    5711,    5712,    5739,    5738
    1436,    5654,    5655,    5682,    5681,    5710,    5711,    5738,    5737
    1437,    5653,    5654,    5681,    5680,    5709,    5710,    5737,    5736
    1438,    5652,    5653,    5680,    5679,    5708,    5709,    5736,    5735
    1439,    5651,    5652,    5679,    5668,    5707,    5708,    5735,    5724
    1440,    5495,    5500,    5672,    5678,    5494,    5499,    5728,    5734
    1441,    5490,    5495,    5678,    5677,    5489,    5494,    5734,    5733
    1442,    5485,    5490,    5677,    5676,    5484,    5489,    5733,    5732
    1443,    5480,    5485,    5676,    5675,    5479,    5484,    5732,    5731
    1444,    5475,    5480,    5675,    5671,    5474,    5479,    5731,    5727
    1445,    5525,    5530,    5661,    5674,    5524,    5529,    5717,    5730
    1446,    5520,    5525,    5674,    5673,    5519,    5524,    5730,    5729
    1447,    5515,    5520,    5673,    5672,    5514,    5519,    5729,    5728
    1448,    5464,    5515,    5672,    5500,    5463,    5514,    5728,    5499
    1449,    5442,    5428,    5475,    5671,    5446,    5427,    5474,    5727
    1450,    5441,    5442,    5671,    5670,    5445,    5446,    5727,    5726
    1451,    5440,    5441,    5670,    5669,    5444,    5445,    5726,    5725
    1452,    5439,    5440,    5669,    5660,    5443,    5444,    5725,    5716
    1453,    5585,    5590,    5651,    5668,    5584,    5589,    5707,    5724
    1454,    5580,    5585,    5668,    5667,    5579,    5584,    5724,    5723
    1455,    5575,    5580,    5667,    5666,    5574,    5579,    5723,    5722
    1456,    5570,    5575,    5666,    5665,    5569,    5574,    5722,    5721
    1457,    5565,    5570,    5665,    5664,    5564,    5569,    5721,    5720
    1458,    5560,    5565,    5664,    5663,    5559,    5564,    5720,    5719
    1459,    5555,    5560,    5663,    5662,    5554,    5559,    5719,    5718
    1460,    5550,    5555,    5662,    5661,    5549,    5554,    5718,    5717
    1461,    5502,    5550,    5661,    5530,    5503,    5549,    5717,    5529
    1462,    5601,    5434,    5439,    5660,    5602,    5435,    5443,    5716
    1463,    5606,    5601,    5660,    5659,    5607,    5602,    5716,    5715
    1464,    5611,    5606,    5659,    5658,    5612,    5607,    5715,    5714
    1465,    5616,    5611,    5658,    5657,    5617,    5612,    5714,    5713
    1466,    5621,    5616,    5657,    5656,    5622,    5617,    5713,    5712
    1467,    5626,    5621,    5656,    5655,    5627,    5622,    5712,    5711
    1468,    5631,    5626,    5655,    5654,    5632,    5627,    5711,    5710
    1469,    5636,    5631,    5654,    5653,    5637,    5632,    5710,    5709
    1470,    5641,    5636,    5653,    5652,    5642,    5637,    5709,    5708
    1471,    5646,    5641,    5652,    5651,    5647,    5642,    5708,    5707
    1472,    5536,    5646,    5651,    5590,    5535,    5647,    5707,    5589
    1473,    5762,    5755,    5756,    5757,    5818,    5811,    5812,    5813
    1474,    5757,    5758,    5761,    5762,    5813,    5814,    5817,    5818
    1475,    5752,    5754,    5761,    5758,    5808,    5810,    5817,    5814
    1476,    5751,    5752,    5758,    5759,    5807,    5808,    5814,    5815
    1477,    5750,    5751,    5759,    5760,    5806,    5807,    5815,    5816
    1478,    5747,    5748,    5755,    5762,    5803,    5804,    5811,    5818
    1479,    5746,    5747,    5762,    5761,    5802,    5803,    5818,    5817
    1480,    5745,    5746,    5761,    5754,    5801,    5802,    5817,    5810
    1481,    5744,    5745,    5754,    5753,    5800,    5801,    5810,    5809
    1482,    5743,    5744,    5753,    5749,    5799,    5800,    5809,    5805
    1483,    5741,    5742,    5750,    5760,    5797,    5798,    5806,    5816
    1484,    5740,    5741,    5760,    5759,    5796,    5797,    5816,    5815
    1485,    5739,    5740,    5759,    5758,    5795,    5796,    5815,    5814
    1486,    5738,    5739,    5758,    5757,    5794,    5795,    5814,    5813
    1487,    5737,    5738,    5757,    5756,    5793,    5794,    5813,    5812
    1488,    5736,    5737,    5756,    5755,    5792,    5793,    5812,    5811
    1489,    5735,    5736,    5755,    5748,    5791,    5792,    5811,    5804
    1490,    5752,    5733,    5753,    5754,    5808,    5789,    5809,    5810
    1491,    5733,    5734,    5749,    5753,    5789,    5790,    5805,    5809
    1492,    5732,    5733,    5752,    5751,    5788,    5789,    5808,    5807
    1493,    5731,    5732,    5751,    5750,    5787,    5788,    5807,    5806
    1494,    5726,    5727,    5731,    5750,    5782,    5783,    5787,    5806
    1495,    5725,    5726,    5750,    5742,    5781,    5782,    5806,    5798
    1496,    5729,    5730,    5743,    5749,    5785,    5786,    5799,    5805
    1497,    5728,    5729,    5749,    5734,    5784,    5785,    5805,    5790
    1498,    5723,    5724,    5735,    5748,    5779,    5780,    5791,    5804
    1499,    5722,    5723,    5748,    5747,    5778,    5779,    5804,    5803
    1500,    5721,    5722,    5747,    5746,    5777,    5778,    5803,    5802
    1501,    5720,    5721,    5746,    5745,    5776,    5777,    5802,    5801
    1502,    5719,    5720,    5745,    5744,    5775,    5776,    5801,    5800
    1503,    5718,    5719,    5744,    5743,    5774,    5775,    5800,    5799
    1504,    5717,    5718,    5743,    5730,    5773,    5774,    5799,    5786
    1505,    5715,    5716,    5725,    5742,    5771,    5772,    5781,    5798
    1506,    5714,    5715,    5742,    5741,    5770,    5771,    5798,    5797
    1507,    5713,    5714,    5741,    5740,    5769,    5770,    5797,    5796
    1508,    5712,    5713,    5740,    5739,    5768,    5769,    5796,    5795
    1509,    5711,    5712,    5739,    5738,    5767,    5768,    5795,    5794
    1510,    5710,    5711,    5738,    5737,    5766,    5767,    5794,    5793
    1511,    5709,    5710,    5737,    5736,    5765,    5766,    5793,    5792
    1512,    5708,    5709,    5736,    5735,    5764,    5765,    5792,    5791
    1513,    5707,    5708,    5735,    5724,    5763,    5764,    5791,    5780
    1514,    5494,    5499,    5728,    5734,    5493,    5498,    5784,    5790
    1515,    5489,    5494,    5734,    5733,    5488,    5493,    5790,    5789
    1516,    5484,    5489,    5733,    5732,    5483,    5488,    5789,    5788
    1517,    5479,    5484,    5732,    5731,    5478,    5483,    5788,    5787
    1518,    5474,    5479,    5731,    5727,    5473,    5478,    5787,    5783
    1519,    5524,    5529,    5717,    5730,    5523,    5528,    5773,    5786
    1520,    5519,    5524,    5730,    5729,    5518,    5523,    5786,    5785
    1521,    5514,    5519,    5729,    5728,    5513,    5518,    5785,    5784
    1522,    5463,    5514,    5728,    5499,    5462,    5513,    5784,    5498
    1523,    5446,    5427,    5474,    5727,    5450,    5426,    5473,    5783
    1524,    5445,    5446,    5727,    5726,    5449,    5450,    5783,    5782
    1525,    5444,    5445,    5726,    5725,    5448,    5449,    5782,    5781
    1526,    5443,    5444,    5725,    5716,    5447,    5448,    5781,    5772
    1527,    5584,    5589,    5707,    5724,    5583,    5588,    5763,    5780
    1528,    5579,    5584,    5724,    5723,    5578,    5583,    5780,    5779
    1529,    5574,    5579,    5723,    5722,    5573,    5578,    5779,    5778
    1530,    5569,    5574,    5722,    5721,    5568,    5573,    5778,    5777
    1531,    5564,    5569,    5721,    5720,    5563,    5568,    5777,    5776
    1532,    5559,    5564,    5720,    5719,    5558,    5563,    5776,    5775
    1533,    5554,    5559,    5719,    5718,    5553,    5558,    5775,    5774
    1534,    5549,    5554,    5718,    5717,    5548,    5553,    5774,    5773
    1535,    5503,    5549,    5717,    5529,    5504,    5548,    5773,    5528
    1536,    5602,    5435,    5443,    5716,    5603,    5436,    5447,    5772
    1537,    5607,    5602,    5716,    5715,    5608,    5603,    5772,    5771
    1538,    5612,    5607,    5715,    5714,    5613,    5608,    5771,    5770
    1539,    5617,    5612,    5714,    5713,    5618,    5613,    5770,    5769
    1540,    5622,    5617,    5713,    5712,    5623,    5618,    5769,    5768
    1541,    5627,    5622,    5712,    5711,    5628,    5623,    5768,    5767
    1542,    5632,    5627,    5711,    5710,    5633,    5628,    5767,    5766
    1543,    5637,    5632,    5710,    5709,    5638,    5633,    5766,    5765
    1544,    5642,    5637,    5709,    5708,    5643,    5638,    5765,    5764
    1545,    5647,    5642,    5708,    5707,    5648,    5643,    5764,    5763
    1546,    5535,    5647,    5707,    5589,    5534,    5648,    5763,    5588
    1547,    5818,    5811,    5812,    5813,    5874,    5867,    5868,    5869
    1548,    5813,    5814,    5817,    5818,    5869,    5870,    5873,    5874
    1549,    5808,    5810,    5817,    5814,    5864,    5866,    5873,    5870
    1550,    5807,    5808,    5814,    5815,    5863,    5864,    5870,    5871
    1551,    5806,    5807,    5815,    5816,    5862,    5863,    5871,    5872
    1552,    5803,    5804,    5811,    5818,    5859,    5860,    5867,    5874
    1553,    5802,    5803,    5818,    5817,    5858,    5859,    5874,    5873
    1554,    5801,    5802,    5817,    5810,    5857,    5858,    5873,    5866
    1555,    5800,    5801,    5810,    5809,    5856,    5857,    5866,    5865
    1556,    5799,    5800,    5809,    5805,    5855,    5856,    5865,    5861
    1557,    5797,    5798,    5806,    5816,    5853,    5854,    5862,    5872
    1558,    5796,    5797,    5816,    5815,    5852,    5853,    5872,    5871
    1559,    5795,    5796,    5815,    5814,    5851,    5852,    5871,    5870
    1560,    5794,    5795,    5814,    5813,    5850,    5851,    5870,    5869
    1561,    5793,    5794,    5813,    5812,    5849,    5850,    5869,    5868
    1562,    5792,    5793,    5812,    5811,    5848,    5849,    5868,    5867
    1563,    5791,    5792,    5811,    5804,    5847,    5848,    5867,    5860
    1564,    5808,    5789,    5809,    5810,    5864,    5845,    5865,    5866
    1565,    5789,    5790,    5805,    5809,    5845,    5846,    5861,    5865
    1566,    5788,    5789,    5808,    5807,    5844,    5845,    5864,    5863
    1567,    5787,    5788,    5807,    5806,    5843,    5844,    5863,    5862
    1568,    5782,    5783,    5787,    5806,    5838,    5839,    5843,    5862
    1569,    5781,    5782,    5806,    5798,    5837,    5838,    5862,    5854
    1570,    5785,    5786,    5799,    5805,    5841,    5842,    5855,    5861
    1571,    5784,    5785,    5805,    5790,    5840,    5841,    5861,    5846
    1572,    5779,    5780,    5791,    5804,    5835,    5836,    5847,    5860
    1573,    5778,    5779,    5804,    5803,    5834,    5835,    5860,    5859
    1574,    5777,    5778,    5803,    5802,    5833,    5834,    5859,    5858
    1575,    5776,    5777,    5802,    5801,    5832,    5833,    5858,    5857
    1576,    5775,    5776,    5801,    5800,    5831,    5832,    5857,    5856
    1577,    5774,    5775,    5800,    5799,    5830,    5831,    5856,    5855
    1578,    5773,    5774,    5799,    5786,    5829,    5830,    5855,    5842
    1579,    5771,    5772,    5781,    5798,    5827,    5828,    5837,    5854
    1580,    5770,    5771,    5798,    5797,    5826,    5827,    5854,    5853
    1581,    5769,    5770,    5797,    5796,    5825,    5826,    5853,    5852
    1582,    5768,    5769,    5796,    5795,    5824,    5825,    5852,    5851
    1583,    5767,    5768,    5795,    5794,    5823,    5824,    5851,    5850
    1584,    5766,    5767,    5794,    5793,    5822,    5823,    5850,    5849
    1585,    5765,    5766,    5793,    5792,    5821,    5822,    5849,    5848
    1586,    5764,    5765,    5792,    5791,    5820,    5821,    5848,    5847
    1587,    5763,    5764,    5791,    5780,    5819,    5820,    5847,    5836
    1588,    5493,    5498,    5784,    5790,    5492,    5497,    5840,    5846
    1589,    5488,    5493,    5790,    5789,    5487,    5492,    5846,    5845
    1590,    5483,    5488,    5789,    5788,    5482,    5487,    5845,    5844
    1591,    5478,    5483,    5788,    5787,    5477,    5482,    5844,    5843
    1592,    5473,    5478,    5787,    5783,    5472,    5477,    5843,    5839
    1593,    5523,    5528,    5773,    5786,    5522,    5527,    5829,    5842
    1594,    5518,    5523,    5786,    5785,    5517,    5522,    5842,    5841
    1595,    5513,    5518,    5785,    5784,    5512,    5517,    5841,    5840
    1596,    5462,    5513,    5784,    5498,    5461,    5512,    5840,    5497
    1597,    5450,    5426,    5473,    5783,    5454,    5425,    5472,    5839
    1598,    5449,    5450,    5783,    5782,    5453,    5454,    5839,    5838
    1599,    5448,    5449,    5782,    5781,    5452,    5453,    5838,    5837
    1600,    5447,    5448,    5781,    5772,    5451,    5452,    5837,    5828
    1601,    5583,    5588,    5763,    5780,    5582,    5587,    5819,    5836
    1602,    5578,    5583,    5780,    5779,    5577,    5582,    5836,    5835
    1603,    5573,    5578,    5779,    5778,    5572,    5577,    5835,    5834
    1604,    5568,    5573,    5778,    5777,    5567,    5572,    5834,    5833
    1605,    5563,    5568,    5777,    5776,    5562,    5567,    5833,    5832
    1606,    5558,    5563,    5776,    5775,    5557,    5562,    5832,    5831
    1607,    5553,    5558,    5775,    5774,    5552,    5557,    5831,    5830
    1608,    5548,    5553,    5774,    5773,    5547,    5552,    5830,    5829
    1609,    5504,    5548,    5773,    5528,    5505,    5547,    5829,    5527
    1610,    5603,    5436,    5447,    5772,    5604,    5437,    5451,    5828
    1611,    5608,    5603,    5772,    5771,    5609,    5604,    5828,    5827
    1612,    5613,    5608,    5771,    5770,    5614,    5609,    5827,    5826
    1613,    5618,    5613,    5770,    5769,    5619,    5614,    5826,    5825
    1614,    5623,    5618,    5769,    5768,    5624,    5619,    5825,    5824
    1615,    5628,    5623,    5768,    5767,    5629,    5624,    5824,    5823
    1616,    5633,    5628,    5767,    5766,    5634,    5629,    5823,    5822
    1617,    5638,    5633,    5766,    5765,    5639,    5634,    5822,    5821
    1618,    5643,    5638,    5765,    5764,    5644,    5639,    5821,    5820
    1619,    5648,    5643,    5764,    5763,    5649,    5644,    5820,    5819
    1620,    5534,    5648,    5763,    5588,    5533,    5649,    5819,    5587
    1621,    5874,    5867,    5868,    5869,    5930,    5923,    5924,    5925
    1622,    5869,    5870,    5873,    5874,    5925,    5926,    5929,    5930
    1623,    5864,    5866,    5873,    5870,    5920,    5922,    5929,    5926
    1624,    5863,    5864,    5870,    5871,    5919,    5920,    5926,    5927
    1625,    5862,    5863,    5871,    5872,    5918,    5919,    5927,    5928
    1626,    5859,    5860,    5867,    5874,    5915,    5916,    5923,    5930
    1627,    5858,    5859,    5874,    5873,    5914,    5915,    5930,    5929
    1628,    5857,    5858,    5873,    5866,    5913,    5914,    5929,    5922
    1629,    5856,    5857,    5866,    5865,    5912,    5913,    5922,    5921
    1630,    5855,    5856,    5865,    5861,    5911,    5912,    5921,    5917
    1631,    5853,    5854,    5862,    5872,    5909,    5910,    5918,    5928
    1632,    5852,    5853,    5872,    5871,    5908,    5909,    5928,    5927
    1633,    5851,    5852,    5871,    5870,    5907,    5908,    5927,    5926
    1634,    5850,    5851,    5870,    5869,    5906,    5907,    5926,    5925
    1635,    5849,    5850,    5869,    5868,    5905,    5906,    5925,    5924
    1636,    5848,    5849,    5868,    5867,    5904,    5905,    5924,    5923
    1637,    5847,    5848,    5867,    5860,    5903,    5904,    5923,    5916
    1638,    5864,    5845,    5865,    5866,    5920,    5901,    5921,    5922
    1639,    5845,    5846,    5861,    5865,    5901,    5902,    5917,    5921
    1640,    5844,    5845,    5864,    5863,    5900,    5901,    5920,    5919
    1641,    5843,    5844,    5863,    5862,    5899,    5900,    5919,    5918
    1642,    5838,    5839,    5843,    5862,    5894,    5895,    5899,    5918
    1643,    5837,    5838,    5862,    5854,    5893,    5894,    5918,    5910
    1644,    5841,    5842,    5855,    5861,    5897,    5898,    5911,    5917
    1645,    5840,    5841,    5861,    5846,    5896,    5897,    5917,    5902
    1646,    5835,    5836,    5847,    5860,    5891,    5892,    5903,    5916
    1647,    5834,    5835,    5860,    5859,    5890,    5891,    5916,    5915
    1648,    5833,    5834,    5859,    5858,    5889,    5890,    5915,    5914
    1649,    5832,    5833,    5858,    5857,    5888,    5889,    5914,    5913
    1650,    5831,    5832,    5857,    5856,    5887,    5888,    5913,    5912
    1651,    5830,    5831,    5856,    5855,    5886,    5887,    5912,    5911
    1652,    5829,    5830,    5855,    5842,    5885,    5886,    5911,    5898
    1653,    5827,    5828,    5837,    5854,    5883,    5884,    5893,    5910
    1654,    5826,    5827,    5854,    5853,    5882,    5883,    5910,    5909
    1655,    5825,    5826,    5853,    5852,    5881,    5882,    5909,    5908
    1656,    5824,    5825,    5852,    5851,    5880,    5881,    5908,    5907
    1657,    5823,    5824,    5851,    5850,    5879,    5880,    5907,    5906
    1658,    5822,    5823,    5850,    5849,    5878,    5879,    5906,    5905
    1659,    5821,    5822,    5849,    5848,    5877,    5878,    5905,    5904
    1660,    5820,    5821,    5848,    5847,    5876,    5877,    5904,    5903
    1661,    5819,    5820,    5847,    5836,    5875,    5876,    5903,    5892
    1662,    5492,    5497,    5840,    5846,    5491,    5496,    5896,    5902
    1663,    5487,    5492,    5846,    5845,    5486,    5491,    5902,    5901
    1664,    5482,    5487,    5845,    5844,    5481,    5486,    5901,    5900
    1665,    5477,    5482,    5844,    5843,    5476,    5481,    5900,    5899
    1666,    5472,    5477,    5843,    5839,    5471,    5476,    5899,    5895
    1667,    5522,    5527,    5829,    5842,    5521,    5526,    5885,    5898
    1668,    5517,    5522,    5842,    5841,    5516,    5521,    5898,    5897
    1669,    5512,    5517,    5841,    5840,    5511,    5516,    5897,    5896
    1670,    5461,    5512,    5840,    5497,    5460,    5511,    5896,    5496
    1671,    5454,    5425,    5472,    5839,    5458,    5424,    5471,    5895
    1672,    5453,    5454,    5839,    5838,    5457,    5458,    5895,    5894
    1673,    5452,    5453,    5838,    5837,    5456,    5457,    5894,    5893
    1674,    5451,    5452,    5837,    5828,    5455,    5456,    5893,    5884
    1675,    5582,    5587,    5819,    5836,    5581,    5586,    5875,    5892
    1676,    5577,    5582,    5836,    5835,    5576,    5581,    5892,    5891
    1677,    5572,    5577,    5835,    5834,    5571,    5576,    5891,    5890
    1678,    5567,    5572,    5834,    5833,    5566,    5571,    5890,    5889
    1679,    5562,    5567,    5833,    5832,    5561,    5566,    5889,    5888
    1680,    5557,    5562,    5832,    5831,    5556,    5561,    5888,    5887
    1681,    5552,    5557,    5831,    5830,    5551,    5556,    5887,    5886
    1682,    5547,    5552,    5830,    5829,    5546,    5551,    5886,    5885
    1683,    5505,    5547,    5829,    5527,    5506,    5546,    5885,    5526
    1684,    5604,    5437,    5451,    5828,    5605,    5438,    5455,    5884
    1685,    5609,    5604,    5828,    5827,    5610,    5605,    5884,    5883
    1686,    5614,    5609,    5827,    5826,    5615,    5610,    5883,    5882
    1687,    5619,    5614,    5826,    5825,    5620,    5615,    5882,    5881
    1688,    5624,    5619,    5825,    5824,    5625,    5620,    5881,    5880
    1689,    5629,    5624,    5824,    5823,    5630,    5625,    5880,    5879
    1690,    5634,    5629,    5823,    5822,    5635,    5630,    5879,    5878
    1691,    5639,    5634,    5822,    5821,    5640,    5635,    5878,    5877
    1692,    5644,    5639,    5821,    5820,    5645,    5640,    5877,    5876
    1693,    5649,    5644,    5820,    5819,    5650,    5645,    5876,    5875
    1694,    5533,    5649,    5819,    5587,    5532,    5650,    5875,    5586
    1695,    5930,    5923,    5924,    5925,    5986,    5979,    5980,    5981
    1696,    5925,    5926,    5929,    5930,    5981,    5982,    5985,    5986
    1697,    5920,    5922,    5929,    5926,    5976,    5978,    5985,    5982
    1698,    5919,    5920,    5926,    5927,    5975,    5976,    5982,    5983
    1699,    5918,    5919,    5927,    5928,    5974,    5975,    5983,    5984
    1700,    5915,    5916,    5923,    5930,    5971,    5972,    5979,    5986
    1701,    5914,    5915,    5930,    5929,    5970,    5971,    5986,    5985
    1702,    5913,    5914,    5929,    5922,    5969,    5970,    5985,    5978
    1703,    5912,    5913,    5922,    5921,    5968,    5969,    5978,    5977
    1704,    5911,    5912,    5921,    5917,    5967,    5968,    5977,    5973
    1705,    5909,    5910,    5918,    5928,    5965,    5966,    5974,    5984
    1706,    5908,    5909,    5928,    5927,    5964,    5965,    5984,    5983
    1707,    5907,    5908,    5927,    5926,    5963,    5964,    5983,    5982
    1708,    5906,    5907,    5926,    5925,    5962,    5963,    5982,    5981
    1709,    5905,    5906,    5925,    5924,    5961,    5962,    5981,    5980
    1710,    5904,    5905,    5924,    5923,    5960,    5961,    5980,    5979
    1711,    5903,    5904,    5923,    5916,    5959,    5960,    5979,    5972
    1712,    5920,    5901,    5921,    5922,    5976,    5957,    5977,    5978
    1713,    5901,    5902,    5917,    5921,    5957,    5958,    5973,    5977
    1714,    5900,    5901,    5920,    5919,    5956,    5957,    5976,    5975
    1715,    5899,    5900,    5919,    5918,    5955,    5956,    5975,    5974
    1716,    5894,    5895,    5899,    5918,    5950,    5951,    5955,    5974
    1717,    5893,    5894,    5918,    5910,    5949,    5950,    5974,    5966
    1718,    5897,    5898,    5911,    5917,    5953,    5954,    5967,    5973
    1719,    5896,    5897,    5917,    5902,    5952,    5953,    5973,    5958
    1720,    5891,    5892,    5903,    5916,    5947,    5948,    5959,    5972
    1721,    5890,    5891,    5916,    5915,    5946,    5947,    5972,    5971
    1722,    5889,    5890,    5915,    5914,    5945,    5946,    5971,    5970
    1723,    5888,    5889,    5914,    5913,    5944,    5945,    5970,    5969
    1724,    5887,    5888,    5913,    5912,    5943,    5944,    5969,    5968
    1725,    5886,    5887,    5912,    5911,    5942,    5943,    5968,    5967
    1726,    5885,    5886,    5911,    5898,    5941,    5942,    5967,    5954
    1727,    5883,    5884,    5893,    5910,    5939,    5940,    5949,    5966
    1728,    5882,    5883,    5910,    5909,    5938,    5939,    5966,    5965
    1729,    5881,    5882,    5909,    5908,    5937,    5938,    5965,    5964
    1730,    5880,    5881,    5908,    5907,    5936,    5937,    5964,    5963
    1731,    5879,    5880,    5907,    5906,    5935,    5936,    5963,    5962
    1732,    5878,    5879,    5906,    5905,    5934,    5935,    5962,    5961
    1733,    5877,    5878,    5905,    5904,    5933,    5934,    5961,    5960
    1734,    5876,    5877,    5904,    5903,    5932,    5933,    5960,    5959
    1735,    5875,    5876,    5903,    5892,    5931,    5932,    5959,    5948
    1736,    5491,    5496,    5896,    5902,    5469,    5470,    5952,    5958
    1737,    5486,    5491,    5902,    5901,    5468,    5469,    5958,    5957
    1738,    5481,    5486,    5901,    5900,    5467,    5468,    5957,    5956
    1739,    5476,    5481,    5900,    5899,    5466,    5467,    5956,    5955
    1740,    5471,    5476,    5899,    5895,    5465,    5466,    5955,    5951
    1741,    5521,    5526,    5885,    5898,    5508,    5507,    5941,    5954
    1742,    5516,    5521,    5898,    5897,    5509,    5508,    5954,    5953
    1743,    5511,    5516,    5897,    5896,    5510,    5509,    5953,    5952
    1744,    5460,    5511,    5896,    5496,    5459,    5510,    5952,    5470
    1745,    5458,    5424,    5471,    5895,    5433,    5423,    5465,    5951
    1746,    5457,    5458,    5895,    5894,    5432,    5433,    5951,    5950
    1747,    5456,    5457,    5894,    5893,    5431,    5432,    5950,    5949
    1748,    5455,    5456,    5893,    5884,    5430,    5431,    5949,    5940
    1749,    5581,    5586,    5875,    5892,    5544,    5545,    5931,    5948
    1750,    5576,    5581,    5892,    5891,    5543,    5544,    5948,    5947
    1751,    5571,    5576,    5891,    5890,    5542,    5543,    5947,    5946
    1752,    5566,    5571,    5890,    5889,    5541,    5542,    5946,    5945
    1753,    5561,    5566,    5889,    5888,    5540,    5541,    5945,    5944
    1754,    5556,    5561,    5888,    5887,    5539,    5540,    5944,    5943
    1755,    5551,    5556,    5887,    5886,    5538,    5539,    5943,    5942
    1756,    5546,    5551,    5886,    5885,    5537,    5538,    5942,    5941
    1757,    5506,    5546,    5885,    5526,    5501,    5537,    5941,    5507
    1758,    5605,    5438,    5455,    5884,    5591,    5429,    5430,    5940
    1759,    5610,    5605,    5884,    5883,    5592,    5591,    5940,    5939
    1760,    5615,    5610,    5883,    5882,    5593,    5592,    5939,    5938
    1761,    5620,    5615,    5882,    5881,    5594,    5593,    5938,    5937
    1762,    5625,    5620,    5881,    5880,    5595,    5594,    5937,    5936
    1763,    5630,    5625,    5880,    5879,    5596,    5595,    5936,    5935
    1764,    5635,    5630,    5879,    5878,    5597,    5596,    5935,    5934
    1765,    5640,    5635,    5878,    5877,    5598,    5597,    5934,    5933
    1766,    5645,    5640,    5877,    5876,    5599,    5598,    5933,    5932
    1767,    5650,    5645,    5876,    5875,    5600,    5599,    5932,    5931
    1768,    5532,    5650,    5875,    5586,    5531,    5600,    5931,    5545
    1769,    5987,   15640,   15664,    6011,    5994,   15652,   15749,    6015
    1770,   15640,   15639,   15663,   15664,   15652,   15651,   15750,   15749
    1771,   15639,   15638,   15662,   15663,   15651,   15650,   15751,   15750
    1772,   15638,   15637,   15661,   15662,   15650,   15649,   15752,   15751
    1773,   15637,   15636,   15660,   15661,   15649,   15648,   15753,   15752
    1774,   15636,   15635,   15659,   15660,   15648,   15647,   15754,   15753
    1775,   15635,    4489,    4499,   15659,   15647,    4519,    4530,   15754
    1776,    6011,   15664,   15670,    6010,    6015,   15749,   15755,    6017
    1777,   15664,   15663,   15669,   15670,   15749,   15750,   15756,   15755
    1778,   15663,   15662,   15668,   15669,   15750,   15751,   15757,   15756
    1779,   15662,   15661,   15667,   15668,   15751,   15752,   15758,   15757
    1780,   15661,   15660,   15666,   15667,   15752,   15753,   15759,   15758
    1781,   15660,   15659,   15665,   15666,   15753,   15754,   15760,   15759
    1782,   15659,    4499,    4500,   15665,   15754,    4530,    4532,   15760
    1783,    6010,   15670,   15676,    6009,    6017,   15755,   15761,    6019
    1784,   15670,   15669,   15675,   15676,   15755,   15756,   15762,   15761
    1785,   15669,   15668,   15674,   15675,   15756,   15757,   15763,   15762
    1786,   15668,   15667,   15673,   15674,   15757,   15758,   15764,   15763
    1787,   15667,   15666,   15672,   15673,   15758,   15759,   15765,   15764
    1788,   15666,   15665,   15671,   15672,   15759,   15760,   15766,   15765
    1789,   15665,    4500,    4501,   15671,   15760,    4532,    4534,   15766
    1790,    6009,   15676,   15682,    6008,    6019,   15761,   15767,    6021
    1791,   15676,   15675,   15681,   15682,   15761,   15762,   15768,   15767
    1792,   15675,   15674,   15680,   15681,   15762,   15763,   15769,   15768
    1793,   15674,   15673,   15679,   15680,   15763,   15764,   15770,   15769
    1794,   15673,   15672,   15678,   15679,   15764,   15765,   15771,   15770
    1795,   15672,   15671,   15677,   15678,   15765,   15766,   15772,   15771
    1796,   15671,    4501,    4502,   15677,   15766,    4534,    4536,   15772
    1797,    6008,   15682,   15688,    6007,    6021,   15767,   15773,    6023
    1798,   15682,   15681,   15687,   15688,   15767,   15768,   15774,   15773
    1799,   15681,   15680,   15686,   15687,   15768,   15769,   15775,   15774
    1800,   15680,   15679,   15685,   15686,   15769,   15770,   15776,   15775
    1801,   15679,   15678,   15684,   15685,   15770,   15771,   15777,   15776
    1802,   15678,   15677,   15683,   15684,   15771,   15772,   15778,   15777
    1803,   15677,    4502,    4503,   15683,   15772,    4536,    4538,   15778
    1804,    6007,   15688,   15694,    6006,    6023,   15773,   15779,    6025
    1805,   15688,   15687,   15693,   15694,   15773,   15774,   15780,   15779
    1806,   15687,   15686,   15692,   15693,   15774,   15775,   15781,   15780
    1807,   15686,   15685,   15691,   15692,   15775,   15776,   15782,   15781
    1808,   15685,   15684,   15690,   15691,   15776,   15777,   15783,   15782
    1809,   15684,   15683,   15689,   15690,   15777,   15778,   15784,   15783
    1810,   15683,    4503,    4504,   15689,   15778,    4538,    4540,   15784
    1811,    6006,   15694,   15658,    6005,    6025,   15779,   15701,    6013
    1812,   15694,   15693,   15657,   15658,   15779,   15780,   15703,   15701
    1813,   15693,   15692,   15656,   15657,   15780,   15781,   15705,   15703
    1814,   15692,   15691,   15655,   15656,   15781,   15782,   15707,   15705
    1815,   15691,   15690,   15654,   15655,   15782,   15783,   15709,   15707
    1816,   15690,   15689,   15653,   15654,   15783,   15784,   15711,   15709
    1817,   15689,    4504,    4494,   15653,   15784,    4540,    4522,   15711
    1818,    5994,   15652,   15749,    6015,    5993,   15646,   15785,    6014
    1819,   15652,   15651,   15750,   15749,   15646,   15645,   15786,   15785
    1820,   15651,   15650,   15751,   15750,   15645,   15644,   15787,   15786
    1821,   15650,   15649,   15752,   15751,   15644,   15643,   15788,   15787
    1822,   15649,   15648,   15753,   15752,   15643,   15642,   15789,   15788
    1823,   15648,   15647,   15754,   15753,   15642,   15641,   15790,   15789
    1824,   15647,    4519,    4530,   15754,   15641,    4518,    4529,   15790
    1825,    6015,   15749,   15755,    6017,    6014,   15785,   15791,    6016
    1826,   15749,   15750,   15756,   15755,   15785,   15786,   15792,   15791
    1827,   15750,   15751,   15757,   15756,   15786,   15787,   15793,   15792
    1828,   15751,   15752,   15758,   15757,   15787,   15788,   15794,   15793
    1829,   15752,   15753,   15759,   15758,   15788,   15789,   15795,   15794
    1830,   15753,   15754,   15760,   15759,   15789,   15790,   15796,   15795
    1831,   15754,    4530,    4532,   15760,   15790,    4529,    4531,   15796
    1832,    6017,   15755,   15761,    6019,    6016,   15791,   15797,    6018
    1833,   15755,   15756,   15762,   15761,   15791,   15792,   15798,   15797
    1834,   15756,   15757,   15763,   15762,   15792,   15793,   15799,   15798
    1835,   15757,   15758,   15764,   15763,   15793,   15794,   15800,   15799
    1836,   15758,   15759,   15765,   15764,   15794,   15795,   15801,   15800
    1837,   15759,   15760,   15766,   15765,   15795,   15796,   15802,   15801
    1838,   15760,    4532,    4534,   15766,   15796,    4531,    4533,   15802
    1839,    6019,   15761,   15767,    6021,    6018,   15797,   15803,    6020
    1840,   15761,   15762,   15768,   15767,   15797,   15798,   15804,   15803
    1841,   15762,   15763,   15769,   15768,   15798,   15799,   15805,   15804
    1842,   15763,   15764,   15770,   15769,   15799,   15800,   15806,   15805
    1843,   15764,   15765,   15771,   15770,   15800,   15801,   15807,   15806
    1844,   15765,   15766,   15772,   15771,   15801,   15802,   15808,   15807
    1845,   15766,    4534,    4536,   15772,   15802,    4533,    4535,   15808
    1846,    6021,   15767,   15773,    6023,    6020,   15803,   15809,    6022
    1847,   15767,   15768,   15774,   15773,   15803,   15804,   15810,   15809
    1848,   15768,   15769,   15775,   15774,   15804,   15805,   15811,   15810
    1849,   15769,   15770,   15776,   15775,   15805,   15806,   15812,   15811
    1850,   15770,   15771,   15777,   15776,   15806,   15807,   15813,   15812
    1851,   15771,   15772,   15778,   15777,   15807,   15808,   15814,   15813
    1852,   15772,    4536,    4538,   15778,   15808,    4535,    4537,   15814
    1853,    6023,   15773,   15779,    6025,    6022,   15809,   15815,    6024
    1854,   15773,   15774,   15780,   15779,   15809,   15810,   15816,   15815
    1855,   15774,   15775,   15781,   15780,   15810,   15811,   15817,   15816
    1856,   15775,   15776,   15782,   15781,   15811,   15812,   15818,   15817
    1857,   15776,   15777,   15783,   15782,   15812,   15813,   15819,   15818
    1858,   15777,   15778,   15784,   15783,   15813,   15814,   15820,   15819
    1859,   15778,    4538,    4540,   15784,   15814,    4537,    4539,   15820
    1860,    6025,   15779,   15701,    6013,    6024,   15815,   15702,    6012
    1861,   15779,   15780,   15703,   15701,   15815,   15816,   15704,   15702
    1862,   15780,   15781,   15705,   15703,   15816,   15817,   15706,   15704
    1863,   15781,   15782,   15707,   15705,   15817,   15818,   15708,   15706
    1864,   15782,   15783,   15709,   15707,   15818,   15819,   15710,   15708
    1865,   15783,   15784,   15711,   15709,   15819,   15820,   15712,   15710
    1866,   15784,    4540,    4522,   15711,   15820,    4539,    4521,   15712
    1867,    5993,   15646,   15785,    6014,    5330,   15629,   15713,    5336
    1868,   15646,   15645,   15786,   15785,   15629,   15630,   15714,   15713
    1869,   15645,   15644,   15787,   15786,   15630,   15631,   15715,   15714
    1870,   15644,   15643,   15788,   15787,   15631,   15632,   15716,   15715
    1871,   15643,   15642,   15789,   15788,   15632,   15633,   15717,   15716
    1872,   15642,   15641,   15790,   15789,   15633,   15634,   15718,   15717
    1873,   15641,    4518,    4529,   15790,   15634,    4517,    4528,   15718
    1874,    6014,   15785,   15791,    6016,    5336,   15713,   15719,    5337
    1875,   15785,   15786,   15792,   15791,   15713,   15714,   15720,   15719
    1876,   15786,   15787,   15793,   15792,   15714,   15715,   15721,   15720
    1877,   15787,   15788,   15794,   15793,   15715,   15716,   15722,   15721
    1878,   15788,   15789,   15795,   15794,   15716,   15717,   15723,   15722
    1879,   15789,   15790,   15796,   15795,   15717,   15718,   15724,   15723
    1880,   15790,    4529,    4531,   15796,   15718,    4528,    4527,   15724
    1881,    6016,   15791,   15797,    6018,    5337,   15719,   15725,    5338
    1882,   15791,   15792,   15798,   15797,   15719,   15720,   15726,   15725
    1883,   15792,   15793,   15799,   15798,   15720,   15721,   15727,   15726
    1884,   15793,   15794,   15800,   15799,   15721,   15722,   15728,   15727
    1885,   15794,   15795,   15801,   15800,   15722,   15723,   15729,   15728
    1886,   15795,   15796,   15802,   15801,   15723,   15724,   15730,   15729
    1887,   15796,    4531,    4533,   15802,   15724,    4527,    4526,   15730
    1888,    6018,   15797,   15803,    6020,    5338,   15725,   15731,    5339
    1889,   15797,   15798,   15804,   15803,   15725,   15726,   15732,   15731
    1890,   15798,   15799,   15805,   15804,   15726,   15727,   15733,   15732
    1891,   15799,   15800,   15806,   15805,   15727,   15728,   15734,   15733
    1892,   15800,   15801,   15807,   15806,   15728,   15729,   15735,   15734
    1893,   15801,   15802,   15808,   15807,   15729,   15730,   15736,   15735
    1894,   15802,    4533,    4535,   15808,   15730,    4526,    4525,   15736
    1895,    6020,   15803,   15809,    6022,    5339,   15731,   15737,    5340
    1896,   15803,   15804,   15810,   15809,   15731,   15732,   15738,   15737
    1897,   15804,   15805,   15811,   15810,   15732,   15733,   15739,   15738
    1898,   15805,   15806,   15812,   15811,   15733,   15734,   15740,   15739
    1899,   15806,   15807,   15813,   15812,   15734,   15735,   15741,   15740
    1900,   15807,   15808,   15814,   15813,   15735,   15736,   15742,   15741
    1901,   15808,    4535,    4537,   15814,   15736,    4525,    4524,   15742
    1902,    6022,   15809,   15815,    6024,    5340,   15737,   15743,    5341
    1903,   15809,   15810,   15816,   15815,   15737,   15738,   15744,   15743
    1904,   15810,   15811,   15817,   15816,   15738,   15739,   15745,   15744
    1905,   15811,   15812,   15818,   15817,   15739,   15740,   15746,   15745
    1906,   15812,   15813,   15819,   15818,   15740,   15741,   15747,   15746
    1907,   15813,   15814,   15820,   15819,   15741,   15742,   15748,   15747
    1908,   15814,    4537,    4539,   15820,   15742,    4524,    4523,   15748
    1909,    6024,   15815,   15702,    6012,    5341,   15743,   15695,    5335
    1910,   15815,   15816,   15704,   15702,   15743,   15744,   15696,   15695
    1911,   15816,   15817,   15706,   15704,   15744,   15745,   15697,   15696
    1912,   15817,   15818,   15708,   15706,   15745,   15746,   15698,   15697
    1913,   15818,   15819,   15710,   15708,   15746,   15747,   15699,   15698
    1914,   15819,   15820,   15712,   15710,   15747,   15748,   15700,   15699
    1915,   15820,    4539,    4521,   15712,   15748,    4523,    4520,   15700
    1916,    4550,    4625,    4631,    4554,   15826,   15898,   15929,   15827
    1917,    4625,    4626,    4636,    4631,   15898,   15904,   15930,   15929
    1918,    4626,    4627,    4641,    4636,   15904,   15910,   15931,   15930
    1919,    4627,    4628,    4646,    4641,   15910,   15916,   15932,   15931
    1920,    4628,    4629,    4651,    4646,   15916,   15922,   15933,   15932
    1921,    4629,    4630,    4656,    4651,   15922,   15928,   15934,   15933
    1922,    4630,    4583,    4584,    4656,   15928,   15862,   15892,   15934
    1923,    4554,    4631,    4632,    4555,   15827,   15929,   15935,   15833
    1924,    4631,    4636,    4637,    4632,   15929,   15930,   15936,   15935
    1925,    4636,    4641,    4642,    4637,   15930,   15931,   15937,   15936
    1926,    4641,    4646,    4647,    4642,   15931,   15932,   15938,   15937
    1927,    4646,    4651,    4652,    4647,   15932,   15933,   15939,   15938
    1928,    4651,    4656,    4657,    4652,   15933,   15934,   15940,   15939
    1929,    4656,    4584,    4585,    4657,   15934,   15892,   15891,   15940
    1930,    4555,    4632,    4633,    4556,   15833,   15935,   15941,   15839
    1931,    4632,    4637,    4638,    4633,   15935,   15936,   15942,   15941
    1932,    4637,    4642,    4643,    4638,   15936,   15937,   15943,   15942
    1933,    4642,    4647,    4648,    4643,   15937,   15938,   15944,   15943
    1934,    4647,    4652,    4653,    4648,   15938,   15939,   15945,   15944
    1935,    4652,    4657,    4658,    4653,   15939,   15940,   15946,   15945
    1936,    4657,    4585,    4586,    4658,   15940,   15891,   15890,   15946
    1937,    4556,    4633,    4634,    4557,   15839,   15941,   15947,   15845
    1938,    4633,    4638,    4639,    4634,   15941,   15942,   15948,   15947
    1939,    4638,    4643,    4644,    4639,   15942,   15943,   15949,   15948
    1940,    4643,    4648,    4649,    4644,   15943,   15944,   15950,   15949
    1941,    4648,    4653,    4654,    4649,   15944,   15945,   15951,   15950
    1942,    4653,    4658,    4659,    4654,   15945,   15946,   15952,   15951
    1943,    4658,    4586,    4587,    4659,   15946,   15890,   15889,   15952
    1944,    4557,    4634,    4635,    4558,   15845,   15947,   15953,   15851
    1945,    4634,    4639,    4640,    4635,   15947,   15948,   15954,   15953
    1946,    4639,    4644,    4645,    4640,   15948,   15949,   15955,   15954
    1947,    4644,    4649,    4650,    4645,   15949,   15950,   15956,   15955
    1948,    4649,    4654,    4655,    4650,   15950,   15951,   15957,   15956
    1949,    4654,    4659,    4660,    4655,   15951,   15952,   15958,   15957
    1950,    4659,    4587,    4588,    4660,   15952,   15889,   15888,   15958
    1951,    4558,    4635,    4528,    4517,   15851,   15953,   15718,   15634
    1952,    4635,    4640,    4527,    4528,   15953,   15954,   15724,   15718
    1953,    4640,    4645,    4526,    4527,   15954,   15955,   15730,   15724
    1954,    4645,    4650,    4525,    4526,   15955,   15956,   15736,   15730
    1955,    4650,    4655,    4524,    4525,   15956,   15957,   15742,   15736
    1956,    4655,    4660,    4523,    4524,   15957,   15958,   15748,   15742
    1957,    4660,    4588,    4520,    4523,   15958,   15888,   15700,   15748
    1958,   15826,   15898,   15929,   15827,   15825,   15897,   15959,   15828
    1959,   15898,   15904,   15930,   15929,   15897,   15903,   15960,   15959
    1960,   15904,   15910,   15931,   15930,   15903,   15909,   15961,   15960
    1961,   15910,   15916,   15932,   15931,   15909,   15915,   15962,   15961
    1962,   15916,   15922,   15933,   15932,   15915,   15921,   15963,   15962
    1963,   15922,   15928,   15934,   15933,   15921,   15927,   15964,   15963
    1964,   15928,   15862,   15892,   15934,   15927,   15861,   15887,   15964
    1965,   15827,   15929,   15935,   15833,   15828,   15959,   15965,   15834
    1966,   15929,   15930,   15936,   15935,   15959,   15960,   15966,   15965
    1967,   15930,   15931,   15937,   15936,   15960,   15961,   15967,   15966
    1968,   15931,   15932,   15938,   15937,   15961,   15962,   15968,   15967
    1969,   15932,   15933,   15939,   15938,   15962,   15963,   15969,   15968
    1970,   15933,   15934,   15940,   15939,   15963,   15964,   15970,   15969
    1971,   15934,   15892,   15891,   15940,   15964,   15887,   15886,   15970
    1972,   15833,   15935,   15941,   15839,   15834,   15965,   15971,   15840
    1973,   15935,   15936,   15942,   15941,   15965,   15966,   15972,   15971
    1974,   15936,   15937,   15943,   15942,   15966,   15967,   15973,   15972
    1975,   15937,   15938,   15944,   15943,   15967,   15968,   15974,   15973
    1976,   15938,   15939,   15945,   15944,   15968,   15969,   15975,   15974
    1977,   15939,   15940,   15946,   15945,   15969,   15970,   15976,   15975
    1978,   15940,   15891,   15890,   15946,   15970,   15886,   15885,   15976
    1979,   15839,   15941,   15947,   15845,   15840,   15971,   15977,   15846
    1980,   15941,   15942,   15948,   15947,   15971,   15972,   15978,   15977
    1981,   15942,   15943,   15949,   15948,   15972,   15973,   15979,   15978
    1982,   15943,   15944,   15950,   15949,   15973,   15974,   15980,   15979
    1983,   15944,   15945,   15951,   15950,   15974,   15975,   15981,   15980
    1984,   15945,   15946,   15952,   15951,   15975,   15976,   15982,   15981
    1985,   15946,   15890,   15889,   15952,   15976,   15885,   15884,   15982
    1986,   15845,   15947,   15953,   15851,   15846,   15977,   15983,   15852
    1987,   15947,   15948,   15954,   15953,   15977,   15978,   15984,   15983
    1988,   15948,   15949,   15955,   15954,   15978,   15979,   15985,   15984
    1989,   15949,   15950,   15956,   15955,   15979,   15980,   15986,   15985
    1990,   15950,   15951,   15957,   15956,   15980,   15981,   15987,   15986
    1991,   15951,   15952,   15958,   15957,   15981,   15982,   15988,   15987
    1992,   15952,   15889,   15888,   15958,   15982,   15884,   15883,   15988
    1993,   15851,   15953,   15718,   15634,   15852,   15983,   15717,   15633
    1994,   15953,   15954,   15724,   15718,   15983,   15984,   15723,   15717
    1995,   15954,   15955,   15730,   15724,   15984,   15985,   15729,   15723
    1996,   15955,   15956,   15736,   15730,   15985,   15986,   15735,   15729
    1997,   15956,   15957,   15742,   15736,   15986,   15987,   15741,   15735
    1998,   15957,   15958,   15748,   15742,   15987,   15988,   15747,   15741
    1999,   15958,   15888,   15700,   15748,   15988,   15883,   15699,   15747
    2000,   15825,   15897,   15959,   15828,   15824,   15896,   15989,   15829
    2001,   15897,   15903,   15960,   15959,   15896,   15902,   15990,   15989
    2002,   15903,   15909,   15961,   15960,   15902,   15908,   15991,   15990
    2003,   15909,   15915,   15962,   15961,   15908,   15914,   15992,   15991
    2004,   15915,   15921,   15963,   15962,   15914,   15920,   15993,   15992
    2005,   15921,   15927,   15964,   15963,   15920,   15926,   15994,   15993
    2006,   15927,   15861,   15887,   15964,   15926,   15860,   15882,   15994
    2007,   15828,   15959,   15965,   15834,   15829,   15989,   15995,   15835
    2008,   15959,   15960,   15966,   15965,   15989,   15990,   15996,   15995
    2009,   15960,   15961,   15967,   15966,   15990,   15991,   15997,   15996
    2010,   15961,   15962,   15968,   15967,   15991,   15992,   15998,   15997
    2011,   15962,   15963,   15969,   15968,   15992,   15993,   15999,   15998
    2012,   15963,   15964,   15970,   15969,   15993,   15994,   16000,   15999
    2013,   15964,   15887,   15886,   15970,   15994,   15882,   15881,   16000
    2014,   15834,   15965,   15971,   15840,   15835,   15995,   16001,   15841
    2015,   15965,   15966,   15972,   15971,   15995,   15996,   16002,   16001
    2016,   15966,   15967,   15973,   15972,   15996,   15997,   16003,   16002
    2017,   15967,   15968,   15974,   15973,   15997,   15998,   16004,   16003
    2018,   15968,   15969,   15975,   15974,   15998,   15999,   16005,   16004
    2019,   15969,   15970,   15976,   15975,   15999,   16000,   16006,   16005
    2020,   15970,   15886,   15885,   15976,   16000,   15881,   15880,   16006
    2021,   15840,   15971,   15977,   15846,   15841,   16001,   16007,   15847
    2022,   15971,   15972,   15978,   15977,   16001,   16002,   16008,   16007
    2023,   15972,   15973,   15979,   15978,   16002,   16003,   16009,   16008
    2024,   15973,   15974,   15980,   15979,   16003,   16004,   16010,   16009
    2025,   15974,   15975,   15981,   15980,   16004,   16005,   16011,   16010
    2026,   15975,   15976,   15982,   15981,   16005,   16006,   16012,   16011
    2027,   15976,   15885,   15884,   15982,   16006,   15880,   15879,   16012
    2028,   15846,   15977,   15983,   15852,   15847,   16007,   16013,   15853
    2029,   15977,   15978,   15984,   15983,   16007,   16008,   16014,   16013
    2030,   15978,   15979,   15985,   15984,   16008,   16009,   16015,   16014
    2031,   15979,   15980,   15986,   15985,   16009,   16010,   16016,   16015
    2032,   15980,   15981,   15987,   15986,   16010,   16011,   16017,   16016
    2033,   15981,   15982,   15988,   15987,   16011,   16012,   16018,   16017
    2034,   15982,   15884,   15883,   15988,   16012,   15879,   15878,   16018
    2035,   15852,   15983,   15717,   15633,   15853,   16013,   15716,   15632
    2036,   15983,   15984,   15723,   15717,   16013,   16014,   15722,   15716
    2037,   15984,   15985,   15729,   15723,   16014,   16015,   15728,   15722
    2038,   15985,   15986,   15735,   15729,   16015,   16016,   15734,   15728
    2039,   15986,   15987,   15741,   15735,   16016,   16017,   15740,   15734
    2040,   15987,   15988,   15747,   15741,   16017,   16018,   15746,   15740
    2041,   15988,   15883,   15699,   15747,   16018,   15878,   15698,   15746
    2042,   15824,   15896,   15989,   15829,   15823,   15895,   16019,   15830
    2043,   15896,   15902,   15990,   15989,   15895,   15901,   16020,   16019
    2044,   15902,   15908,   15991,   15990,   15901,   15907,   16021,   16020
    2045,   15908,   15914,   15992,   15991,   15907,   15913,   16022,   16021
    2046,   15914,   15920,   15993,   15992,   15913,   15919,   16023,   16022
    2047,   15920,   15926,   15994,   15993,   15919,   15925,   16024,   16023
    2048,   15926,   15860,   15882,   15994,   15925,   15859,   15877,   16024
    2049,   15829,   15989,   15995,   15835,   15830,   16019,   16025,   15836
    2050,   15989,   15990,   15996,   15995,   16019,   16020,   16026,   16025
    2051,   15990,   15991,   15997,   15996,   16020,   16021,   16027,   16026
    2052,   15991,   15992,   15998,   15997,   16021,   16022,   16028,   16027
    2053,   15992,   15993,   15999,   15998,   16022,   16023,   16029,   16028
    2054,   15993,   15994,   16000,   15999,   16023,   16024,   16030,   16029
    2055,   15994,   15882,   15881,   16000,   16024,   15877,   15876,   16030
    2056,   15835,   15995,   16001,   15841,   15836,   16025,   16031,   15842
    2057,   15995,   15996,   16002,   16001,   16025,   16026,   16032,   16031
    2058,   15996,   15997,   16003,   16002,   16026,   16027,   16033,   16032
    2059,   15997,   15998,   16004,   16003,   16027,   16028,   16034,   16033
    2060,   15998,   15999,   16005,   16004,   16028,   16029,   16035,   16034
    2061,   15999,   16000,   16006,   16005,   16029,   16030,   16036,   16035
    2062,   16000,   15881,   15880,   16006,   16030,   15876,   15875,   16036
    2063,   15841,   16001,   16007,   15847,   15842,   16031,   16037,   15848
    2064,   16001,   16002,   16008,   16007,   16031,   16032,   16038,   16037
    2065,   16002,   16003,   16009,   16008,   16032,   16033,   16039,   16038
    2066,   16003,   16004,   16010,   16009,   16033,   16034,   16040,   16039
    2067,   16004,   16005,   16011,   16010,   16034,   16035,   16041,   16040
    2068,   16005,   16006,   16012,   16011,   16035,   16036,   16042,   16041
    2069,   16006,   15880,   15879,   16012,   16036,   15875,   15874,   16042
    2070,   15847,   16007,   16013,   15853,   15848,   16037,   16043,   15854
    2071,   16007,   16008,   16014,   16013,   16037,   16038,   16044,   16043
    2072,   16008,   16009,   16015,   16014,   16038,   16039,   16045,   16044
    2073,   16009,   16010,   16016,   16015,   16039,   16040,   16046,   16045
    2074,   16010,   16011,   16017,   16016,   16040,   16041,   16047,   16046
    2075,   16011,   16012,   16018,   16017,   16041,   16042,   16048,   16047
    2076,   16012,   15879,   15878,   16018,   16042,   15874,   15873,   16048
    2077,   15853,   16013,   15716,   15632,   15854,   16043,   15715,   15631
    2078,   16013,   16014,   15722,   15716,   16043,   16044,   15721,   15715
    2079,   16014,   16015,   15728,   15722,   16044,   16045,   15727,   15721
    2080,   16015,   16016,   15734,   15728,   16045,   16046,   15733,   15727
    2081,   16016,   16017,   15740,   15734,   16046,   16047,   15739,   15733
    2082,   16017,   16018,   15746,   15740,   16047,   16048,   15745,   15739
    2083,   16018,   15878,   15698,   15746,   16048,   15873,   15697,   15745
    2084,   15823,   15895,   16019,   15830,   15822,   15894,   16049,   15831
    2085,   15895,   15901,   16020,   16019,   15894,   15900,   16050,   16049
    2086,   15901,   15907,   16021,   16020,   15900,   15906,   16051,   16050
    2087,   15907,   15913,   16022,   16021,   15906,   15912,   16052,   16051
    2088,   15913,   15919,   16023,   16022,   15912,   15918,   16053,   16052
    2089,   15919,   15925,   16024,   16023,   15918,   15924,   16054,   16053
    2090,   15925,   15859,   15877,   16024,   15924,   15858,   15872,   16054
    2091,   15830,   16019,   16025,   15836,   15831,   16049,   16055,   15837
    2092,   16019,   16020,   16026,   16025,   16049,   16050,   16056,   16055
    2093,   16020,   16021,   16027,   16026,   16050,   16051,   16057,   16056
    2094,   16021,   16022,   16028,   16027,   16051,   16052,   16058,   16057
    2095,   16022,   16023,   16029,   16028,   16052,   16053,   16059,   16058
    2096,   16023,   16024,   16030,   16029,   16053,   16054,   16060,   16059
    2097,   16024,   15877,   15876,   16030,   16054,   15872,   15871,   16060
    2098,   15836,   16025,   16031,   15842,   15837,   16055,   16061,   15843
    2099,   16025,   16026,   16032,   16031,   16055,   16056,   16062,   16061
    2100,   16026,   16027,   16033,   16032,   16056,   16057,   16063,   16062
    2101,   16027,   16028,   16034,   16033,   16057,   16058,   16064,   16063
    2102,   16028,   16029,   16035,   16034,   16058,   16059,   16065,   16064
    2103,   16029,   16030,   16036,   16035,   16059,   16060,   16066,   16065
    2104,   16030,   15876,   15875,   16036,   16060,   15871,   15870,   16066
    2105,   15842,   16031,   16037,   15848,   15843,   16061,   16067,   15849
    2106,   16031,   16032,   16038,   16037,   16061,   16062,   16068,   16067
    2107,   16032,   16033,   16039,   16038,   16062,   16063,   16069,   16068
    2108,   16033,   16034,   16040,   16039,   16063,   16064,   16070,   16069
    2109,   16034,   16035,   16041,   16040,   16064,   16065,   16071,   16070
    2110,   16035,   16036,   16042,   16041,   16065,   16066,   16072,   16071
    2111,   16036,   15875,   15874,   16042,   16066,   15870,   15869,   16072
    2112,   15848,   16037,   16043,   15854,   15849,   16067,   16073,   15855
    2113,   16037,   16038,   16044,   16043,   16067,   16068,   16074,   16073
    2114,   16038,   16039,   16045,   16044,   16068,   16069,   16075,   16074
    2115,   16039,   16040,   16046,   16045,   16069,   16070,   16076,   16075
    2116,   16040,   16041,   16047,   16046,   16070,   16071,   16077,   16076
    2117,   16041,   16042,   16048,   16047,   16071,   16072,   16078,   16077
    2118,   16042,   15874,   15873,   16048,   16072,   15869,   15868,   16078
    2119,   15854,   16043,   15715,   15631,   15855,   16073,   15714,   15630
    2120,   16043,   16044,   15721,   15715,   16073,   16074,   15720,   15714
    2121,   16044,   16045,   15727,   15721,   16074,   16075,   15726,   15720
    2122,   16045,   16046,   15733,   15727,   16075,   16076,   15732,   15726
    2123,   16046,   16047,   15739,   15733,   16076,   16077,   15738,   15732
    2124,   16047,   16048,   15745,   15739,   16077,   16078,   15744,   15738
    2125,   16048,   15873,   15697,   15745,   16078,   15868,   15696,   15744
    2126,   15822,   15894,   16049,   15831,   15821,   15893,   16079,   15832
    2127,   15894,   15900,   16050,   16049,   15893,   15899,   16080,   16079
    2128,   15900,   15906,   16051,   16050,   15899,   15905,   16081,   16080
    2129,   15906,   15912,   16052,   16051,   15905,   15911,   16082,   16081
    2130,   15912,   15918,   16053,   16052,   15911,   15917,   16083,   16082
    2131,   15918,   15924,   16054,   16053,   15917,   15923,   16084,   16083
    2132,   15924,   15858,   15872,   16054,   15923,   15857,   15867,   16084
    2133,   15831,   16049,   16055,   15837,   15832,   16079,   16085,   15838
    2134,   16049,   16050,   16056,   16055,   16079,   16080,   16086,   16085
    2135,   16050,   16051,   16057,   16056,   16080,   16081,   16087,   16086
    2136,   16051,   16052,   16058,   16057,   16081,   16082,   16088,   16087
    2137,   16052,   16053,   16059,   16058,   16082,   16083,   16089,   16088
    2138,   16053,   16054,   16060,   16059,   16083,   16084,   16090,   16089
    2139,   16054,   15872,   15871,   16060,   16084,   15867,   15866,   16090
    2140,   15837,   16055,   16061,   15843,   15838,   16085,   16091,   15844
    2141,   16055,   16056,   16062,   16061,   16085,   16086,   16092,   16091
    2142,   16056,   16057,   16063,   16062,   16086,   16087,   16093,   16092
    2143,   16057,   16058,   16064,   16063,   16087,   16088,   16094,   16093
    2144,   16058,   16059,   16065,   16064,   16088,   16089,   16095,   16094
    2145,   16059,   16060,   16066,   16065,   16089,   16090,   16096,   16095
    2146,   16060,   15871,   15870,   16066,   16090,   15866,   15865,   16096
    2147,   15843,   16061,   16067,   15849,   15844,   16091,   16097,   15850
    2148,   16061,   16062,   16068,   16067,   16091,   16092,   16098,   16097
    2149,   16062,   16063,   16069,   16068,   16092,   16093,   16099,   16098
    2150,   16063,   16064,   16070,   16069,   16093,   16094,   16100,   16099
    2151,   16064,   16065,   16071,   16070,   16094,   16095,   16101,   16100
    2152,   16065,   16066,   16072,   16071,   16095,   16096,   16102,   16101
    2153,   16066,   15870,   15869,   16072,   16096,   15865,   15864,   16102
    2154,   15849,   16067,   16073,   15855,   15850,   16097,   16103,   15856
    2155,   16067,   16068,   16074,   16073,   16097,   16098,   16104,   16103
    2156,   16068,   16069,   16075,   16074,   16098,   16099,   16105,   16104
    2157,   16069,   16070,   16076,   16075,   16099,   16100,   16106,   16105
    2158,   16070,   16071,   16077,   16076,   16100,   16101,   16107,   16106
    2159,   16071,   16072,   16078,   16077,   16101,   16102,   16108,   16107
    2160,   16072,   15869,   15868,   16078,   16102,   15864,   15863,   16108
    2161,   15855,   16073,   15714,   15630,   15856,   16103,   15713,   15629
    2162,   16073,   16074,   15720,   15714,   16103,   16104,   15719,   15713
    2163,   16074,   16075,   15726,   15720,   16104,   16105,   15725,   15719
    2164,   16075,   16076,   15732,   15726,   16105,   16106,   15731,   15725
    2165,   16076,   16077,   15738,   15732,   16106,   16107,   15737,   15731
    2166,   16077,   16078,   15744,   15738,   16107,   16108,   15743,   15737
    2167,   16078,   15868,   15696,   15744,   16108,   15863,   15695,   15743
    2168,   15821,   15893,   16079,   15832,    5423,    5465,    5471,    5424
    2169,   15893,   15899,   16080,   16079,    5465,    5466,    5476,    5471
    2170,   15899,   15905,   16081,   16080,    5466,    5467,    5481,    5476
    2171,   15905,   15911,   16082,   16081,    5467,    5468,    5486,    5481
    2172,   15911,   15917,   16083,   16082,    5468,    5469,    5491,    5486
    2173,   15917,   15923,   16084,   16083,    5469,    5470,    5496,    5491
    2174,   15923,   15857,   15867,   16084,    5470,    5459,    5460,    5496
    2175,   15832,   16079,   16085,   15838,    5424,    5471,    5472,    5425
    2176,   16079,   16080,   16086,   16085,    5471,    5476,    5477,    5472
    2177,   16080,   16081,   16087,   16086,    5476,    5481,    5482,    5477
    2178,   16081,   16082,   16088,   16087,    5481,    5486,    5487,    5482
    2179,   16082,   16083,   16089,   16088,    5486,    5491,    5492,    5487
    2180,   16083,   16084,   16090,   16089,    5491,    5496,    5497,    5492
    2181,   16084,   15867,   15866,   16090,    5496,    5460,    5461,    5497
    2182,   15838,   16085,   16091,   15844,    5425,    5472,    5473,    5426
    2183,   16085,   16086,   16092,   16091,    5472,    5477,    5478,    5473
    2184,   16086,   16087,   16093,   16092,    5477,    5482,    5483,    5478
    2185,   16087,   16088,   16094,   16093,    5482,    5487,    5488,    5483
    2186,   16088,   16089,   16095,   16094,    5487,    5492,    5493,    5488
    2187,   16089,   16090,   16096,   16095,    5492,    5497,    5498,    5493
    2188,   16090,   15866,   15865,   16096,    5497,    5461,    5462,    5498
    2189,   15844,   16091,   16097,   15850,    5426,    5473,    5474,    5427
    2190,   16091,   16092,   16098,   16097,    5473,    5478,    5479,    5474
    2191,   16092,   16093,   16099,   16098,    5478,    5483,    5484,    5479
    2192,   16093,   16094,   16100,   16099,    5483,    5488,    5489,    5484
    2193,   16094,   16095,   16101,   16100,    5488,    5493,    5494,    5489
    2194,   16095,   16096,   16102,   16101,    5493,    5498,    5499,    5494
    2195,   16096,   15865,   15864,   16102,    5498,    5462,    5463,    5499
    2196,   15850,   16097,   16103,   15856,    5427,    5474,    5475,    5428
    2197,   16097,   16098,   16104,   16103,    5474,    5479,    5480,    5475
    2198,   16098,   16099,   16105,   16104,    5479,    5484,    5485,    5480
    2199,   16099,   16100,   16106,   16105,    5484,    5489,    5490,    5485
    2200,   16100,   16101,   16107,   16106,    5489,    5494,    5495,    5490
    2201,   16101,   16102,   16108,   16107,    5494,    5499,    5500,    5495
    2202,   16102,   15864,   15863,   16108,    5499,    5463,    5464,    5500
    2203,   15856,   16103,   15713,   15629,    5428,    5475,    5336,    5330
    2204,   16103,   16104,   15719,   15713,    5475,    5480,    5337,    5336
    2205,   16104,   16105,   15725,   15719,    5480,    5485,    5338,    5337
    2206,   16105,   16106,   15731,   15725,    5485,    5490,    5339,    5338
    2207,   16106,   16107,   15737,   15731,    5490,    5495,    5340,    5339
    2208,   16107,   16108,   15743,   15737,    5495,    5500,    5341,    5340
    2209,   16108,   15863,   15695,   15743,    5500,    5464,    5335,    5341
    2210,   12356,   12349,   12350,   12351,   11676,   11669,   11670,   11671
    2211,   12351,   12352,   12355,   12356,   11671,   11672,   11675,   11676
    2212,   12346,   12348,   12355,   12352,   11666,   11668,   11675,   11672
    2213,   12345,   12346,   12352,   12353,   11665,   11666,   11672,   11673
    2214,   12344,   12345,   12353,   12354,   11664,   11665,   11673,   11674
    2215,   12341,   12342,   12349,   12356,   11661,   11662,   11669,   11676
    2216,   12340,   12341,   12356,   12355,   11660,   11661,   11676,   11675
    2217,   12339,   12340,   12355,   12348,   11659,   11660,   11675,   11668
    2218,   12338,   12339,   12348,   12347,   11658,   11659,   11668,   11667
    2219,   12337,   12338,   12347,   12343,   11657,   11658,   11667,   11663
    2220,   12335,   12336,   12344,   12354,   11655,   11656,   11664,   11674
    2221,   12334,   12335,   12354,   12353,   11654,   11655,   11674,   11673
    2222,   12333,   12334,   12353,   12352,   11653,   11654,   11673,   11672
    2223,   12332,   12333,   12352,   12351,   11652,   11653,   11672,   11671
    2224,   12331,   12332,   12351,   12350,   11651,   11652,   11671,   11670
    2225,   12330,   12331,   12350,   12349,   11650,   11651,   11670,   11669
    2226,   12329,   12330,   12349,   12342,   11649,   11650,   11669,   11662
    2227,   12346,   12327,   12347,   12348,   11666,   11647,   11667,   11668
    2228,   12327,   12328,   12343,   12347,   11647,   11648,   11663,   11667
    2229,   12326,   12327,   12346,   12345,   11646,   11647,   11666,   11665
    2230,   12325,   12326,   12345,   12344,   11645,   11646,   11665,   11664
    2231,   12320,   12321,   12325,   12344,   11640,   11641,   11645,   11664
    2232,   12319,   12320,   12344,   12336,   11639,   11640,   11664,   11656
    2233,   12323,   12324,   12337,   12343,   11643,   11644,   11657,   11663
    2234,   12322,   12323,   12343,   12328,   11642,   11643,   11663,   11648
    2235,   12317,   12318,   12329,   12342,   11637,   11638,   11649,   11662
    2236,   12316,   12317,   12342,   12341,   11636,   11637,   11662,   11661
    2237,   12315,   12316,   12341,   12340,   11635,   11636,   11661,   11660
    2238,   12314,   12315,   12340,   12339,   11634,   11635,   11660,   11659
    2239,   12313,   12314,   12339,   12338,   11633,   11634,   11659,   11658
    2240,   12312,   12313,   12338,   12337,   11632,   11633,   11658,   11657
    2241,   12311,   12312,   12337,   12324,   11631,   11632,   11657,   11644
    2242,   12309,   12310,   12319,   12336,   11629,   11630,   11639,   11656
    2243,   12308,   12309,   12336,   12335,   11628,   11629,   11656,   11655
    2244,   12307,   12308,   12335,   12334,   11627,   11628,   11655,   11654
    2245,   12306,   12307,   12334,   12333,   11626,   11627,   11654,   11653
    2246,   12305,   12306,   12333,   12332,   11625,   11626,   11653,   11652
    2247,   12304,   12305,   12332,   12331,   11624,   11625,   11652,   11651
    2248,   12303,   12304,   12331,   12330,   11623,   11624,   11651,   11650
    2249,   12302,   12303,   12330,   12329,   11622,   11623,   11650,   11649
    2250,   12301,   12302,   12329,   12318,   11621,   11622,   11649,   11638
    2251,   12262,   12260,   12322,   12328,   11619,   11620,   11642,   11648
    2252,   12264,   12262,   12328,   12327,   11618,   11619,   11648,   11647
    2253,   12266,   12264,   12327,   12326,   11617,   11618,   11647,   11646
    2254,   12268,   12266,   12326,   12325,   11616,   11617,   11646,   11645
    2255,   12270,   12268,   12325,   12321,   11615,   11616,   11645,   11641
    2256,    6002,    6001,   12311,   12324,    5332,    5331,   11631,   11644
    2257,    6003,    6002,   12324,   12323,    5333,    5332,   11644,   11643
    2258,    6004,    6003,   12323,   12322,    5334,    5333,   11643,   11642
    2259,    5993,    6004,   12322,   12260,    5330,    5334,   11642,   11620
    2260,   12246,   12237,   12270,   12321,   11611,   11610,   11615,   11641
    2261,   12248,   12246,   12321,   12320,   11612,   11611,   11641,   11640
    2262,   12250,   12248,   12320,   12319,   11613,   11612,   11640,   11639
    2263,   12252,   12250,   12319,   12310,   11614,   11613,   11639,   11630
    2264,   12231,   12233,   12301,   12318,   11591,   11590,   11621,   11638
    2265,   12229,   12231,   12318,   12317,   11592,   11591,   11638,   11637
    2266,   12227,   12229,   12317,   12316,   11593,   11592,   11637,   11636
    2267,   12225,   12227,   12316,   12315,   11594,   11593,   11636,   11635
    2268,   12223,   12225,   12315,   12314,   11595,   11594,   11635,   11634
    2269,   12221,   12223,   12314,   12313,   11596,   11595,   11634,   11633
    2270,   12219,   12221,   12313,   12312,   11597,   11596,   11633,   11632
    2271,   12217,   12219,   12312,   12311,   11598,   11597,   11632,   11631
    2272,    5996,   12217,   12311,    6001,    5329,   11598,   11631,    5331
    2273,   12282,   12239,   12252,   12310,   11600,   11599,   11614,   11630
    2274,   12284,   12282,   12310,   12309,   11601,   11600,   11630,   11629
    2275,   12286,   12284,   12309,   12308,   11602,   11601,   11629,   11628
    2276,   12288,   12286,   12308,   12307,   11603,   11602,   11628,   11627
    2277,   12290,   12288,   12307,   12306,   11604,   11603,   11627,   11626
    2278,   12292,   12290,   12306,   12305,   11605,   11604,   11626,   11625
    2279,   12294,   12292,   12305,   12304,   11606,   11605,   11625,   11624
    2280,   12296,   12294,   12304,   12303,   11607,   11606,   11624,   11623
    2281,   12298,   12296,   12303,   12302,   11608,   11607,   11623,   11622
    2282,   12300,   12298,   12302,   12301,   11609,   11608,   11622,   11621
    2283,   12216,   12300,   12301,   12233,   11589,   11609,   11621,   11590
    2284,   12412,   12405,   12406,   12407,   12356,   12349,   12350,   12351
    2285,   12407,   12408,   12411,   12412,   12351,   12352,   12355,   12356
    2286,   12402,   12404,   12411,   12408,   12346,   12348,   12355,   12352
    2287,   12401,   12402,   12408,   12409,   12345,   12346,   12352,   12353
    2288,   12400,   12401,   12409,   12410,   12344,   12345,   12353,   12354
    2289,   12397,   12398,   12405,   12412,   12341,   12342,   12349,   12356
    2290,   12396,   12397,   12412,   12411,   12340,   12341,   12356,   12355
    2291,   12395,   12396,   12411,   12404,   12339,   12340,   12355,   12348
    2292,   12394,   12395,   12404,   12403,   12338,   12339,   12348,   12347
    2293,   12393,   12394,   12403,   12399,   12337,   12338,   12347,   12343
    2294,   12391,   12392,   12400,   12410,   12335,   12336,   12344,   12354
    2295,   12390,   12391,   12410,   12409,   12334,   12335,   12354,   12353
    2296,   12389,   12390,   12409,   12408,   12333,   12334,   12353,   12352
    2297,   12388,   12389,   12408,   12407,   12332,   12333,   12352,   12351
    2298,   12387,   12388,   12407,   12406,   12331,   12332,   12351,   12350
    2299,   12386,   12387,   12406,   12405,   12330,   12331,   12350,   12349
    2300,   12385,   12386,   12405,   12398,   12329,   12330,   12349,   12342
    2301,   12402,   12383,   12403,   12404,   12346,   12327,   12347,   12348
    2302,   12383,   12384,   12399,   12403,   12327,   12328,   12343,   12347
    2303,   12382,   12383,   12402,   12401,   12326,   12327,   12346,   12345
    2304,   12381,   12382,   12401,   12400,   12325,   12326,   12345,   12344
    2305,   12376,   12377,   12381,   12400,   12320,   12321,   12325,   12344
    2306,   12375,   12376,   12400,   12392,   12319,   12320,   12344,   12336
    2307,   12379,   12380,   12393,   12399,   12323,   12324,   12337,   12343
    2308,   12378,   12379,   12399,   12384,   12322,   12323,   12343,   12328
    2309,   12373,   12374,   12385,   12398,   12317,   12318,   12329,   12342
    2310,   12372,   12373,   12398,   12397,   12316,   12317,   12342,   12341
    2311,   12371,   12372,   12397,   12396,   12315,   12316,   12341,   12340
    2312,   12370,   12371,   12396,   12395,   12314,   12315,   12340,   12339
    2313,   12369,   12370,   12395,   12394,   12313,   12314,   12339,   12338
    2314,   12368,   12369,   12394,   12393,   12312,   12313,   12338,   12337
    2315,   12367,   12368,   12393,   12380,   12311,   12312,   12337,   12324
    2316,   12365,   12366,   12375,   12392,   12309,   12310,   12319,   12336
    2317,   12364,   12365,   12392,   12391,   12308,   12309,   12336,   12335
    2318,   12363,   12364,   12391,   12390,   12307,   12308,   12335,   12334
    2319,   12362,   12363,   12390,   12389,   12306,   12307,   12334,   12333
    2320,   12361,   12362,   12389,   12388,   12305,   12306,   12333,   12332
    2321,   12360,   12361,   12388,   12387,   12304,   12305,   12332,   12331
    2322,   12359,   12360,   12387,   12386,   12303,   12304,   12331,   12330
    2323,   12358,   12359,   12386,   12385,   12302,   12303,   12330,   12329
    2324,   12357,   12358,   12385,   12374,   12301,   12302,   12329,   12318
    2325,   12261,   12259,   12378,   12384,   12262,   12260,   12322,   12328
    2326,   12263,   12261,   12384,   12383,   12264,   12262,   12328,   12327
    2327,   12265,   12263,   12383,   12382,   12266,   12264,   12327,   12326
    2328,   12267,   12265,   12382,   12381,   12268,   12266,   12326,   12325
    2329,   12269,   12267,   12381,   12377,   12270,   12268,   12325,   12321
    2330,    5998,    5997,   12367,   12380,    6002,    6001,   12311,   12324
    2331,    5999,    5998,   12380,   12379,    6003,    6002,   12324,   12323
    2332,    6000,    5999,   12379,   12378,    6004,    6003,   12323,   12322
    2333,    5994,    6000,   12378,   12259,    5993,    6004,   12322,   12260
    2334,   12245,   12236,   12269,   12377,   12246,   12237,   12270,   12321
    2335,   12247,   12245,   12377,   12376,   12248,   12246,   12321,   12320
    2336,   12249,   12247,   12376,   12375,   12250,   12248,   12320,   12319
    2337,   12251,   12249,   12375,   12366,   12252,   12250,   12319,   12310
    2338,   12232,   12234,   12357,   12374,   12231,   12233,   12301,   12318
    2339,   12230,   12232,   12374,   12373,   12229,   12231,   12318,   12317
    2340,   12228,   12230,   12373,   12372,   12227,   12229,   12317,   12316
    2341,   12226,   12228,   12372,   12371,   12225,   12227,   12316,   12315
    2342,   12224,   12226,   12371,   12370,   12223,   12225,   12315,   12314
    2343,   12222,   12224,   12370,   12369,   12221,   12223,   12314,   12313
    2344,   12220,   12222,   12369,   12368,   12219,   12221,   12313,   12312
    2345,   12218,   12220,   12368,   12367,   12217,   12219,   12312,   12311
    2346,    5995,   12218,   12367,    5997,    5996,   12217,   12311,    6001
    2347,   12281,   12240,   12251,   12366,   12282,   12239,   12252,   12310
    2348,   12283,   12281,   12366,   12365,   12284,   12282,   12310,   12309
    2349,   12285,   12283,   12365,   12364,   12286,   12284,   12309,   12308
    2350,   12287,   12285,   12364,   12363,   12288,   12286,   12308,   12307
    2351,   12289,   12287,   12363,   12362,   12290,   12288,   12307,   12306
    2352,   12291,   12289,   12362,   12361,   12292,   12290,   12306,   12305
    2353,   12293,   12291,   12361,   12360,   12294,   12292,   12305,   12304
    2354,   12295,   12293,   12360,   12359,   12296,   12294,   12304,   12303
    2355,   12297,   12295,   12359,   12358,   12298,   12296,   12303,   12302
    2356,   12299,   12297,   12358,   12357,   12300,   12298,   12302,   12301
    2357,   12215,   12299,   12357,   12234,   12216,   12300,   12301,   12233
    2358,   12468,   12461,   12462,   12463,   12412,   12405,   12406,   12407
    2359,   12463,   12464,   12467,   12468,   12407,   12408,   12411,   12412
    2360,   12458,   12460,   12467,   12464,   12402,   12404,   12411,   12408
    2361,   12457,   12458,   12464,   12465,   12401,   12402,   12408,   12409
    2362,   12456,   12457,   12465,   12466,   12400,   12401,   12409,   12410
    2363,   12453,   12454,   12461,   12468,   12397,   12398,   12405,   12412
    2364,   12452,   12453,   12468,   12467,   12396,   12397,   12412,   12411
    2365,   12451,   12452,   12467,   12460,   12395,   12396,   12411,   12404
    2366,   12450,   12451,   12460,   12459,   12394,   12395,   12404,   12403
    2367,   12449,   12450,   12459,   12455,   12393,   12394,   12403,   12399
    2368,   12447,   12448,   12456,   12466,   12391,   12392,   12400,   12410
    2369,   12446,   12447,   12466,   12465,   12390,   12391,   12410,   12409
    2370,   12445,   12446,   12465,   12464,   12389,   12390,   12409,   12408
    2371,   12444,   12445,   12464,   12463,   12388,   12389,   12408,   12407
    2372,   12443,   12444,   12463,   12462,   12387,   12388,   12407,   12406
    2373,   12442,   12443,   12462,   12461,   12386,   12387,   12406,   12405
    2374,   12441,   12442,   12461,   12454,   12385,   12386,   12405,   12398
    2375,   12458,   12439,   12459,   12460,   12402,   12383,   12403,   12404
    2376,   12439,   12440,   12455,   12459,   12383,   12384,   12399,   12403
    2377,   12438,   12439,   12458,   12457,   12382,   12383,   12402,   12401
    2378,   12437,   12438,   12457,   12456,   12381,   12382,   12401,   12400
    2379,   12432,   12433,   12437,   12456,   12376,   12377,   12381,   12400
    2380,   12431,   12432,   12456,   12448,   12375,   12376,   12400,   12392
    2381,   12435,   12436,   12449,   12455,   12379,   12380,   12393,   12399
    2382,   12434,   12435,   12455,   12440,   12378,   12379,   12399,   12384
    2383,   12429,   12430,   12441,   12454,   12373,   12374,   12385,   12398
    2384,   12428,   12429,   12454,   12453,   12372,   12373,   12398,   12397
    2385,   12427,   12428,   12453,   12452,   12371,   12372,   12397,   12396
    2386,   12426,   12427,   12452,   12451,   12370,   12371,   12396,   12395
    2387,   12425,   12426,   12451,   12450,   12369,   12370,   12395,   12394
    2388,   12424,   12425,   12450,   12449,   12368,   12369,   12394,   12393
    2389,   12423,   12424,   12449,   12436,   12367,   12368,   12393,   12380
    2390,   12421,   12422,   12431,   12448,   12365,   12366,   12375,   12392
    2391,   12420,   12421,   12448,   12447,   12364,   12365,   12392,   12391
    2392,   12419,   12420,   12447,   12446,   12363,   12364,   12391,   12390
    2393,   12418,   12419,   12446,   12445,   12362,   12363,   12390,   12389
    2394,   12417,   12418,   12445,   12444,   12361,   12362,   12389,   12388
    2395,   12416,   12417,   12444,   12443,   12360,   12361,   12388,   12387
    2396,   12415,   12416,   12443,   12442,   12359,   12360,   12387,   12386
    2397,   12414,   12415,   12442,   12441,   12358,   12359,   12386,   12385
    2398,   12413,   12414,   12441,   12430,   12357,   12358,   12385,   12374
    2399,   12254,   12253,   12434,   12440,   12261,   12259,   12378,   12384
    2400,   12255,   12254,   12440,   12439,   12263,   12261,   12384,   12383
    2401,   12256,   12255,   12439,   12438,   12265,   12263,   12383,   12382
    2402,   12257,   12256,   12438,   12437,   12267,   12265,   12382,   12381
    2403,   12258,   12257,   12437,   12433,   12269,   12267,   12381,   12377
    2404,    5991,    5992,   12423,   12436,    5998,    5997,   12367,   12380
    2405,    5990,    5991,   12436,   12435,    5999,    5998,   12380,   12379
    2406,    5989,    5990,   12435,   12434,    6000,    5999,   12379,   12378
    2407,    5987,    5989,   12434,   12253,    5994,    6000,   12378,   12259
    2408,   12244,   12235,   12258,   12433,   12245,   12236,   12269,   12377
    2409,   12243,   12244,   12433,   12432,   12247,   12245,   12377,   12376
    2410,   12242,   12243,   12432,   12431,   12249,   12247,   12376,   12375
    2411,   12241,   12242,   12431,   12422,   12251,   12249,   12375,   12366
    2412,   12213,   12214,   12413,   12430,   12232,   12234,   12357,   12374
    2413,   12212,   12213,   12430,   12429,   12230,   12232,   12374,   12373
    2414,   12211,   12212,   12429,   12428,   12228,   12230,   12373,   12372
    2415,   12210,   12211,   12428,   12427,   12226,   12228,   12372,   12371
    2416,   12209,   12210,   12427,   12426,   12224,   12226,   12371,   12370
    2417,   12208,   12209,   12426,   12425,   12222,   12224,   12370,   12369
    2418,   12207,   12208,   12425,   12424,   12220,   12222,   12369,   12368
    2419,   12206,   12207,   12424,   12423,   12218,   12220,   12368,   12367
    2420,    5988,   12206,   12423,    5992,    5995,   12218,   12367,    5997
    2421,   12271,   12238,   12241,   12422,   12281,   12240,   12251,   12366
    2422,   12272,   12271,   12422,   12421,   12283,   12281,   12366,   12365
    2423,   12273,   12272,   12421,   12420,   12285,   12283,   12365,   12364
    2424,   12274,   12273,   12420,   12419,   12287,   12285,   12364,   12363
    2425,   12275,   12274,   12419,   12418,   12289,   12287,   12363,   12362
    2426,   12276,   12275,   12418,   12417,   12291,   12289,   12362,   12361
    2427,   12277,   12276,   12417,   12416,   12293,   12291,   12361,   12360
    2428,   12278,   12277,   12416,   12415,   12295,   12293,   12360,   12359
    2429,   12279,   12278,   12415,   12414,   12297,   12295,   12359,   12358
    2430,   12280,   12279,   12414,   12413,   12299,   12297,   12358,   12357
    2431,   12205,   12280,   12413,   12214,   12215,   12299,   12357,   12234
    2432,   11676,   11669,   11670,   11671,   11924,   11917,   11918,   11919
    2433,   11671,   11672,   11675,   11676,   11919,   11920,   11923,   11924
    2434,   11666,   11668,   11675,   11672,   11914,   11916,   11923,   11920
    2435,   11665,   11666,   11672,   11673,   11913,   11914,   11920,   11921
    2436,   11664,   11665,   11673,   11674,   11912,   11913,   11921,   11922
    2437,   11661,   11662,   11669,   11676,   11909,   11910,   11917,   11924
    2438,   11660,   11661,   11676,   11675,   11908,   11909,   11924,   11923
    2439,   11659,   11660,   11675,   11668,   11907,   11908,   11923,   11916
    2440,   11658,   11659,   11668,   11667,   11906,   11907,   11916,   11915
    2441,   11657,   11658,   11667,   11663,   11905,   11906,   11915,   11911
    2442,   11655,   11656,   11664,   11674,   11903,   11904,   11912,   11922
    2443,   11654,   11655,   11674,   11673,   11902,   11903,   11922,   11921
    2444,   11653,   11654,   11673,   11672,   11901,   11902,   11921,   11920
    2445,   11652,   11653,   11672,   11671,   11900,   11901,   11920,   11919
    2446,   11651,   11652,   11671,   11670,   11899,   11900,   11919,   11918
    2447,   11650,   11651,   11670,   11669,   11898,   11899,   11918,   11917
    2448,   11649,   11650,   11669,   11662,   11897,   11898,   11917,   11910
    2449,   11666,   11647,   11667,   11668,   11914,   11895,   11915,   11916
    2450,   11647,   11648,   11663,   11667,   11895,   11896,   11911,   11915
    2451,   11646,   11647,   11666,   11665,   11894,   11895,   11914,   11913
    2452,   11645,   11646,   11665,   11664,   11893,   11894,   11913,   11912
    2453,   11640,   11641,   11645,   11664,   11888,   11889,   11893,   11912
    2454,   11639,   11640,   11664,   11656,   11887,   11888,   11912,   11904
    2455,   11643,   11644,   11657,   11663,   11891,   11892,   11905,   11911
    2456,   11642,   11643,   11663,   11648,   11890,   11891,   11911,   11896
    2457,   11637,   11638,   11649,   11662,   11885,   11886,   11897,   11910
    2458,   11636,   11637,   11662,   11661,   11884,   11885,   11910,   11909
    2459,   11635,   11636,   11661,   11660,   11883,   11884,   11909,   11908
    2460,   11634,   11635,   11660,   11659,   11882,   11883,   11908,   11907
    2461,   11633,   11634,   11659,   11658,   11881,   11882,   11907,   11906
    2462,   11632,   11633,   11658,   11657,   11880,   11881,   11906,   11905
    2463,   11631,   11632,   11657,   11644,   11879,   11880,   11905,   11892
    2464,   11629,   11630,   11639,   11656,   11877,   11878,   11887,   11904
    2465,   11628,   11629,   11656,   11655,   11876,   11877,   11904,   11903
    2466,   11627,   11628,   11655,   11654,   11875,   11876,   11903,   11902
    2467,   11626,   11627,   11654,   11653,   11874,   11875,   11902,   11901
    2468,   11625,   11626,   11653,   11652,   11873,   11874,   11901,   11900
    2469,   11624,   11625,   11652,   11651,   11872,   11873,   11900,   11899
    2470,   11623,   11624,   11651,   11650,   11871,   11872,   11899,   11898
    2471,   11622,   11623,   11650,   11649,   11870,   11871,   11898,   11897
    2472,   11621,   11622,   11649,   11638,   11869,   11870,   11897,   11886
    2473,   11619,   11620,   11642,   11648,   11784,   11779,   11890,   11896
    2474,   11618,   11619,   11648,   11647,   11789,   11784,   11896,   11895
    2475,   11617,   11618,   11647,   11646,   11794,   11789,   11895,   11894
    2476,   11616,   11617,   11646,   11645,   11799,   11794,   11894,   11893
    2477,   11615,   11616,   11645,   11641,   11804,   11799,   11893,   11889
    2478,    5332,    5331,   11631,   11644,    5440,    5439,   11879,   11892
    2479,    5333,    5332,   11644,   11643,    5441,    5440,   11892,   11891
    2480,    5334,    5333,   11643,   11642,    5442,    5441,   11891,   11890
    2481,    5330,    5334,   11642,   11620,    5428,    5442,   11890,   11779
    2482,   11611,   11610,   11615,   11641,   11753,   11738,   11804,   11889
    2483,   11612,   11611,   11641,   11640,   11758,   11753,   11889,   11888
    2484,   11613,   11612,   11640,   11639,   11763,   11758,   11888,   11887
    2485,   11614,   11613,   11639,   11630,   11768,   11763,   11887,   11878
    2486,   11591,   11590,   11621,   11638,   11731,   11736,   11869,   11886
    2487,   11592,   11591,   11638,   11637,   11726,   11731,   11886,   11885
    2488,   11593,   11592,   11637,   11636,   11721,   11726,   11885,   11884
    2489,   11594,   11593,   11636,   11635,   11716,   11721,   11884,   11883
    2490,   11595,   11594,   11635,   11634,   11711,   11716,   11883,   11882
    2491,   11596,   11595,   11634,   11633,   11706,   11711,   11882,   11881
    2492,   11597,   11596,   11633,   11632,   11701,   11706,   11881,   11880
    2493,   11598,   11597,   11632,   11631,   11696,   11701,   11880,   11879
    2494,    5329,   11598,   11631,    5331,    5434,   11696,   11879,    5439
    2495,   11600,   11599,   11614,   11630,   11819,   11752,   11768,   11878
    2496,   11601,   11600,   11630,   11629,   11824,   11819,   11878,   11877
    2497,   11602,   11601,   11629,   11628,   11829,   11824,   11877,   11876
    2498,   11603,   11602,   11628,   11627,   11834,   11829,   11876,   11875
    2499,   11604,   11603,   11627,   11626,   11839,   11834,   11875,   11874
    2500,   11605,   11604,   11626,   11625,   11844,   11839,   11874,   11873
    2501,   11606,   11605,   11625,   11624,   11849,   11844,   11873,   11872
    2502,   11607,   11606,   11624,   11623,   11854,   11849,   11872,   11871
    2503,   11608,   11607,   11623,   11622,   11859,   11854,   11871,   11870
    2504,   11609,   11608,   11622,   11621,   11864,   11859,   11870,   11869
    2505,   11589,   11609,   11621,   11590,   11678,   11864,   11869,   11736
    2506,   11924,   11917,   11918,   11919,   11980,   11973,   11974,   11975
    2507,   11919,   11920,   11923,   11924,   11975,   11976,   11979,   11980
    2508,   11914,   11916,   11923,   11920,   11970,   11972,   11979,   11976
    2509,   11913,   11914,   11920,   11921,   11969,   11970,   11976,   11977
    2510,   11912,   11913,   11921,   11922,   11968,   11969,   11977,   11978
    2511,   11909,   11910,   11917,   11924,   11965,   11966,   11973,   11980
    2512,   11908,   11909,   11924,   11923,   11964,   11965,   11980,   11979
    2513,   11907,   11908,   11923,   11916,   11963,   11964,   11979,   11972
    2514,   11906,   11907,   11916,   11915,   11962,   11963,   11972,   11971
    2515,   11905,   11906,   11915,   11911,   11961,   11962,   11971,   11967
    2516,   11903,   11904,   11912,   11922,   11959,   11960,   11968,   11978
    2517,   11902,   11903,   11922,   11921,   11958,   11959,   11978,   11977
    2518,   11901,   11902,   11921,   11920,   11957,   11958,   11977,   11976
    2519,   11900,   11901,   11920,   11919,   11956,   11957,   11976,   11975
    2520,   11899,   11900,   11919,   11918,   11955,   11956,   11975,   11974
    2521,   11898,   11899,   11918,   11917,   11954,   11955,   11974,   11973
    2522,   11897,   11898,   11917,   11910,   11953,   11954,   11973,   11966
    2523,   11914,   11895,   11915,   11916,   11970,   11951,   11971,   11972
    2524,   11895,   11896,   11911,   11915,   11951,   11952,   11967,   11971
    2525,   11894,   11895,   11914,   11913,   11950,   11951,   11970,   11969
    2526,   11893,   11894,   11913,   11912,   11949,   11950,   11969,   11968
    2527,   11888,   11889,   11893,   11912,   11944,   11945,   11949,   11968
    2528,   11887,   11888,   11912,   11904,   11943,   11944,   11968,   11960
    2529,   11891,   11892,   11905,   11911,   11947,   11948,   11961,   11967
    2530,   11890,   11891,   11911,   11896,   11946,   11947,   11967,   11952
    2531,   11885,   11886,   11897,   11910,   11941,   11942,   11953,   11966
    2532,   11884,   11885,   11910,   11909,   11940,   11941,   11966,   11965
    2533,   11883,   11884,   11909,   11908,   11939,   11940,   11965,   11964
    2534,   11882,   11883,   11908,   11907,   11938,   11939,   11964,   11963
    2535,   11881,   11882,   11907,   11906,   11937,   11938,   11963,   11962
    2536,   11880,   11881,   11906,   11905,   11936,   11937,   11962,   11961
    2537,   11879,   11880,   11905,   11892,   11935,   11936,   11961,   11948
    2538,   11877,   11878,   11887,   11904,   11933,   11934,   11943,   11960
    2539,   11876,   11877,   11904,   11903,   11932,   11933,   11960,   11959
    2540,   11875,   11876,   11903,   11902,   11931,   11932,   11959,   11958
    2541,   11874,   11875,   11902,   11901,   11930,   11931,   11958,   11957
    2542,   11873,   11874,   11901,   11900,   11929,   11930,   11957,   11956
    2543,   11872,   11873,   11900,   11899,   11928,   11929,   11956,   11955
    2544,   11871,   11872,   11899,   11898,   11927,   11928,   11955,   11954
    2545,   11870,   11871,   11898,   11897,   11926,   11927,   11954,   11953
    2546,   11869,   11870,   11897,   11886,   11925,   11926,   11953,   11942
    2547,   11784,   11779,   11890,   11896,   11785,   11780,   11946,   11952
    2548,   11789,   11784,   11896,   11895,   11790,   11785,   11952,   11951
    2549,   11794,   11789,   11895,   11894,   11795,   11790,   11951,   11950
    2550,   11799,   11794,   11894,   11893,   11800,   11795,   11950,   11949
    2551,   11804,   11799,   11893,   11889,   11805,   11800,   11949,   11945
    2552,    5440,    5439,   11879,   11892,    5444,    5443,   11935,   11948
    2553,    5441,    5440,   11892,   11891,    5445,    5444,   11948,   11947
    2554,    5442,    5441,   11891,   11890,    5446,    5445,   11947,   11946
    2555,    5428,    5442,   11890,   11779,    5427,    5446,   11946,   11780
    2556,   11753,   11738,   11804,   11889,   11754,   11739,   11805,   11945
    2557,   11758,   11753,   11889,   11888,   11759,   11754,   11945,   11944
    2558,   11763,   11758,   11888,   11887,   11764,   11759,   11944,   11943
    2559,   11768,   11763,   11887,   11878,   11769,   11764,   11943,   11934
    2560,   11731,   11736,   11869,   11886,   11730,   11735,   11925,   11942
    2561,   11726,   11731,   11886,   11885,   11725,   11730,   11942,   11941
    2562,   11721,   11726,   11885,   11884,   11720,   11725,   11941,   11940
    2563,   11716,   11721,   11884,   11883,   11715,   11720,   11940,   11939
    2564,   11711,   11716,   11883,   11882,   11710,   11715,   11939,   11938
    2565,   11706,   11711,   11882,   11881,   11705,   11710,   11938,   11937
    2566,   11701,   11706,   11881,   11880,   11700,   11705,   11937,   11936
    2567,   11696,   11701,   11880,   11879,   11695,   11700,   11936,   11935
    2568,    5434,   11696,   11879,    5439,    5435,   11695,   11935,    5443
    2569,   11819,   11752,   11768,   11878,   11820,   11751,   11769,   11934
    2570,   11824,   11819,   11878,   11877,   11825,   11820,   11934,   11933
    2571,   11829,   11824,   11877,   11876,   11830,   11825,   11933,   11932
    2572,   11834,   11829,   11876,   11875,   11835,   11830,   11932,   11931
    2573,   11839,   11834,   11875,   11874,   11840,   11835,   11931,   11930
    2574,   11844,   11839,   11874,   11873,   11845,   11840,   11930,   11929
    2575,   11849,   11844,   11873,   11872,   11850,   11845,   11929,   11928
    2576,   11854,   11849,   11872,   11871,   11855,   11850,   11928,   11927
    2577,   11859,   11854,   11871,   11870,   11860,   11855,   11927,   11926
    2578,   11864,   11859,   11870,   11869,   11865,   11860,   11926,   11925
    2579,   11678,   11864,   11869,   11736,   11679,   11865,   11925,   11735
    2580,   11980,   11973,   11974,   11975,   12036,   12029,   12030,   12031
    2581,   11975,   11976,   11979,   11980,   12031,   12032,   12035,   12036
    2582,   11970,   11972,   11979,   11976,   12026,   12028,   12035,   12032
    2583,   11969,   11970,   11976,   11977,   12025,   12026,   12032,   12033
    2584,   11968,   11969,   11977,   11978,   12024,   12025,   12033,   12034
    2585,   11965,   11966,   11973,   11980,   12021,   12022,   12029,   12036
    2586,   11964,   11965,   11980,   11979,   12020,   12021,   12036,   12035
    2587,   11963,   11964,   11979,   11972,   12019,   12020,   12035,   12028
    2588,   11962,   11963,   11972,   11971,   12018,   12019,   12028,   12027
    2589,   11961,   11962,   11971,   11967,   12017,   12018,   12027,   12023
    2590,   11959,   11960,   11968,   11978,   12015,   12016,   12024,   12034
    2591,   11958,   11959,   11978,   11977,   12014,   12015,   12034,   12033
    2592,   11957,   11958,   11977,   11976,   12013,   12014,   12033,   12032
    2593,   11956,   11957,   11976,   11975,   12012,   12013,   12032,   12031
    2594,   11955,   11956,   11975,   11974,   12011,   12012,   12031,   12030
    2595,   11954,   11955,   11974,   11973,   12010,   12011,   12030,   12029
    2596,   11953,   11954,   11973,   11966,   12009,   12010,   12029,   12022
    2597,   11970,   11951,   11971,   11972,   12026,   12007,   12027,   12028
    2598,   11951,   11952,   11967,   11971,   12007,   12008,   12023,   12027
    2599,   11950,   11951,   11970,   11969,   12006,   12007,   12026,   12025
    2600,   11949,   11950,   11969,   11968,   12005,   12006,   12025,   12024
    2601,   11944,   11945,   11949,   11968,   12000,   12001,   12005,   12024
    2602,   11943,   11944,   11968,   11960,   11999,   12000,   12024,   12016
    2603,   11947,   11948,   11961,   11967,   12003,   12004,   12017,   12023
    2604,   11946,   11947,   11967,   11952,   12002,   12003,   12023,   12008
    2605,   11941,   11942,   11953,   11966,   11997,   11998,   12009,   12022
    2606,   11940,   11941,   11966,   11965,   11996,   11997,   12022,   12021
    2607,   11939,   11940,   11965,   11964,   11995,   11996,   12021,   12020
    2608,   11938,   11939,   11964,   11963,   11994,   11995,   12020,   12019
    2609,   11937,   11938,   11963,   11962,   11993,   11994,   12019,   12018
    2610,   11936,   11937,   11962,   11961,   11992,   11993,   12018,   12017
    2611,   11935,   11936,   11961,   11948,   11991,   11992,   12017,   12004
    2612,   11933,   11934,   11943,   11960,   11989,   11990,   11999,   12016
    2613,   11932,   11933,   11960,   11959,   11988,   11989,   12016,   12015
    2614,   11931,   11932,   11959,   11958,   11987,   11988,   12015,   12014
    2615,   11930,   11931,   11958,   11957,   11986,   11987,   12014,   12013
    2616,   11929,   11930,   11957,   11956,   11985,   11986,   12013,   12012
    2617,   11928,   11929,   11956,   11955,   11984,   11985,   12012,   12011
    2618,   11927,   11928,   11955,   11954,   11983,   11984,   12011,   12010
    2619,   11926,   11927,   11954,   11953,   11982,   11983,   12010,   12009
    2620,   11925,   11926,   11953,   11942,   11981,   11982,   12009,   11998
    2621,   11785,   11780,   11946,   11952,   11786,   11781,   12002,   12008
    2622,   11790,   11785,   11952,   11951,   11791,   11786,   12008,   12007
    2623,   11795,   11790,   11951,   11950,   11796,   11791,   12007,   12006
    2624,   11800,   11795,   11950,   11949,   11801,   11796,   12006,   12005
    2625,   11805,   11800,   11949,   11945,   11806,   11801,   12005,   12001
    2626,    5444,    5443,   11935,   11948,    5448,    5447,   11991,   12004
    2627,    5445,    5444,   11948,   11947,    5449,    5448,   12004,   12003
    2628,    5446,    5445,   11947,   11946,    5450,    5449,   12003,   12002
    2629,    5427,    5446,   11946,   11780,    5426,    5450,   12002,   11781
    2630,   11754,   11739,   11805,   11945,   11755,   11740,   11806,   12001
    2631,   11759,   11754,   11945,   11944,   11760,   11755,   12001,   12000
    2632,   11764,   11759,   11944,   11943,   11765,   11760,   12000,   11999
    2633,   11769,   11764,   11943,   11934,   11770,   11765,   11999,   11990
    2634,   11730,   11735,   11925,   11942,   11729,   11734,   11981,   11998
    2635,   11725,   11730,   11942,   11941,   11724,   11729,   11998,   11997
    2636,   11720,   11725,   11941,   11940,   11719,   11724,   11997,   11996
    2637,   11715,   11720,   11940,   11939,   11714,   11719,   11996,   11995
    2638,   11710,   11715,   11939,   11938,   11709,   11714,   11995,   11994
    2639,   11705,   11710,   11938,   11937,   11704,   11709,   11994,   11993
    2640,   11700,   11705,   11937,   11936,   11699,   11704,   11993,   11992
    2641,   11695,   11700,   11936,   11935,   11694,   11699,   11992,   11991
    2642,    5435,   11695,   11935,    5443,    5436,   11694,   11991,    5447
    2643,   11820,   11751,   11769,   11934,   11821,   11750,   11770,   11990
    2644,   11825,   11820,   11934,   11933,   11826,   11821,   11990,   11989
    2645,   11830,   11825,   11933,   11932,   11831,   11826,   11989,   11988
    2646,   11835,   11830,   11932,   11931,   11836,   11831,   11988,   11987
    2647,   11840,   11835,   11931,   11930,   11841,   11836,   11987,   11986
    2648,   11845,   11840,   11930,   11929,   11846,   11841,   11986,   11985
    2649,   11850,   11845,   11929,   11928,   11851,   11846,   11985,   11984
    2650,   11855,   11850,   11928,   11927,   11856,   11851,   11984,   11983
    2651,   11860,   11855,   11927,   11926,   11861,   11856,   11983,   11982
    2652,   11865,   11860,   11926,   11925,   11866,   11861,   11982,   11981
    2653,   11679,   11865,   11925,   11735,   11680,   11866,   11981,   11734
    2654,   12036,   12029,   12030,   12031,   12092,   12085,   12086,   12087
    2655,   12031,   12032,   12035,   12036,   12087,   12088,   12091,   12092
    2656,   12026,   12028,   12035,   12032,   12082,   12084,   12091,   12088
    2657,   12025,   12026,   12032,   12033,   12081,   12082,   12088,   12089
    2658,   12024,   12025,   12033,   12034,   12080,   12081,   12089,   12090
    2659,   12021,   12022,   12029,   12036,   12077,   12078,   12085,   12092
    2660,   12020,   12021,   12036,   12035,   12076,   12077,   12092,   12091
    2661,   12019,   12020,   12035,   12028,   12075,   12076,   12091,   12084
    2662,   12018,   12019,   12028,   12027,   12074,   12075,   12084,   12083
    2663,   12017,   12018,   12027,   12023,   12073,   12074,   12083,   12079
    2664,   12015,   12016,   12024,   12034,   12071,   12072,   12080,   12090
    2665,   12014,   12015,   12034,   12033,   12070,   12071,   12090,   12089
    2666,   12013,   12014,   12033,   12032,   12069,   12070,   12089,   12088
    2667,   12012,   12013,   12032,   12031,   12068,   12069,   12088,   12087
    2668,   12011,   12012,   12031,   12030,   12067,   12068,   12087,   12086
    2669,   12010,   12011,   12030,   12029,   12066,   12067,   12086,   12085
    2670,   12009,   12010,   12029,   12022,   12065,   12066,   12085,   12078
    2671,   12026,   12007,   12027,   12028,   12082,   12063,   12083,   12084
    2672,   12007,   12008,   12023,   12027,   12063,   12064,   12079,   12083
    2673,   12006,   12007,   12026,   12025,   12062,   12063,   12082,   12081
    2674,   12005,   12006,   12025,   12024,   12061,   12062,   12081,   12080
    2675,   12000,   12001,   12005,   12024,   12056,   12057,   12061,   12080
    2676,   11999,   12000,   12024,   12016,   12055,   12056,   12080,   12072
    2677,   12003,   12004,   12017,   12023,   12059,   12060,   12073,   12079
    2678,   12002,   12003,   12023,   12008,   12058,   12059,   12079,   12064
    2679,   11997,   11998,   12009,   12022,   12053,   12054,   12065,   12078
    2680,   11996,   11997,   12022,   12021,   12052,   12053,   12078,   12077
    2681,   11995,   11996,   12021,   12020,   12051,   12052,   12077,   12076
    2682,   11994,   11995,   12020,   12019,   12050,   12051,   12076,   12075
    2683,   11993,   11994,   12019,   12018,   12049,   12050,   12075,   12074
    2684,   11992,   11993,   12018,   12017,   12048,   12049,   12074,   12073
    2685,   11991,   11992,   12017,   12004,   12047,   12048,   12073,   12060
    2686,   11989,   11990,   11999,   12016,   12045,   12046,   12055,   12072
    2687,   11988,   11989,   12016,   12015,   12044,   12045,   12072,   12071
    2688,   11987,   11988,   12015,   12014,   12043,   12044,   12071,   12070
    2689,   11986,   11987,   12014,   12013,   12042,   12043,   12070,   12069
    2690,   11985,   11986,   12013,   12012,   12041,   12042,   12069,   12068
    2691,   11984,   11985,   12012,   12011,   12040,   12041,   12068,   12067
    2692,   11983,   11984,   12011,   12010,   12039,   12040,   12067,   12066
    2693,   11982,   11983,   12010,   12009,   12038,   12039,   12066,   12065
    2694,   11981,   11982,   12009,   11998,   12037,   12038,   12065,   12054
    2695,   11786,   11781,   12002,   12008,   11787,   11782,   12058,   12064
    2696,   11791,   11786,   12008,   12007,   11792,   11787,   12064,   12063
    2697,   11796,   11791,   12007,   12006,   11797,   11792,   12063,   12062
    2698,   11801,   11796,   12006,   12005,   11802,   11797,   12062,   12061
    2699,   11806,   11801,   12005,   12001,   11807,   11802,   12061,   12057
    2700,    5448,    5447,   11991,   12004,    5452,    5451,   12047,   12060
    2701,    5449,    5448,   12004,   12003,    5453,    5452,   12060,   12059
    2702,    5450,    5449,   12003,   12002,    5454,    5453,   12059,   12058
    2703,    5426,    5450,   12002,   11781,    5425,    5454,   12058,   11782
    2704,   11755,   11740,   11806,   12001,   11756,   11741,   11807,   12057
    2705,   11760,   11755,   12001,   12000,   11761,   11756,   12057,   12056
    2706,   11765,   11760,   12000,   11999,   11766,   11761,   12056,   12055
    2707,   11770,   11765,   11999,   11990,   11771,   11766,   12055,   12046
    2708,   11729,   11734,   11981,   11998,   11728,   11733,   12037,   12054
    2709,   11724,   11729,   11998,   11997,   11723,   11728,   12054,   12053
    2710,   11719,   11724,   11997,   11996,   11718,   11723,   12053,   12052
    2711,   11714,   11719,   11996,   11995,   11713,   11718,   12052,   12051
    2712,   11709,   11714,   11995,   11994,   11708,   11713,   12051,   12050
    2713,   11704,   11709,   11994,   11993,   11703,   11708,   12050,   12049
    2714,   11699,   11704,   11993,   11992,   11698,   11703,   12049,   12048
    2715,   11694,   11699,   11992,   11991,   11693,   11698,   12048,   12047
    2716,    5436,   11694,   11991,    5447,    5437,   11693,   12047,    5451
    2717,   11821,   11750,   11770,   11990,   11822,   11749,   11771,   12046
    2718,   11826,   11821,   11990,   11989,   11827,   11822,   12046,   12045
    2719,   11831,   11826,   11989,   11988,   11832,   11827,   12045,   12044
    2720,   11836,   11831,   11988,   11987,   11837,   11832,   12044,   12043
    2721,   11841,   11836,   11987,   11986,   11842,   11837,   12043,   12042
    2722,   11846,   11841,   11986,   11985,   11847,   11842,   12042,   12041
    2723,   11851,   11846,   11985,   11984,   11852,   11847,   12041,   12040
    2724,   11856,   11851,   11984,   11983,   11857,   11852,   12040,   12039
    2725,   11861,   11856,   11983,   11982,   11862,   11857,   12039,   12038
    2726,   11866,   11861,   11982,   11981,   11867,   11862,   12038,   12037
    2727,   11680,   11866,   11981,   11734,   11681,   11867,   12037,   11733
    2728,   12092,   12085,   12086,   12087,   12148,   12141,   12142,   12143
    2729,   12087,   12088,   12091,   12092,   12143,   12144,   12147,   12148
    2730,   12082,   12084,   12091,   12088,   12138,   12140,   12147,   12144
    2731,   12081,   12082,   12088,   12089,   12137,   12138,   12144,   12145
    2732,   12080,   12081,   12089,   12090,   12136,   12137,   12145,   12146
    2733,   12077,   12078,   12085,   12092,   12133,   12134,   12141,   12148
    2734,   12076,   12077,   12092,   12091,   12132,   12133,   12148,   12147
    2735,   12075,   12076,   12091,   12084,   12131,   12132,   12147,   12140
    2736,   12074,   12075,   12084,   12083,   12130,   12131,   12140,   12139
    2737,   12073,   12074,   12083,   12079,   12129,   12130,   12139,   12135
    2738,   12071,   12072,   12080,   12090,   12127,   12128,   12136,   12146
    2739,   12070,   12071,   12090,   12089,   12126,   12127,   12146,   12145
    2740,   12069,   12070,   12089,   12088,   12125,   12126,   12145,   12144
    2741,   12068,   12069,   12088,   12087,   12124,   12125,   12144,   12143
    2742,   12067,   12068,   12087,   12086,   12123,   12124,   12143,   12142
    2743,   12066,   12067,   12086,   12085,   12122,   12123,   12142,   12141
    2744,   12065,   12066,   12085,   12078,   12121,   12122,   12141,   12134
    2745,   12082,   12063,   12083,   12084,   12138,   12119,   12139,   12140
    2746,   12063,   12064,   12079,   12083,   12119,   12120,   12135,   12139
    2747,   12062,   12063,   12082,   12081,   12118,   12119,   12138,   12137
    2748,   12061,   12062,   12081,   12080,   12117,   12118,   12137,   12136
    2749,   12056,   12057,   12061,   12080,   12112,   12113,   12117,   12136
    2750,   12055,   12056,   12080,   12072,   12111,   12112,   12136,   12128
    2751,   12059,   12060,   12073,   12079,   12115,   12116,   12129,   12135
    2752,   12058,   12059,   12079,   12064,   12114,   12115,   12135,   12120
    2753,   12053,   12054,   12065,   12078,   12109,   12110,   12121,   12134
    2754,   12052,   12053,   12078,   12077,   12108,   12109,   12134,   12133
    2755,   12051,   12052,   12077,   12076,   12107,   12108,   12133,   12132
    2756,   12050,   12051,   12076,   12075,   12106,   12107,   12132,   12131
    2757,   12049,   12050,   12075,   12074,   12105,   12106,   12131,   12130
    2758,   12048,   12049,   12074,   12073,   12104,   12105,   12130,   12129
    2759,   12047,   12048,   12073,   12060,   12103,   12104,   12129,   12116
    2760,   12045,   12046,   12055,   12072,   12101,   12102,   12111,   12128
    2761,   12044,   12045,   12072,   12071,   12100,   12101,   12128,   12127
    2762,   12043,   12044,   12071,   12070,   12099,   12100,   12127,   12126
    2763,   12042,   12043,   12070,   12069,   12098,   12099,   12126,   12125
    2764,   12041,   12042,   12069,   12068,   12097,   12098,   12125,   12124
    2765,   12040,   12041,   12068,   12067,   12096,   12097,   12124,   12123
    2766,   12039,   12040,   12067,   12066,   12095,   12096,   12123,   12122
    2767,   12038,   12039,   12066,   12065,   12094,   12095,   12122,   12121
    2768,   12037,   12038,   12065,   12054,   12093,   12094,   12121,   12110
    2769,   11787,   11782,   12058,   12064,   11788,   11783,   12114,   12120
    2770,   11792,   11787,   12064,   12063,   11793,   11788,   12120,   12119
    2771,   11797,   11792,   12063,   12062,   11798,   11793,   12119,   12118
    2772,   11802,   11797,   12062,   12061,   11803,   11798,   12118,   12117
    2773,   11807,   11802,   12061,   12057,   11808,   11803,   12117,   12113
    2774,    5452,    5451,   12047,   12060,    5456,    5455,   12103,   12116
    2775,    5453,    5452,   12060,   12059,    5457,    5456,   12116,   12115
    2776,    5454,    5453,   12059,   12058,    5458,    5457,   12115,   12114
    2777,    5425,    5454,   12058,   11782,    5424,    5458,   12114,   11783
    2778,   11756,   11741,   11807,   12057,   11757,   11742,   11808,   12113
    2779,   11761,   11756,   12057,   12056,   11762,   11757,   12113,   12112
    2780,   11766,   11761,   12056,   12055,   11767,   11762,   12112,   12111
    2781,   11771,   11766,   12055,   12046,   11772,   11767,   12111,   12102
    2782,   11728,   11733,   12037,   12054,   11727,   11732,   12093,   12110
    2783,   11723,   11728,   12054,   12053,   11722,   11727,   12110,   12109
    2784,   11718,   11723,   12053,   12052,   11717,   11722,   12109,   12108
    2785,   11713,   11718,   12052,   12051,   11712,   11717,   12108,   12107
    2786,   11708,   11713,   12051,   12050,   11707,   11712,   12107,   12106
    2787,   11703,   11708,   12050,   12049,   11702,   11707,   12106,   12105
    2788,   11698,   11703,   12049,   12048,   11697,   11702,   12105,   12104
    2789,   11693,   11698,   12048,   12047,   11692,   11697,   12104,   12103
    2790,    5437,   11693,   12047,    5451,    5438,   11692,   12103,    5455
    2791,   11822,   11749,   11771,   12046,   11823,   11748,   11772,   12102
    2792,   11827,   11822,   12046,   12045,   11828,   11823,   12102,   12101
    2793,   11832,   11827,   12045,   12044,   11833,   11828,   12101,   12100
    2794,   11837,   11832,   12044,   12043,   11838,   11833,   12100,   12099
    2795,   11842,   11837,   12043,   12042,   11843,   11838,   12099,   12098
    2796,   11847,   11842,   12042,   12041,   11848,   11843,   12098,   12097
    2797,   11852,   11847,   12041,   12040,   11853,   11848,   12097,   12096
    2798,   11857,   11852,   12040,   12039,   11858,   11853,   12096,   12095
    2799,   11862,   11857,   12039,   12038,   11863,   11858,   12095,   12094
    2800,   11867,   11862,   12038,   12037,   11868,   11863,   12094,   12093
    2801,   11681,   11867,   12037,   11733,   11682,   11868,   12093,   11732
    2802,   12148,   12141,   12142,   12143,   12204,   12197,   12198,   12199
    2803,   12143,   12144,   12147,   12148,   12199,   12200,   12203,   12204
    2804,   12138,   12140,   12147,   12144,   12194,   12196,   12203,   12200
    2805,   12137,   12138,   12144,   12145,   12193,   12194,   12200,   12201
    2806,   12136,   12137,   12145,   12146,   12192,   12193,   12201,   12202
    2807,   12133,   12134,   12141,   12148,   12189,   12190,   12197,   12204
    2808,   12132,   12133,   12148,   12147,   12188,   12189,   12204,   12203
    2809,   12131,   12132,   12147,   12140,   12187,   12188,   12203,   12196
    2810,   12130,   12131,   12140,   12139,   12186,   12187,   12196,   12195
    2811,   12129,   12130,   12139,   12135,   12185,   12186,   12195,   12191
    2812,   12127,   12128,   12136,   12146,   12183,   12184,   12192,   12202
    2813,   12126,   12127,   12146,   12145,   12182,   12183,   12202,   12201
    2814,   12125,   12126,   12145,   12144,   12181,   12182,   12201,   12200
    2815,   12124,   12125,   12144,   12143,   12180,   12181,   12200,   12199
    2816,   12123,   12124,   12143,   12142,   12179,   12180,   12199,   12198
    2817,   12122,   12123,   12142,   12141,   12178,   12179,   12198,   12197
    2818,   12121,   12122,   12141,   12134,   12177,   12178,   12197,   12190
    2819,   12138,   12119,   12139,   12140,   12194,   12175,   12195,   12196
    2820,   12119,   12120,   12135,   12139,   12175,   12176,   12191,   12195
    2821,   12118,   12119,   12138,   12137,   12174,   12175,   12194,   12193
    2822,   12117,   12118,   12137,   12136,   12173,   12174,   12193,   12192
    2823,   12112,   12113,   12117,   12136,   12168,   12169,   12173,   12192
    2824,   12111,   12112,   12136,   12128,   12167,   12168,   12192,   12184
    2825,   12115,   12116,   12129,   12135,   12171,   12172,   12185,   12191
    2826,   12114,   12115,   12135,   12120,   12170,   12171,   12191,   12176
    2827,   12109,   12110,   12121,   12134,   12165,   12166,   12177,   12190
    2828,   12108,   12109,   12134,   12133,   12164,   12165,   12190,   12189
    2829,   12107,   12108,   12133,   12132,   12163,   12164,   12189,   12188
    2830,   12106,   12107,   12132,   12131,   12162,   12163,   12188,   12187
    2831,   12105,   12106,   12131,   12130,   12161,   12162,   12187,   12186
    2832,   12104,   12105,   12130,   12129,   12160,   12161,   12186,   12185
    2833,   12103,   12104,   12129,   12116,   12159,   12160,   12185,   12172
    2834,   12101,   12102,   12111,   12128,   12157,   12158,   12167,   12184
    2835,   12100,   12101,   12128,   12127,   12156,   12157,   12184,   12183
    2836,   12099,   12100,   12127,   12126,   12155,   12156,   12183,   12182
    2837,   12098,   12099,   12126,   12125,   12154,   12155,   12182,   12181
    2838,   12097,   12098,   12125,   12124,   12153,   12154,   12181,   12180
    2839,   12096,   12097,   12124,   12123,   12152,   12153,   12180,   12179
    2840,   12095,   12096,   12123,   12122,   12151,   12152,   12179,   12178
    2841,   12094,   12095,   12122,   12121,   12150,   12151,   12178,   12177
    2842,   12093,   12094,   12121,   12110,   12149,   12150,   12177,   12166
    2843,   11788,   11783,   12114,   12120,   11777,   11778,   12170,   12176
    2844,   11793,   11788,   12120,   12119,   11776,   11777,   12176,   12175
    2845,   11798,   11793,   12119,   12118,   11775,   11776,   12175,   12174
    2846,   11803,   11798,   12118,   12117,   11774,   11775,   12174,   12173
    2847,   11808,   11803,   12117,   12113,   11773,   11774,   12173,   12169
    2848,    5456,    5455,   12103,   12116,    5431,    5430,   12159,   12172
    2849,    5457,    5456,   12116,   12115,    5432,    5431,   12172,   12171
    2850,    5458,    5457,   12115,   12114,    5433,    5432,   12171,   12170
    2851,    5424,    5458,   12114,   11783,    5423,    5433,   12170,   11778
    2852,   11757,   11742,   11808,   12113,   11744,   11737,   11773,   12169
    2853,   11762,   11757,   12113,   12112,   11745,   11744,   12169,   12168
    2854,   11767,   11762,   12112,   12111,   11746,   11745,   12168,   12167
    2855,   11772,   11767,   12111,   12102,   11747,   11746,   12167,   12158
    2856,   11727,   11732,   12093,   12110,   11684,   11683,   12149,   12166
    2857,   11722,   11727,   12110,   12109,   11685,   11684,   12166,   12165
    2858,   11717,   11722,   12109,   12108,   11686,   11685,   12165,   12164
    2859,   11712,   11717,   12108,   12107,   11687,   11686,   12164,   12163
    2860,   11707,   11712,   12107,   12106,   11688,   11687,   12163,   12162
    2861,   11702,   11707,   12106,   12105,   11689,   11688,   12162,   12161
    2862,   11697,   11702,   12105,   12104,   11690,   11689,   12161,   12160
    2863,   11692,   11697,   12104,   12103,   11691,   11690,   12160,   12159
    2864,    5438,   11692,   12103,    5455,    5429,   11691,   12159,    5430
    2865,   11823,   11748,   11772,   12102,   11809,   11743,   11747,   12158
    2866,   11828,   11823,   12102,   12101,   11810,   11809,   12158,   12157
    2867,   11833,   11828,   12101,   12100,   11811,   11810,   12157,   12156
    2868,   11838,   11833,   12100,   12099,   11812,   11811,   12156,   12155
    2869,   11843,   11838,   12099,   12098,   11813,   11812,   12155,   12154
    2870,   11848,   11843,   12098,   12097,   11814,   11813,   12154,   12153
    2871,   11853,   11848,   12097,   12096,   11815,   11814,   12153,   12152
    2872,   11858,   11853,   12096,   12095,   11816,   11815,   12152,   12151
    2873,   11863,   11858,   12095,   12094,   11817,   11816,   12151,   12150
    2874,   11868,   11863,   12094,   12093,   11818,   11817,   12150,   12149
    2875,   11682,   11868,   12093,   11732,   11677,   11818,   12149,   11683
    2876,   11610,   18501,   18544,   12237,   11615,   18537,   18592,   12270
    2877,   18501,   18500,   18546,   18544,   18537,   18536,   18593,   18592
    2878,   18500,   18499,   18548,   18546,   18536,   18535,   18594,   18593
    2879,   18499,   18498,   18550,   18548,   18535,   18534,   18595,   18594
    2880,   18498,   18497,   18552,   18550,   18534,   18533,   18596,   18595
    2881,   18497,   18496,   18554,   18552,   18533,   18532,   18597,   18596
    2882,   18496,   10922,   10930,   18554,   18532,   10928,   10942,   18597
    2883,   12237,   18544,   18545,   12236,   12270,   18592,   18598,   12269
    2884,   18544,   18546,   18547,   18545,   18592,   18593,   18599,   18598
    2885,   18546,   18548,   18549,   18547,   18593,   18594,   18600,   18599
    2886,   18548,   18550,   18551,   18549,   18594,   18595,   18601,   18600
    2887,   18550,   18552,   18553,   18551,   18595,   18596,   18602,   18601
    2888,   18552,   18554,   18555,   18553,   18596,   18597,   18603,   18602
    2889,   18554,   10930,   10929,   18555,   18597,   10942,   10941,   18603
    2890,   12236,   18545,   18538,   12235,   12269,   18598,   18586,   12258
    2891,   18545,   18547,   18539,   18538,   18598,   18599,   18587,   18586
    2892,   18547,   18549,   18540,   18539,   18599,   18600,   18588,   18587
    2893,   18549,   18551,   18541,   18540,   18600,   18601,   18589,   18588
    2894,   18551,   18553,   18542,   18541,   18601,   18602,   18590,   18589
    2895,   18553,   18555,   18543,   18542,   18602,   18603,   18591,   18590
    2896,   18555,   10929,   10899,   18543,   18603,   10941,   10900,   18591
    2897,   11615,   18537,   18592,   12270,   11616,   18531,   18604,   12268
    2898,   18537,   18536,   18593,   18592,   18531,   18530,   18605,   18604
    2899,   18536,   18535,   18594,   18593,   18530,   18529,   18606,   18605
    2900,   18535,   18534,   18595,   18594,   18529,   18528,   18607,   18606
    2901,   18534,   18533,   18596,   18595,   18528,   18527,   18608,   18607
    2902,   18533,   18532,   18597,   18596,   18527,   18526,   18609,   18608
    2903,   18532,   10928,   10942,   18597,   18526,   10927,   10940,   18609
    2904,   12270,   18592,   18598,   12269,   12268,   18604,   18610,   12267
    2905,   18592,   18593,   18599,   18598,   18604,   18605,   18611,   18610
    2906,   18593,   18594,   18600,   18599,   18605,   18606,   18612,   18611
    2907,   18594,   18595,   18601,   18600,   18606,   18607,   18613,   18612
    2908,   18595,   18596,   18602,   18601,   18607,   18608,   18614,   18613
    2909,   18596,   18597,   18603,   18602,   18608,   18609,   18615,   18614
    2910,   18597,   10942,   10941,   18603,   18609,   10940,   10939,   18615
    2911,   12269,   18598,   18586,   12258,   12267,   18610,   18580,   12257
    2912,   18598,   18599,   18587,   18586,   18610,   18611,   18581,   18580
    2913,   18599,   18600,   18588,   18587,   18611,   18612,   18582,   18581
    2914,   18600,   18601,   18589,   18588,   18612,   18613,   18583,   18582
    2915,   18601,   18602,   18590,   18589,   18613,   18614,   18584,   18583
    2916,   18602,   18603,   18591,   18590,   18614,   18615,   18585,   18584
    2917,   18603,   10941,   10900,   18591,   18615,   10939,   10901,   18585
    2918,   11616,   18531,   18604,   12268,   11617,   18525,   18616,   12266
    2919,   18531,   18530,   18605,   18604,   18525,   18524,   18617,   18616
    2920,   18530,   18529,   18606,   18605,   18524,   18523,   18618,   18617
    2921,   18529,   18528,   18607,   18606,   18523,   18522,   18619,   18618
    2922,   18528,   18527,   18608,   18607,   18522,   18521,   18620,   18619
    2923,   18527,   18526,   18609,   18608,   18521,   18520,   18621,   18620
    2924,   18526,   10927,   10940,   18609,   18520,   10926,   10938,   18621
    2925,   12268,   18604,   18610,   12267,   12266,   18616,   18622,   12265
    2926,   18604,   18605,   18611,   18610,   18616,   18617,   18623,   18622
    2927,   18605,   18606,   18612,   18611,   18617,   18618,   18624,   18623
    2928,   18606,   18607,   18613,   18612,   18618,   18619,   18625,   18624
    2929,   18607,   18608,   18614,   18613,   18619,   18620,   18626,   18625
    2930,   18608,   18609,   18615,   18614,   18620,   18621,   18627,   18626
    2931,   18609,   10940,   10939,   18615,   18621,   10938,   10937,   18627
    2932,   12267,   18610,   18580,   12257,   12265,   18622,   18574,   12256
    2933,   18610,   18611,   18581,   18580,   18622,   18623,   18575,   18574
    2934,   18611,   18612,   18582,   18581,   18623,   18624,   18576,   18575
    2935,   18612,   18613,   18583,   18582,   18624,   18625,   18577,   18576
    2936,   18613,   18614,   18584,   18583,   18625,   18626,   18578,   18577
    2937,   18614,   18615,   18585,   18584,   18626,   18627,   18579,   18578
    2938,   18615,   10939,   10901,   18585,   18627,   10937,   10902,   18579
    2939,   11617,   18525,   18616,   12266,   11618,   18519,   18628,   12264
    2940,   18525,   18524,   18617,   18616,   18519,   18518,   18629,   18628
    2941,   18524,   18523,   18618,   18617,   18518,   18517,   18630,   18629
    2942,   18523,   18522,   18619,   18618,   18517,   18516,   18631,   18630
    2943,   18522,   18521,   18620,   18619,   18516,   18515,   18632,   18631
    2944,   18521,   18520,   18621,   18620,   18515,   18514,   18633,   18632
    2945,   18520,   10926,   10938,   18621,   18514,   10925,   10936,   18633
    2946,   12266,   18616,   18622,   12265,   12264,   18628,   18634,   12263
    2947,   18616,   18617,   18623,   18622,   18628,   18629,   18635,   18634
    2948,   18617,   18618,   18624,   18623,   18629,   18630,   18636,   18635
    2949,   18618,   18619,   18625,   18624,   18630,   18631,   18637,   18636
    2950,   18619,   18620,   18626,   18625,   18631,   18632,   18638,   18637
    2951,   18620,   18621,   18627,   18626,   18632,   18633,   18639,   18638
    2952,   18621,   10938,   10937,   18627,   18633,   10936,   10935,   18639
    2953,   12265,   18622,   18574,   12256,   12263,   18634,   18568,   12255
    2954,   18622,   18623,   18575,   18574,   18634,   18635,   18569,   18568
    2955,   18623,   18624,   18576,   18575,   18635,   18636,   18570,   18569
    2956,   18624,   18625,   18577,   18576,   18636,   18637,   18571,   18570
    2957,   18625,   18626,   18578,   18577,   18637,   18638,   18572,   18571
    2958,   18626,   18627,   18579,   18578,   18638,   18639,   18573,   18572
    2959,   18627,   10937,   10902,   18579,   18639,   10935,   10903,   18573
    2960,   11618,   18519,   18628,   12264,   11619,   18513,   18640,   12262
    2961,   18519,   18518,   18629,   18628,   18513,   18512,   18641,   18640
    2962,   18518,   18517,   18630,   18629,   18512,   18511,   18642,   18641
    2963,   18517,   18516,   18631,   18630,   18511,   18510,   18643,   18642
    2964,   18516,   18515,   18632,   18631,   18510,   18509,   18644,   18643
    2965,   18515,   18514,   18633,   18632,   18509,   18508,   18645,   18644
    2966,   18514,   10925,   10936,   18633,   18508,   10924,   10934,   18645
    2967,   12264,   18628,   18634,   12263,   12262,   18640,   18646,   12261
    2968,   18628,   18629,   18635,   18634,   18640,   18641,   18647,   18646
    2969,   18629,   18630,   18636,   18635,   18641,   18642,   18648,   18647
    2970,   18630,   18631,   18637,   18636,   18642,   18643,   18649,   18648
    2971,   18631,   18632,   18638,   18637,   18643,   18644,   18650,   18649
    2972,   18632,   18633,   18639,   18638,   18644,   18645,   18651,   18650
    2973,   18633,   10936,   10935,   18639,   18645,   10934,   10933,   18651
    2974,   12263,   18634,   18568,   12255,   12261,   18646,   18562,   12254
    2975,   18634,   18635,   18569,   18568,   18646,   18647,   18563,   18562
    2976,   18635,   18636,   18570,   18569,   18647,   18648,   18564,   18563
    2977,   18636,   18637,   18571,   18570,   18648,   18649,   18565,   18564
    2978,   18637,   18638,   18572,   18571,   18649,   18650,   18566,   18565
    2979,   18638,   18639,   18573,   18572,   18650,   18651,   18567,   18566
    2980,   18639,   10935,   10903,   18573,   18651,   10933,   10904,   18567
    2981,   11619,   18513,   18640,   12262,   11620,   18507,   18652,   12260
    2982,   18513,   18512,   18641,   18640,   18507,   18506,   18653,   18652
    2983,   18512,   18511,   18642,   18641,   18506,   18505,   18654,   18653
    2984,   18511,   18510,   18643,   18642,   18505,   18504,   18655,   18654
    2985,   18510,   18509,   18644,   18643,   18504,   18503,   18656,   18655
    2986,   18509,   18508,   18645,   18644,   18503,   18502,   18657,   18656
    2987,   18508,   10924,   10934,   18645,   18502,   10923,   10932,   18657
    2988,   12262,   18640,   18646,   12261,   12260,   18652,   18658,   12259
    2989,   18640,   18641,   18647,   18646,   18652,   18653,   18659,   18658
    2990,   18641,   18642,   18648,   18647,   18653,   18654,   18660,   18659
    2991,   18642,   18643,   18649,   18648,   18654,   18655,   18661,   18660
    2992,   18643,   18644,   18650,   18649,   18655,   18656,   18662,   18661
    2993,   18644,   18645,   18651,   18650,   18656,   18657,   18663,   18662
    2994,   18645,   10934,   10933,   18651,   18657,   10932,   10931,   18663
    2995,   12261,   18646,   18562,   12254,   12259,   18658,   18556,   12253
    2996,   18646,   18647,   18563,   18562,   18658,   18659,   18557,   18556
    2997,   18647,   18648,   18564,   18563,   18659,   18660,   18558,   18557
    2998,   18648,   18649,   18565,   18564,   18660,   18661,   18559,   18558
    2999,   18649,   18650,   18566,   18565,   18661,   18662,   18560,   18559
    3000,   18650,   18651,   18567,   18566,   18662,   18663,   18561,   18560
    3001,   18651,   10933,   10904,   18567,   18663,   10931,   10905,   18561
    3002,   11620,   18507,   18652,   12260,    5330,   15629,   15646,    5993
    3003,   18507,   18506,   18653,   18652,   15629,   15630,   15645,   15646
    3004,   18506,   18505,   18654,   18653,   15630,   15631,   15644,   15645
    3005,   18505,   18504,   18655,   18654,   15631,   15632,   15643,   15644
    3006,   18504,   18503,   18656,   18655,   15632,   15633,   15642,   15643
    3007,   18503,   18502,   18657,   18656,   15633,   15634,   15641,   15642
    3008,   18502,   10923,   10932,   18657,   15634,    4517,    4518,   15641
    3009,   12260,   18652,   18658,   12259,    5993,   15646,   15652,    5994
    3010,   18652,   18653,   18659,   18658,   15646,   15645,   15651,   15652
    3011,   18653,   18654,   18660,   18659,   15645,   15644,   15650,   15651
    3012,   18654,   18655,   18661,   18660,   15644,   15643,   15649,   15650
    3013,   18655,   18656,   18662,   18661,   15643,   15642,   15648,   15649
    3014,   18656,   18657,   18663,   18662,   15642,   15641,   15647,   15648
    3015,   18657,   10932,   10931,   18663,   15641,    4518,    4519,   15647
    3016,   12259,   18658,   18556,   12253,    5994,   15652,   15640,    5987
    3017,   18658,   18659,   18557,   18556,   15652,   15651,   15639,   15640
    3018,   18659,   18660,   18558,   18557,   15651,   15650,   15638,   15639
    3019,   18660,   18661,   18559,   18558,   15650,   15649,   15637,   15638
    3020,   18661,   18662,   18560,   18559,   15649,   15648,   15636,   15637
    3021,   18662,   18663,   18561,   18560,   15648,   15647,   15635,   15636
    3022,   18663,   10931,   10905,   18561,   15647,    4519,    4489,   15635
    3023,   11737,   18669,   18706,   11742,   11773,   18705,   18736,   11808
    3024,   18669,   18668,   18711,   18706,   18705,   18704,   18737,   18736
    3025,   18668,   18667,   18716,   18711,   18704,   18703,   18738,   18737
    3026,   18667,   18666,   18721,   18716,   18703,   18702,   18739,   18738
    3027,   18666,   18665,   18726,   18721,   18702,   18701,   18740,   18739
    3028,   18665,   18664,   18731,   18726,   18701,   18700,   18741,   18740
    3029,   18664,   10943,   10954,   18731,   18700,   10944,   10984,   18741
    3030,   11742,   18706,   18707,   11741,   11808,   18736,   18742,   11807
    3031,   18706,   18711,   18712,   18707,   18736,   18737,   18743,   18742
    3032,   18711,   18716,   18717,   18712,   18737,   18738,   18744,   18743
    3033,   18716,   18721,   18722,   18717,   18738,   18739,   18745,   18744
    3034,   18721,   18726,   18727,   18722,   18739,   18740,   18746,   18745
    3035,   18726,   18731,   18732,   18727,   18740,   18741,   18747,   18746
    3036,   18731,   10954,   10953,   18732,   18741,   10984,   10983,   18747
    3037,   11741,   18707,   18708,   11740,   11807,   18742,   18748,   11806
    3038,   18707,   18712,   18713,   18708,   18742,   18743,   18749,   18748
    3039,   18712,   18717,   18718,   18713,   18743,   18744,   18750,   18749
    3040,   18717,   18722,   18723,   18718,   18744,   18745,   18751,   18750
    3041,   18722,   18727,   18728,   18723,   18745,   18746,   18752,   18751
    3042,   18727,   18732,   18733,   18728,   18746,   18747,   18753,   18752
    3043,   18732,   10953,   10952,   18733,   18747,   10983,   10982,   18753
    3044,   11740,   18708,   18709,   11739,   11806,   18748,   18754,   11805
    3045,   18708,   18713,   18714,   18709,   18748,   18749,   18755,   18754
    3046,   18713,   18718,   18719,   18714,   18749,   18750,   18756,   18755
    3047,   18718,   18723,   18724,   18719,   18750,   18751,   18757,   18756
    3048,   18723,   18728,   18729,   18724,   18751,   18752,   18758,   18757
    3049,   18728,   18733,   18734,   18729,   18752,   18753,   18759,   18758
    3050,   18733,   10952,   10951,   18734,   18753,   10982,   10981,   18759
    3051,   11739,   18709,   18710,   11738,   11805,   18754,   18760,   11804
    3052,   18709,   18714,   18715,   18710,   18754,   18755,   18761,   18760
    3053,   18714,   18719,   18720,   18715,   18755,   18756,   18762,   18761
    3054,   18719,   18724,   18725,   18720,   18756,   18757,   18763,   18762
    3055,   18724,   18729,   18730,   18725,   18757,   18758,   18764,   18763
    3056,   18729,   18734,   18735,   18730,   18758,   18759,   18765,   18764
    3057,   18734,   10951,   10950,   18735,   18759,   10981,   10980,   18765
    3058,   11738,   18710,   18501,   11610,   11804,   18760,   18537,   11615
    3059,   18710,   18715,   18500,   18501,   18760,   18761,   18536,   18537
    3060,   18715,   18720,   18499,   18500,   18761,   18762,   18535,   18536
    3061,   18720,   18725,   18498,   18499,   18762,   18763,   18534,   18535
    3062,   18725,   18730,   18497,   18498,   18763,   18764,   18533,   18534
    3063,   18730,   18735,   18496,   18497,   18764,   18765,   18532,   18533
    3064,   18735,   10950,   10922,   18496,   18765,   10980,   10928,   18532
    3065,   11773,   18705,   18736,   11808,   11774,   18699,   18766,   11803
    3066,   18705,   18704,   18737,   18736,   18699,   18698,   18767,   18766
    3067,   18704,   18703,   18738,   18737,   18698,   18697,   18768,   18767
    3068,   18703,   18702,   18739,   18738,   18697,   18696,   18769,   18768
    3069,   18702,   18701,   18740,   18739,   18696,   18695,   18770,   18769
    3070,   18701,   18700,   18741,   18740,   18695,   18694,   18771,   18770
    3071,   18700,   10944,   10984,   18741,   18694,   10945,   10979,   18771
    3072,   11808,   18736,   18742,   11807,   11803,   18766,   18772,   11802
    3073,   18736,   18737,   18743,   18742,   18766,   18767,   18773,   18772
    3074,   18737,   18738,   18744,   18743,   18767,   18768,   18774,   18773
    3075,   18738,   18739,   18745,   18744,   18768,   18769,   18775,   18774
    3076,   18739,   18740,   18746,   18745,   18769,   18770,   18776,   18775
    3077,   18740,   18741,   18747,   18746,   18770,   18771,   18777,   18776
    3078,   18741,   10984,   10983,   18747,   18771,   10979,   10978,   18777
    3079,   11807,   18742,   18748,   11806,   11802,   18772,   18778,   11801
    3080,   18742,   18743,   18749,   18748,   18772,   18773,   18779,   18778
    3081,   18743,   18744,   18750,   18749,   18773,   18774,   18780,   18779
    3082,   18744,   18745,   18751,   18750,   18774,   18775,   18781,   18780
    3083,   18745,   18746,   18752,   18751,   18775,   18776,   18782,   18781
    3084,   18746,   18747,   18753,   18752,   18776,   18777,   18783,   18782
    3085,   18747,   10983,   10982,   18753,   18777,   10978,   10977,   18783
    3086,   11806,   18748,   18754,   11805,   11801,   18778,   18784,   11800
    3087,   18748,   18749,   18755,   18754,   18778,   18779,   18785,   18784
    3088,   18749,   18750,   18756,   18755,   18779,   18780,   18786,   18785
    3089,   18750,   18751,   18757,   18756,   18780,   18781,   18787,   18786
    3090,   18751,   18752,   18758,   18757,   18781,   18782,   18788,   18787
    3091,   18752,   18753,   18759,   18758,   18782,   18783,   18789,   18788
    3092,   18753,   10982,   10981,   18759,   18783,   10977,   10976,   18789
    3093,   11805,   18754,   18760,   11804,   11800,   18784,   18790,   11799
    3094,   18754,   18755,   18761,   18760,   18784,   18785,   18791,   18790
    3095,   18755,   18756,   18762,   18761,   18785,   18786,   18792,   18791
    3096,   18756,   18757,   18763,   18762,   18786,   18787,   18793,   18792
    3097,   18757,   18758,   18764,   18763,   18787,   18788,   18794,   18793
    3098,   18758,   18759,   18765,   18764,   18788,   18789,   18795,   18794
    3099,   18759,   10981,   10980,   18765,   18789,   10976,   10975,   18795
    3100,   11804,   18760,   18537,   11615,   11799,   18790,   18531,   11616
    3101,   18760,   18761,   18536,   18537,   18790,   18791,   18530,   18531
    3102,   18761,   18762,   18535,   18536,   18791,   18792,   18529,   18530
    3103,   18762,   18763,   18534,   18535,   18792,   18793,   18528,   18529
    3104,   18763,   18764,   18533,   18534,   18793,   18794,   18527,   18528
    3105,   18764,   18765,   18532,   18533,   18794,   18795,   18526,   18527
    3106,   18765,   10980,   10928,   18532,   18795,   10975,   10927,   18526
    3107,   11774,   18699,   18766,   11803,   11775,   18693,   18796,   11798
    3108,   18699,   18698,   18767,   18766,   18693,   18692,   18797,   18796
    3109,   18698,   18697,   18768,   18767,   18692,   18691,   18798,   18797
    3110,   18697,   18696,   18769,   18768,   18691,   18690,   18799,   18798
    3111,   18696,   18695,   18770,   18769,   18690,   18689,   18800,   18799
    3112,   18695,   18694,   18771,   18770,   18689,   18688,   18801,   18800
    3113,   18694,   10945,   10979,   18771,   18688,   10946,   10974,   18801
    3114,   11803,   18766,   18772,   11802,   11798,   18796,   18802,   11797
    3115,   18766,   18767,   18773,   18772,   18796,   18797,   18803,   18802
    3116,   18767,   18768,   18774,   18773,   18797,   18798,   18804,   18803
    3117,   18768,   18769,   18775,   18774,   18798,   18799,   18805,   18804
    3118,   18769,   18770,   18776,   18775,   18799,   18800,   18806,   18805
    3119,   18770,   18771,   18777,   18776,   18800,   18801,   18807,   18806
    3120,   18771,   10979,   10978,   18777,   18801,   10974,   10973,   18807
    3121,   11802,   18772,   18778,   11801,   11797,   18802,   18808,   11796
    3122,   18772,   18773,   18779,   18778,   18802,   18803,   18809,   18808
    3123,   18773,   18774,   18780,   18779,   18803,   18804,   18810,   18809
    3124,   18774,   18775,   18781,   18780,   18804,   18805,   18811,   18810
    3125,   18775,   18776,   18782,   18781,   18805,   18806,   18812,   18811
    3126,   18776,   18777,   18783,   18782,   18806,   18807,   18813,   18812
    3127,   18777,   10978,   10977,   18783,   18807,   10973,   10972,   18813
    3128,   11801,   18778,   18784,   11800,   11796,   18808,   18814,   11795
    3129,   18778,   18779,   18785,   18784,   18808,   18809,   18815,   18814
    3130,   18779,   18780,   18786,   18785,   18809,   18810,   18816,   18815
    3131,   18780,   18781,   18787,   18786,   18810,   18811,   18817,   18816
    3132,   18781,   18782,   18788,   18787,   18811,   18812,   18818,   18817
    3133,   18782,   18783,   18789,   18788,   18812,   18813,   18819,   18818
    3134,   18783,   10977,   10976,   18789,   18813,   10972,   10971,   18819
    3135,   11800,   18784,   18790,   11799,   11795,   18814,   18820,   11794
    3136,   18784,   18785,   18791,   18790,   18814,   18815,   18821,   18820
    3137,   18785,   18786,   18792,   18791,   18815,   18816,   18822,   18821
    3138,   18786,   18787,   18793,   18792,   18816,   18817,   18823,   18822
    3139,   18787,   18788,   18794,   18793,   18817,   18818,   18824,   18823
    3140,   18788,   18789,   18795,   18794,   18818,   18819,   18825,   18824
    3141,   18789,   10976,   10975,   18795,   18819,   10971,   10970,   18825
    3142,   11799,   18790,   18531,   11616,   11794,   18820,   18525,   11617
    3143,   18790,   18791,   18530,   18531,   18820,   18821,   18524,   18525
    3144,   18791,   18792,   18529,   18530,   18821,   18822,   18523,   18524
    3145,   18792,   18793,   18528,   18529,   18822,   18823,   18522,   18523
    3146,   18793,   18794,   18527,   18528,   18823,   18824,   18521,   18522
    3147,   18794,   18795,   18526,   18527,   18824,   18825,   18520,   18521
    3148,   18795,   10975,   10927,   18526,   18825,   10970,   10926,   18520
    3149,   11775,   18693,   18796,   11798,   11776,   18687,   18826,   11793
    3150,   18693,   18692,   18797,   18796,   18687,   18686,   18827,   18826
    3151,   18692,   18691,   18798,   18797,   18686,   18685,   18828,   18827
    3152,   18691,   18690,   18799,   18798,   18685,   18684,   18829,   18828
    3153,   18690,   18689,   18800,   18799,   18684,   18683,   18830,   18829
    3154,   18689,   18688,   18801,   18800,   18683,   18682,   18831,   18830
    3155,   18688,   10946,   10974,   18801,   18682,   10947,   10969,   18831
    3156,   11798,   18796,   18802,   11797,   11793,   18826,   18832,   11792
    3157,   18796,   18797,   18803,   18802,   18826,   18827,   18833,   18832
    3158,   18797,   18798,   18804,   18803,   18827,   18828,   18834,   18833
    3159,   18798,   18799,   18805,   18804,   18828,   18829,   18835,   18834
    3160,   18799,   18800,   18806,   18805,   18829,   18830,   18836,   18835
    3161,   18800,   18801,   18807,   18806,   18830,   18831,   18837,   18836
    3162,   18801,   10974,   10973,   18807,   18831,   10969,   10968,   18837
    3163,   11797,   18802,   18808,   11796,   11792,   18832,   18838,   11791
    3164,   18802,   18803,   18809,   18808,   18832,   18833,   18839,   18838
    3165,   18803,   18804,   18810,   18809,   18833,   18834,   18840,   18839
    3166,   18804,   18805,   18811,   18810,   18834,   18835,   18841,   18840
    3167,   18805,   18806,   18812,   18811,   18835,   18836,   18842,   18841
    3168,   18806,   18807,   18813,   18812,   18836,   18837,   18843,   18842
    3169,   18807,   10973,   10972,   18813,   18837,   10968,   10967,   18843
    3170,   11796,   18808,   18814,   11795,   11791,   18838,   18844,   11790
    3171,   18808,   18809,   18815,   18814,   18838,   18839,   18845,   18844
    3172,   18809,   18810,   18816,   18815,   18839,   18840,   18846,   18845
    3173,   18810,   18811,   18817,   18816,   18840,   18841,   18847,   18846
    3174,   18811,   18812,   18818,   18817,   18841,   18842,   18848,   18847
    3175,   18812,   18813,   18819,   18818,   18842,   18843,   18849,   18848
    3176,   18813,   10972,   10971,   18819,   18843,   10967,   10966,   18849
    3177,   11795,   18814,   18820,   11794,   11790,   18844,   18850,   11789
    3178,   18814,   18815,   18821,   18820,   18844,   18845,   18851,   18850
    3179,   18815,   18816,   18822,   18821,   18845,   18846,   18852,   18851
    3180,   18816,   18817,   18823,   18822,   18846,   18847,   18853,   18852
    3181,   18817,   18818,   18824,   18823,   18847,   18848,   18854,   18853
    3182,   18818,   18819,   18825,   18824,   18848,   18849,   18855,   18854
    3183,   18819,   10971,   10970,   18825,   18849,   10966,   10965,   18855
    3184,   11794,   18820,   18525,   11617,   11789,   18850,   18519,   11618
    3185,   18820,   18821,   18524,   18525,   18850,   18851,   18518,   18519
    3186,   18821,   18822,   18523,   18524,   18851,   18852,   18517,   18518
    3187,   18822,   18823,   18522,   18523,   18852,   18853,   18516,   18517
    3188,   18823,   18824,   18521,   18522,   18853,   18854,   18515,   18516
    3189,   18824,   18825,   18520,   18521,   18854,   18855,   18514,   18515
    3190,   18825,   10970,   10926,   18520,   18855,   10965,   10925,   18514
    3191,   11776,   18687,   18826,   11793,   11777,   18681,   18856,   11788
    3192,   18687,   18686,   18827,   18826,   18681,   18680,   18857,   18856
    3193,   18686,   18685,   18828,   18827,   18680,   18679,   18858,   18857
    3194,   18685,   18684,   18829,   18828,   18679,   18678,   18859,   18858
    3195,   18684,   18683,   18830,   18829,   18678,   18677,   18860,   18859
    3196,   18683,   18682,   18831,   18830,   18677,   18676,   18861,   18860
    3197,   18682,   10947,   10969,   18831,   18676,   10948,   10964,   18861
    3198,   11793,   18826,   18832,   11792,   11788,   18856,   18862,   11787
    3199,   18826,   18827,   18833,   18832,   18856,   18857,   18863,   18862
    3200,   18827,   18828,   18834,   18833,   18857,   18858,   18864,   18863
    3201,   18828,   18829,   18835,   18834,   18858,   18859,   18865,   18864
    3202,   18829,   18830,   18836,   18835,   18859,   18860,   18866,   18865
    3203,   18830,   18831,   18837,   18836,   18860,   18861,   18867,   18866
    3204,   18831,   10969,   10968,   18837,   18861,   10964,   10963,   18867
    3205,   11792,   18832,   18838,   11791,   11787,   18862,   18868,   11786
    3206,   18832,   18833,   18839,   18838,   18862,   18863,   18869,   18868
    3207,   18833,   18834,   18840,   18839,   18863,   18864,   18870,   18869
    3208,   18834,   18835,   18841,   18840,   18864,   18865,   18871,   18870
    3209,   18835,   18836,   18842,   18841,   18865,   18866,   18872,   18871
    3210,   18836,   18837,   18843,   18842,   18866,   18867,   18873,   18872
    3211,   18837,   10968,   10967,   18843,   18867,   10963,   10962,   18873
    3212,   11791,   18838,   18844,   11790,   11786,   18868,   18874,   11785
    3213,   18838,   18839,   18845,   18844,   18868,   18869,   18875,   18874
    3214,   18839,   18840,   18846,   18845,   18869,   18870,   18876,   18875
    3215,   18840,   18841,   18847,   18846,   18870,   18871,   18877,   18876
    3216,   18841,   18842,   18848,   18847,   18871,   18872,   18878,   18877
    3217,   18842,   18843,   18849,   18848,   18872,   18873,   18879,   18878
    3218,   18843,   10967,   10966,   18849,   18873,   10962,   10961,   18879
    3219,   11790,   18844,   18850,   11789,   11785,   18874,   18880,   11784
    3220,   18844,   18845,   18851,   18850,   18874,   18875,   18881,   18880
    3221,   18845,   18846,   18852,   18851,   18875,   18876,   18882,   18881
    3222,   18846,   18847,   18853,   18852,   18876,   18877,   18883,   18882
    3223,   18847,   18848,   18854,   18853,   18877,   18878,   18884,   18883
    3224,   18848,   18849,   18855,   18854,   18878,   18879,   18885,   18884
    3225,   18849,   10966,   10965,   18855,   18879,   10961,   10960,   18885
    3226,   11789,   18850,   18519,   11618,   11784,   18880,   18513,   11619
    3227,   18850,   18851,   18518,   18519,   18880,   18881,   18512,   18513
    3228,   18851,   18852,   18517,   18518,   18881,   18882,   18511,   18512
    3229,   18852,   18853,   18516,   18517,   18882,   18883,   18510,   18511
    3230,   18853,   18854,   18515,   18516,   18883,   18884,   18509,   18510
    3231,   18854,   18855,   18514,   18515,   18884,   18885,   18508,   18509
    3232,   18855,   10965,   10925,   18514,   18885,   10960,   10924,   18508
    3233,   11777,   18681,   18856,   11788,   11778,   18675,   18886,   11783
    3234,   18681,   18680,   18857,   18856,   18675,   18674,   18887,   18886
    3235,   18680,   18679,   18858,   18857,   18674,   18673,   18888,   18887
    3236,   18679,   18678,   18859,   18858,   18673,   18672,   18889,   18888
    3237,   18678,   18677,   18860,   18859,   18672,   18671,   18890,   18889
    3238,   18677,   18676,   18861,   18860,   18671,   18670,   18891,   18890
    3239,   18676,   10948,   10964,   18861,   18670,   10949,   10959,   18891
    3240,   11788,   18856,   18862,   11787,   11783,   18886,   18892,   11782
    3241,   18856,   18857,   18863,   18862,   18886,   18887,   18893,   18892
    3242,   18857,   18858,   18864,   18863,   18887,   18888,   18894,   18893
    3243,   18858,   18859,   18865,   18864,   18888,   18889,   18895,   18894
    3244,   18859,   18860,   18866,   18865,   18889,   18890,   18896,   18895
    3245,   18860,   18861,   18867,   18866,   18890,   18891,   18897,   18896
    3246,   18861,   10964,   10963,   18867,   18891,   10959,   10958,   18897
    3247,   11787,   18862,   18868,   11786,   11782,   18892,   18898,   11781
    3248,   18862,   18863,   18869,   18868,   18892,   18893,   18899,   18898
    3249,   18863,   18864,   18870,   18869,   18893,   18894,   18900,   18899
    3250,   18864,   18865,   18871,   18870,   18894,   18895,   18901,   18900
    3251,   18865,   18866,   18872,   18871,   18895,   18896,   18902,   18901
    3252,   18866,   18867,   18873,   18872,   18896,   18897,   18903,   18902
    3253,   18867,   10963,   10962,   18873,   18897,   10958,   10957,   18903
    3254,   11786,   18868,   18874,   11785,   11781,   18898,   18904,   11780
    3255,   18868,   18869,   18875,   18874,   18898,   18899,   18905,   18904
    3256,   18869,   18870,   18876,   18875,   18899,   18900,   18906,   18905
    3257,   18870,   18871,   18877,   18876,   18900,   18901,   18907,   18906
    3258,   18871,   18872,   18878,   18877,   18901,   18902,   18908,   18907
    3259,   18872,   18873,   18879,   18878,   18902,   18903,   18909,   18908
    3260,   18873,   10962,   10961,   18879,   18903,   10957,   10956,   18909
    3261,   11785,   18874,   18880,   11784,   11780,   18904,   18910,   11779
    3262,   18874,   18875,   18881,   18880,   18904,   18905,   18911,   18910
    3263,   18875,   18876,   18882,   18881,   18905,   18906,   18912,   18911
    3264,   18876,   18877,   18883,   18882,   18906,   18907,   18913,   18912
    3265,   18877,   18878,   18884,   18883,   18907,   18908,   18914,   18913
    3266,   18878,   18879,   18885,   18884,   18908,   18909,   18915,   18914
    3267,   18879,   10961,   10960,   18885,   18909,   10956,   10955,   18915
    3268,   11784,   18880,   18513,   11619,   11779,   18910,   18507,   11620
    3269,   18880,   18881,   18512,   18513,   18910,   18911,   18506,   18507
    3270,   18881,   18882,   18511,   18512,   18911,   18912,   18505,   18506
    3271,   18882,   18883,   18510,   18511,   18912,   18913,   18504,   18505
    3272,   18883,   18884,   18509,   18510,   18913,   18914,   18503,   18504
    3273,   18884,   18885,   18508,   18509,   18914,   18915,   18502,   18503
    3274,   18885,   10960,   10924,   18508,   18915,   10955,   10923,   18502
    3275,   11778,   18675,   18886,   11783,    5423,   15821,   15832,    5424
    3276,   18675,   18674,   18887,   18886,   15821,   15822,   15831,   15832
    3277,   18674,   18673,   18888,   18887,   15822,   15823,   15830,   15831
    3278,   18673,   18672,   18889,   18888,   15823,   15824,   15829,   15830
    3279,   18672,   18671,   18890,   18889,   15824,   15825,   15828,   15829
    3280,   18671,   18670,   18891,   18890,   15825,   15826,   15827,   15828
    3281,   18670,   10949,   10959,   18891,   15826,    4550,    4554,   15827
    3282,   11783,   18886,   18892,   11782,    5424,   15832,   15838,    5425
    3283,   18886,   18887,   18893,   18892,   15832,   15831,   15837,   15838
    3284,   18887,   18888,   18894,   18893,   15831,   15830,   15836,   15837
    3285,   18888,   18889,   18895,   18894,   15830,   15829,   15835,   15836
    3286,   18889,   18890,   18896,   18895,   15829,   15828,   15834,   15835
    3287,   18890,   18891,   18897,   18896,   15828,   15827,   15833,   15834
    3288,   18891,   10959,   10958,   18897,   15827,    4554,    4555,   15833
    3289,   11782,   18892,   18898,   11781,    5425,   15838,   15844,    5426
    3290,   18892,   18893,   18899,   18898,   15838,   15837,   15843,   15844
    3291,   18893,   18894,   18900,   18899,   15837,   15836,   15842,   15843
    3292,   18894,   18895,   18901,   18900,   15836,   15835,   15841,   15842
    3293,   18895,   18896,   18902,   18901,   15835,   15834,   15840,   15841
    3294,   18896,   18897,   18903,   18902,   15834,   15833,   15839,   15840
    3295,   18897,   10958,   10957,   18903,   15833,    4555,    4556,   15839
    3296,   11781,   18898,   18904,   11780,    5426,   15844,   15850,    5427
    3297,   18898,   18899,   18905,   18904,   15844,   15843,   15849,   15850
    3298,   18899,   18900,   18906,   18905,   15843,   15842,   15848,   15849
    3299,   18900,   18901,   18907,   18906,   15842,   15841,   15847,   15848
    3300,   18901,   18902,   18908,   18907,   15841,   15840,   15846,   15847
    3301,   18902,   18903,   18909,   18908,   15840,   15839,   15845,   15846
    3302,   18903,   10957,   10956,   18909,   15839,    4556,    4557,   15845
    3303,   11780,   18904,   18910,   11779,    5427,   15850,   15856,    5428
    3304,   18904,   18905,   18911,   18910,   15850,   15849,   15855,   15856
    3305,   18905,   18906,   18912,   18911,   15849,   15848,   15854,   15855
    3306,   18906,   18907,   18913,   18912,   15848,   15847,   15853,   15854
    3307,   18907,   18908,   18914,   18913,   15847,   15846,   15852,   15853
    3308,   18908,   18909,   18915,   18914,   15846,   15845,   15851,   15852
    3309,   18909,   10956,   10955,   18915,   15845,    4557,    4558,   15851
    3310,   11779,   18910,   18507,   11620,    5428,   15856,   15629,    5330
    3311,   18910,   18911,   18506,   18507,   15856,   15855,   15630,   15629
    3312,   18911,   18912,   18505,   18506,   15855,   15854,   15631,   15630
    3313,   18912,   18913,   18504,   18505,   15854,   15853,   15632,   15631
    3314,   18913,   18914,   18503,   18504,   15853,   15852,   15633,   15632
    3315,   18914,   18915,   18502,   18503,   15852,   15851,   15634,   15633
    3316,   18915,   10955,   10923,   18502,   15851,    4558,    4517,   15634
*ELEMENT, TYPE=COH3D8, ELSET=mortar
    3317,   12871,   12908,   13096,   13095,   12872,   13094,   13288,   13132
    3318,   12908,   12907,   13097,   13096,   13094,   13093,   13289,   13288
    3319,   12907,   12906,   13098,   13097,   13093,   13092,   13290,   13289
    3320,   12906,   12905,   13099,   13098,   13092,   13091,   13291,   13290
    3321,   12905,   12904,   13100,   13099,   13091,   13090,   13292,   13291
    3322,   12904,   12903,   13101,   13100,   13090,   13089,   13293,   13292
    3323,   12903,   12902,   13102,   13101,   13089,   13088,   13294,   13293
    3324,   12902,   12901,   13103,   13102,   13088,   13087,   13295,   13294
    3325,   12901,   12900,   13104,   13103,   13087,   13086,   13296,   13295
    3326,   12900,   12899,   13105,   13104,   13086,   13085,   13297,   13296
    3327,   12899,   12898,   13106,   13105,   13085,   13084,   13298,   13297
    3328,   12898,   12897,   13107,   13106,   13084,   13083,   13299,   13298
    3329,   12897,   12896,   13108,   13107,   13083,   13082,   13300,   13299
    3330,   12896,   12895,   13109,   13108,   13082,   13081,   13301,   13300
    3331,   12895,   12894,   13110,   13109,   13081,   13080,   13302,   13301
    3332,   12894,   12893,   13111,   13110,   13080,   13079,   13303,   13302
    3333,   12893,   12892,   13112,   13111,   13079,   13078,   13304,   13303
    3334,   12892,   12891,   13113,   13112,   13078,   13077,   13305,   13304
    3335,   12891,   12890,   13114,   13113,   13077,   13076,   13306,   13305
    3336,   12890,   12889,   13115,   13114,   13076,   13075,   13307,   13306
    3337,   12889,   12888,   13116,   13115,   13075,   13074,   13308,   13307
    3338,   12888,   12887,   13117,   13116,   13074,   13073,   13309,   13308
    3339,   12887,   12886,   13118,   13117,   13073,   13072,   13310,   13309
    3340,   12886,   12885,   13119,   13118,   13072,   13071,   13311,   13310
    3341,   12885,   12884,   13120,   13119,   13071,   13070,   13312,   13311
    3342,   12884,   12883,   13121,   13120,   13070,   13069,   13313,   13312
    3343,   12883,   12882,   13122,   13121,   13069,   13068,   13314,   13313
    3344,   12882,   12881,   13123,   13122,   13068,   13067,   13315,   13314
    3345,   12881,   12880,   13124,   13123,   13067,   13066,   13316,   13315
    3346,   12880,   12879,   13125,   13124,   13066,   13065,   13317,   13316
    3347,   12879,   12878,   13126,   13125,   13065,   13064,   13318,   13317
    3348,   12878,   12857,   12864,   13126,   13064,   12863,   12865,   13318
    3349,   12872,   13094,   13288,   13132,   12873,   13063,   13257,   13131
    3350,   13094,   13093,   13289,   13288,   13063,   13062,   13258,   13257
    3351,   13093,   13092,   13290,   13289,   13062,   13061,   13259,   13258
    3352,   13092,   13091,   13291,   13290,   13061,   13060,   13260,   13259
    3353,   13091,   13090,   13292,   13291,   13060,   13059,   13261,   13260
    3354,   13090,   13089,   13293,   13292,   13059,   13058,   13262,   13261
    3355,   13089,   13088,   13294,   13293,   13058,   13057,   13263,   13262
    3356,   13088,   13087,   13295,   13294,   13057,   13056,   13264,   13263
    3357,   13087,   13086,   13296,   13295,   13056,   13055,   13265,   13264
    3358,   13086,   13085,   13297,   13296,   13055,   13054,   13266,   13265
    3359,   13085,   13084,   13298,   13297,   13054,   13053,   13267,   13266
    3360,   13084,   13083,   13299,   13298,   13053,   13052,   13268,   13267
    3361,   13083,   13082,   13300,   13299,   13052,   13051,   13269,   13268
    3362,   13082,   13081,   13301,   13300,   13051,   13050,   13270,   13269
    3363,   13081,   13080,   13302,   13301,   13050,   13049,   13271,   13270
    3364,   13080,   13079,   13303,   13302,   13049,   13048,   13272,   13271
    3365,   13079,   13078,   13304,   13303,   13048,   13047,   13273,   13272
    3366,   13078,   13077,   13305,   13304,   13047,   13046,   13274,   13273
    3367,   13077,   13076,   13306,   13305,   13046,   13045,   13275,   13274
    3368,   13076,   13075,   13307,   13306,   13045,   13044,   13276,   13275
    3369,   13075,   13074,   13308,   13307,   13044,   13043,   13277,   13276
    3370,   13074,   13073,   13309,   13308,   13043,   13042,   13278,   13277
    3371,   13073,   13072,   13310,   13309,   13042,   13041,   13279,   13278
    3372,   13072,   13071,   13311,   13310,   13041,   13040,   13280,   13279
    3373,   13071,   13070,   13312,   13311,   13040,   13039,   13281,   13280
    3374,   13070,   13069,   13313,   13312,   13039,   13038,   13282,   13281
    3375,   13069,   13068,   13314,   13313,   13038,   13037,   13283,   13282
    3376,   13068,   13067,   13315,   13314,   13037,   13036,   13284,   13283
    3377,   13067,   13066,   13316,   13315,   13036,   13035,   13285,   13284
    3378,   13066,   13065,   13317,   13316,   13035,   13034,   13286,   13285
    3379,   13065,   13064,   13318,   13317,   13034,   13033,   13287,   13286
    3380,   13064,   12863,   12865,   13318,   13033,   12862,   12866,   13287
    3381,   12873,   13063,   13257,   13131,   12874,   13032,   13226,   13130
    3382,   13063,   13062,   13258,   13257,   13032,   13031,   13227,   13226
    3383,   13062,   13061,   13259,   13258,   13031,   13030,   13228,   13227
    3384,   13061,   13060,   13260,   13259,   13030,   13029,   13229,   13228
    3385,   13060,   13059,   13261,   13260,   13029,   13028,   13230,   13229
    3386,   13059,   13058,   13262,   13261,   13028,   13027,   13231,   13230
    3387,   13058,   13057,   13263,   13262,   13027,   13026,   13232,   13231
    3388,   13057,   13056,   13264,   13263,   13026,   13025,   13233,   13232
    3389,   13056,   13055,   13265,   13264,   13025,   13024,   13234,   13233
    3390,   13055,   13054,   13266,   13265,   13024,   13023,   13235,   13234
    3391,   13054,   13053,   13267,   13266,   13023,   13022,   13236,   13235
    3392,   13053,   13052,   13268,   13267,   13022,   13021,   13237,   13236
    3393,   13052,   13051,   13269,   13268,   13021,   13020,   13238,   13237
    3394,   13051,   13050,   13270,   13269,   13020,   13019,   13239,   13238
    3395,   13050,   13049,   13271,   13270,   13019,   13018,   13240,   13239
    3396,   13049,   13048,   13272,   13271,   13018,   13017,   13241,   13240
    3397,   13048,   13047,   13273,   13272,   13017,   13016,   13242,   13241
    3398,   13047,   13046,   13274,   13273,   13016,   13015,   13243,   13242
    3399,   13046,   13045,   13275,   13274,   13015,   13014,   13244,   13243
    3400,   13045,   13044,   13276,   13275,   13014,   13013,   13245,   13244
    3401,   13044,   13043,   13277,   13276,   13013,   13012,   13246,   13245
    3402,   13043,   13042,   13278,   13277,   13012,   13011,   13247,   13246
    3403,   13042,   13041,   13279,   13278,   13011,   13010,   13248,   13247
    3404,   13041,   13040,   13280,   13279,   13010,   13009,   13249,   13248
    3405,   13040,   13039,   13281,   13280,   13009,   13008,   13250,   13249
    3406,   13039,   13038,   13282,   13281,   13008,   13007,   13251,   13250
    3407,   13038,   13037,   13283,   13282,   13007,   13006,   13252,   13251
    3408,   13037,   13036,   13284,   13283,   13006,   13005,   13253,   13252
    3409,   13036,   13035,   13285,   13284,   13005,   13004,   13254,   13253
    3410,   13035,   13034,   13286,   13285,   13004,   13003,   13255,   13254
    3411,   13034,   13033,   13287,   13286,   13003,   13002,   13256,   13255
    3412,   13033,   12862,   12866,   13287,   13002,   12861,   12867,   13256
    3413,   12874,   13032,   13226,   13130,   12875,   13001,   13195,   13129
    3414,   13032,   13031,   13227,   13226,   13001,   13000,   13196,   13195
    3415,   13031,   13030,   13228,   13227,   13000,   12999,   13197,   13196
    3416,   13030,   13029,   13229,   13228,   12999,   12998,   13198,   13197
    3417,   13029,   13028,   13230,   13229,   12998,   12997,   13199,   13198
    3418,   13028,   13027,   13231,   13230,   12997,   12996,   13200,   13199
    3419,   13027,   13026,   13232,   13231,   12996,   12995,   13201,   13200
    3420,   13026,   13025,   13233,   13232,   12995,   12994,   13202,   13201
    3421,   13025,   13024,   13234,   13233,   12994,   12993,   13203,   13202
    3422,   13024,   13023,   13235,   13234,   12993,   12992,   13204,   13203
    3423,   13023,   13022,   13236,   13235,   12992,   12991,   13205,   13204
    3424,   13022,   13021,   13237,   13236,   12991,   12990,   13206,   13205
    3425,   13021,   13020,   13238,   13237,   12990,   12989,   13207,   13206
    3426,   13020,   13019,   13239,   13238,   12989,   12988,   13208,   13207
    3427,   13019,   13018,   13240,   13239,   12988,   12987,   13209,   13208
    3428,   13018,   13017,   13241,   13240,   12987,   12986,   13210,   13209
    3429,   13017,   13016,   13242,   13241,   12986,   12985,   13211,   13210
    3430,   13016,   13015,   13243,   13242,   12985,   12984,   13212,   13211
    3431,   13015,   13014,   13244,   13243,   12984,   12983,   13213,   13212
    3432,   13014,   13013,   13245,   13244,   12983,   12982,   13214,   13213
    3433,   13013,   13012,   13246,   13245,   12982,   12981,   13215,   13214
    3434,   13012,   13011,   13247,   13246,   12981,   12980,   13216,   13215
    3435,   13011,   13010,   13248,   13247,   12980,   12979,   13217,   13216
    3436,   13010,   13009,   13249,   13248,   12979,   12978,   13218,   13217
    3437,   13009,   13008,   13250,   13249,   12978,   12977,   13219,   13218
    3438,   13008,   13007,   13251,   13250,   12977,   12976,   13220,   13219
    3439,   13007,   13006,   13252,   13251,   12976,   12975,   13221,   13220
    3440,   13006,   13005,   13253,   13252,   12975,   12974,   13222,   13221
    3441,   13005,   13004,   13254,   13253,   12974,   12973,   13223,   13222
    3442,   13004,   13003,   13255,   13254,   12973,   12972,   13224,   13223
    3443,   13003,   13002,   13256,   13255,   12972,   12971,   13225,   13224
    3444,   13002,   12861,   12867,   13256,   12971,   12860,   12868,   13225
    3445,   12875,   13001,   13195,   13129,   12876,   12970,   13164,   13128
    3446,   13001,   13000,   13196,   13195,   12970,   12969,   13165,   13164
    3447,   13000,   12999,   13197,   13196,   12969,   12968,   13166,   13165
    3448,   12999,   12998,   13198,   13197,   12968,   12967,   13167,   13166
    3449,   12998,   12997,   13199,   13198,   12967,   12966,   13168,   13167
    3450,   12997,   12996,   13200,   13199,   12966,   12965,   13169,   13168
    3451,   12996,   12995,   13201,   13200,   12965,   12964,   13170,   13169
    3452,   12995,   12994,   13202,   13201,   12964,   12963,   13171,   13170
    3453,   12994,   12993,   13203,   13202,   12963,   12962,   13172,   13171
    3454,   12993,   12992,   13204,   13203,   12962,   12961,   13173,   13172
    3455,   12992,   12991,   13205,   13204,   12961,   12960,   13174,   13173
    3456,   12991,   12990,   13206,   13205,   12960,   12959,   13175,   13174
    3457,   12990,   12989,   13207,   13206,   12959,   12958,   13176,   13175
    3458,   12989,   12988,   13208,   13207,   12958,   12957,   13177,   13176
    3459,   12988,   12987,   13209,   13208,   12957,   12956,   13178,   13177
    3460,   12987,   12986,   13210,   13209,   12956,   12955,   13179,   13178
    3461,   12986,   12985,   13211,   13210,   12955,   12954,   13180,   13179
    3462,   12985,   12984,   13212,   13211,   12954,   12953,   13181,   13180
    3463,   12984,   12983,   13213,   13212,   12953,   12952,   13182,   13181
    3464,   12983,   12982,   13214,   13213,   12952,   12951,   13183,   13182
    3465,   12982,   12981,   13215,   13214,   12951,   12950,   13184,   13183
    3466,   12981,   12980,   13216,   13215,   12950,   12949,   13185,   13184
    3467,   12980,   12979,   13217,   13216,   12949,   12948,   13186,   13185
    3468,   12979,   12978,   13218,   13217,   12948,   12947,   13187,   13186
    3469,   12978,   12977,   13219,   13218,   12947,   12946,   13188,   13187
    3470,   12977,   12976,   13220,   13219,   12946,   12945,   13189,   13188
    3471,   12976,   12975,   13221,   13220,   12945,   12944,   13190,   13189
    3472,   12975,   12974,   13222,   13221,   12944,   12943,   13191,   13190
    3473,   12974,   12973,   13223,   13222,   12943,   12942,   13192,   13191
    3474,   12973,   12972,   13224,   13223,   12942,   12941,   13193,   13192
    3475,   12972,   12971,   13225,   13224,   12941,   12940,   13194,   13193
    3476,   12971,   12860,   12868,   13225,   12940,   12859,   12869,   13194
    3477,   12876,   12970,   13164,   13128,   12877,   12939,   13133,   13127
    3478,   12970,   12969,   13165,   13164,   12939,   12938,   13134,   13133
    3479,   12969,   12968,   13166,   13165,   12938,   12937,   13135,   13134
    3480,   12968,   12967,   13167,   13166,   12937,   12936,   13136,   13135
    3481,   12967,   12966,   13168,   13167,   12936,   12935,   13137,   13136
    3482,   12966,   12965,   13169,   13168,   12935,   12934,   13138,   13137
    3483,   12965,   12964,   13170,   13169,   12934,   12933,   13139,   13138
    3484,   12964,   12963,   13171,   13170,   12933,   12932,   13140,   13139
    3485,   12963,   12962,   13172,   13171,   12932,   12931,   13141,   13140
    3486,   12962,   12961,   13173,   13172,   12931,   12930,   13142,   13141
    3487,   12961,   12960,   13174,   13173,   12930,   12929,   13143,   13142
    3488,   12960,   12959,   13175,   13174,   12929,   12928,   13144,   13143
    3489,   12959,   12958,   13176,   13175,   12928,   12927,   13145,   13144
    3490,   12958,   12957,   13177,   13176,   12927,   12926,   13146,   13145
    3491,   12957,   12956,   13178,   13177,   12926,   12925,   13147,   13146
    3492,   12956,   12955,   13179,   13178,   12925,   12924,   13148,   13147
    3493,   12955,   12954,   13180,   13179,   12924,   12923,   13149,   13148
    3494,   12954,   12953,   13181,   13180,   12923,   12922,   13150,   13149
    3495,   12953,   12952,   13182,   13181,   12922,   12921,   13151,   13150
    3496,   12952,   12951,   13183,   13182,   12921,   12920,   13152,   13151
    3497,   12951,   12950,   13184,   13183,   12920,   12919,   13153,   13152
    3498,   12950,   12949,   13185,   13184,   12919,   12918,   13154,   13153
    3499,   12949,   12948,   13186,   13185,   12918,   12917,   13155,   13154
    3500,   12948,   12947,   13187,   13186,   12917,   12916,   13156,   13155
    3501,   12947,   12946,   13188,   13187,   12916,   12915,   13157,   13156
    3502,   12946,   12945,   13189,   13188,   12915,   12914,   13158,   13157
    3503,   12945,   12944,   13190,   13189,   12914,   12913,   13159,   13158
    3504,   12944,   12943,   13191,   13190,   12913,   12912,   13160,   13159
    3505,   12943,   12942,   13192,   13191,   12912,   12911,   13161,   13160
    3506,   12942,   12941,   13193,   13192,   12911,   12910,   13162,   13161
    3507,   12941,   12940,   13194,   13193,   12910,   12909,   13163,   13162
    3508,   12940,   12859,   12869,   13194,   12909,   12858,   12870,   13163
    3509,   12877,   12939,   13133,   13127,   12791,   12824,   12826,   12792
    3510,   12939,   12938,   13134,   13133,   12824,   12823,   12827,   12826
    3511,   12938,   12937,   13135,   13134,   12823,   12822,   12828,   12827
    3512,   12937,   12936,   13136,   13135,   12822,   12821,   12829,   12828
    3513,   12936,   12935,   13137,   13136,   12821,   12820,   12830,   12829
    3514,   12935,   12934,   13138,   13137,   12820,   12819,   12831,   12830
    3515,   12934,   12933,   13139,   13138,   12819,   12818,   12832,   12831
    3516,   12933,   12932,   13140,   13139,   12818,   12817,   12833,   12832
    3517,   12932,   12931,   13141,   13140,   12817,   12816,   12834,   12833
    3518,   12931,   12930,   13142,   13141,   12816,   12815,   12835,   12834
    3519,   12930,   12929,   13143,   13142,   12815,   12814,   12836,   12835
    3520,   12929,   12928,   13144,   13143,   12814,   12813,   12837,   12836
    3521,   12928,   12927,   13145,   13144,   12813,   12812,   12838,   12837
    3522,   12927,   12926,   13146,   13145,   12812,   12811,   12839,   12838
    3523,   12926,   12925,   13147,   13146,   12811,   12810,   12840,   12839
    3524,   12925,   12924,   13148,   13147,   12810,   12809,   12841,   12840
    3525,   12924,   12923,   13149,   13148,   12809,   12808,   12842,   12841
    3526,   12923,   12922,   13150,   13149,   12808,   12807,   12843,   12842
    3527,   12922,   12921,   13151,   13150,   12807,   12806,   12844,   12843
    3528,   12921,   12920,   13152,   13151,   12806,   12805,   12845,   12844
    3529,   12920,   12919,   13153,   13152,   12805,   12804,   12846,   12845
    3530,   12919,   12918,   13154,   13153,   12804,   12803,   12847,   12846
    3531,   12918,   12917,   13155,   13154,   12803,   12802,   12848,   12847
    3532,   12917,   12916,   13156,   13155,   12802,   12801,   12849,   12848
    3533,   12916,   12915,   13157,   13156,   12801,   12800,   12850,   12849
    3534,   12915,   12914,   13158,   13157,   12800,   12799,   12851,   12850
    3535,   12914,   12913,   13159,   13158,   12799,   12798,   12852,   12851
    3536,   12913,   12912,   13160,   13159,   12798,   12797,   12853,   12852
    3537,   12912,   12911,   13161,   13160,   12797,   12796,   12854,   12853
    3538,   12911,   12910,   13162,   13161,   12796,   12795,   12855,   12854
    3539,   12910,   12909,   13163,   13162,   12795,   12794,   12856,   12855
    3540,   12909,   12858,   12870,   13163,   12794,   12793,   12825,   12856
    3541,   12793,   16384,   16148,   12825,   12794,   16415,   16154,   12856
    3542,   16384,   16383,   16149,   16148,   16415,   16446,   16185,   16154
    3543,   16383,   16382,   16150,   16149,   16446,   16477,   16216,   16185
    3544,   16382,   16381,   16151,   16150,   16477,   16508,   16247,   16216
    3545,   16381,   16380,   16152,   16151,   16508,   16539,   16278,   16247
    3546,   16380,   16379,   16153,   16152,   16539,   16570,   16309,   16278
    3547,   16379,   16347,   16116,   16153,   16570,   16378,   16117,   16309
    3548,   12794,   16415,   16154,   12856,   12795,   16414,   16155,   12855
    3549,   16415,   16446,   16185,   16154,   16414,   16445,   16186,   16155
    3550,   16446,   16477,   16216,   16185,   16445,   16476,   16217,   16186
    3551,   16477,   16508,   16247,   16216,   16476,   16507,   16248,   16217
    3552,   16508,   16539,   16278,   16247,   16507,   16538,   16279,   16248
    3553,   16539,   16570,   16309,   16278,   16538,   16569,   16310,   16279
    3554,   16570,   16378,   16117,   16309,   16569,   16377,   16118,   16310
    3555,   12795,   16414,   16155,   12855,   12796,   16413,   16156,   12854
    3556,   16414,   16445,   16186,   16155,   16413,   16444,   16187,   16156
    3557,   16445,   16476,   16217,   16186,   16444,   16475,   16218,   16187
    3558,   16476,   16507,   16248,   16217,   16475,   16506,   16249,   16218
    3559,   16507,   16538,   16279,   16248,   16506,   16537,   16280,   16249
    3560,   16538,   16569,   16310,   16279,   16537,   16568,   16311,   16280
    3561,   16569,   16377,   16118,   16310,   16568,   16376,   16119,   16311
    3562,   12796,   16413,   16156,   12854,   12797,   16412,   16157,   12853
    3563,   16413,   16444,   16187,   16156,   16412,   16443,   16188,   16157
    3564,   16444,   16475,   16218,   16187,   16443,   16474,   16219,   16188
    3565,   16475,   16506,   16249,   16218,   16474,   16505,   16250,   16219
    3566,   16506,   16537,   16280,   16249,   16505,   16536,   16281,   16250
    3567,   16537,   16568,   16311,   16280,   16536,   16567,   16312,   16281
    3568,   16568,   16376,   16119,   16311,   16567,   16375,   16120,   16312
    3569,   12797,   16412,   16157,   12853,   12798,   16411,   16158,   12852
    3570,   16412,   16443,   16188,   16157,   16411,   16442,   16189,   16158
    3571,   16443,   16474,   16219,   16188,   16442,   16473,   16220,   16189
    3572,   16474,   16505,   16250,   16219,   16473,   16504,   16251,   16220
    3573,   16505,   16536,   16281,   16250,   16504,   16535,   16282,   16251
    3574,   16536,   16567,   16312,   16281,   16535,   16566,   16313,   16282
    3575,   16567,   16375,   16120,   16312,   16566,   16374,   16121,   16313
    3576,   12798,   16411,   16158,   12852,   12799,   16410,   16159,   12851
    3577,   16411,   16442,   16189,   16158,   16410,   16441,   16190,   16159
    3578,   16442,   16473,   16220,   16189,   16441,   16472,   16221,   16190
    3579,   16473,   16504,   16251,   16220,   16472,   16503,   16252,   16221
    3580,   16504,   16535,   16282,   16251,   16503,   16534,   16283,   16252
    3581,   16535,   16566,   16313,   16282,   16534,   16565,   16314,   16283
    3582,   16566,   16374,   16121,   16313,   16565,   16373,   16122,   16314
    3583,   12799,   16410,   16159,   12851,   12800,   16409,   16160,   12850
    3584,   16410,   16441,   16190,   16159,   16409,   16440,   16191,   16160
    3585,   16441,   16472,   16221,   16190,   16440,   16471,   16222,   16191
    3586,   16472,   16503,   16252,   16221,   16471,   16502,   16253,   16222
    3587,   16503,   16534,   16283,   16252,   16502,   16533,   16284,   16253
    3588,   16534,   16565,   16314,   16283,   16533,   16564,   16315,   16284
    3589,   16565,   16373,   16122,   16314,   16564,   16372,   16123,   16315
    3590,   12800,   16409,   16160,   12850,   12801,   16408,   16161,   12849
    3591,   16409,   16440,   16191,   16160,   16408,   16439,   16192,   16161
    3592,   16440,   16471,   16222,   16191,   16439,   16470,   16223,   16192
    3593,   16471,   16502,   16253,   16222,   16470,   16501,   16254,   16223
    3594,   16502,   16533,   16284,   16253,   16501,   16532,   16285,   16254
    3595,   16533,   16564,   16315,   16284,   16532,   16563,   16316,   16285
    3596,   16564,   16372,   16123,   16315,   16563,   16371,   16124,   16316
    3597,   12801,   16408,   16161,   12849,   12802,   16407,   16162,   12848
    3598,   16408,   16439,   16192,   16161,   16407,   16438,   16193,   16162
    3599,   16439,   16470,   16223,   16192,   16438,   16469,   16224,   16193
    3600,   16470,   16501,   16254,   16223,   16469,   16500,   16255,   16224
    3601,   16501,   16532,   16285,   16254,   16500,   16531,   16286,   16255
    3602,   16532,   16563,   16316,   16285,   16531,   16562,   16317,   16286
    3603,   16563,   16371,   16124,   16316,   16562,   16370,   16125,   16317
    3604,   12802,   16407,   16162,   12848,   12803,   16406,   16163,   12847
    3605,   16407,   16438,   16193,   16162,   16406,   16437,   16194,   16163
    3606,   16438,   16469,   16224,   16193,   16437,   16468,   16225,   16194
    3607,   16469,   16500,   16255,   16224,   16468,   16499,   16256,   16225
    3608,   16500,   16531,   16286,   16255,   16499,   16530,   16287,   16256
    3609,   16531,   16562,   16317,   16286,   16530,   16561,   16318,   16287
    3610,   16562,   16370,   16125,   16317,   16561,   16369,   16126,   16318
    3611,   12803,   16406,   16163,   12847,   12804,   16405,   16164,   12846
    3612,   16406,   16437,   16194,   16163,   16405,   16436,   16195,   16164
    3613,   16437,   16468,   16225,   16194,   16436,   16467,   16226,   16195
    3614,   16468,   16499,   16256,   16225,   16467,   16498,   16257,   16226
    3615,   16499,   16530,   16287,   16256,   16498,   16529,   16288,   16257
    3616,   16530,   16561,   16318,   16287,   16529,   16560,   16319,   16288
    3617,   16561,   16369,   16126,   16318,   16560,   16368,   16127,   16319
    3618,   12804,   16405,   16164,   12846,   12805,   16404,   16165,   12845
    3619,   16405,   16436,   16195,   16164,   16404,   16435,   16196,   16165
    3620,   16436,   16467,   16226,   16195,   16435,   16466,   16227,   16196
    3621,   16467,   16498,   16257,   16226,   16466,   16497,   16258,   16227
    3622,   16498,   16529,   16288,   16257,   16497,   16528,   16289,   16258
    3623,   16529,   16560,   16319,   16288,   16528,   16559,   16320,   16289
    3624,   16560,   16368,   16127,   16319,   16559,   16367,   16128,   16320
    3625,   12805,   16404,   16165,   12845,   12806,   16403,   16166,   12844
    3626,   16404,   16435,   16196,   16165,   16403,   16434,   16197,   16166
    3627,   16435,   16466,   16227,   16196,   16434,   16465,   16228,   16197
    3628,   16466,   16497,   16258,   16227,   16465,   16496,   16259,   16228
    3629,   16497,   16528,   16289,   16258,   16496,   16527,   16290,   16259
    3630,   16528,   16559,   16320,   16289,   16527,   16558,   16321,   16290
    3631,   16559,   16367,   16128,   16320,   16558,   16366,   16129,   16321
    3632,   12806,   16403,   16166,   12844,   12807,   16402,   16167,   12843
    3633,   16403,   16434,   16197,   16166,   16402,   16433,   16198,   16167
    3634,   16434,   16465,   16228,   16197,   16433,   16464,   16229,   16198
    3635,   16465,   16496,   16259,   16228,   16464,   16495,   16260,   16229
    3636,   16496,   16527,   16290,   16259,   16495,   16526,   16291,   16260
    3637,   16527,   16558,   16321,   16290,   16526,   16557,   16322,   16291
    3638,   16558,   16366,   16129,   16321,   16557,   16365,   16130,   16322
    3639,   12807,   16402,   16167,   12843,   12808,   16401,   16168,   12842
    3640,   16402,   16433,   16198,   16167,   16401,   16432,   16199,   16168
    3641,   16433,   16464,   16229,   16198,   16432,   16463,   16230,   16199
    3642,   16464,   16495,   16260,   16229,   16463,   16494,   16261,   16230
    3643,   16495,   16526,   16291,   16260,   16494,   16525,   16292,   16261
    3644,   16526,   16557,   16322,   16291,   16525,   16556,   16323,   16292
    3645,   16557,   16365,   16130,   16322,   16556,   16364,   16131,   16323
    3646,   12808,   16401,   16168,   12842,   12809,   16400,   16169,   12841
    3647,   16401,   16432,   16199,   16168,   16400,   16431,   16200,   16169
    3648,   16432,   16463,   16230,   16199,   16431,   16462,   16231,   16200
    3649,   16463,   16494,   16261,   16230,   16462,   16493,   16262,   16231
    3650,   16494,   16525,   16292,   16261,   16493,   16524,   16293,   16262
    3651,   16525,   16556,   16323,   16292,   16524,   16555,   16324,   16293
    3652,   16556,   16364,   16131,   16323,   16555,   16363,   16132,   16324
    3653,   12809,   16400,   16169,   12841,   12810,   16399,   16170,   12840
    3654,   16400,   16431,   16200,   16169,   16399,   16430,   16201,   16170
    3655,   16431,   16462,   16231,   16200,   16430,   16461,   16232,   16201
    3656,   16462,   16493,   16262,   16231,   16461,   16492,   16263,   16232
    3657,   16493,   16524,   16293,   16262,   16492,   16523,   16294,   16263
    3658,   16524,   16555,   16324,   16293,   16523,   16554,   16325,   16294
    3659,   16555,   16363,   16132,   16324,   16554,   16362,   16133,   16325
    3660,   12810,   16399,   16170,   12840,   12811,   16398,   16171,   12839
    3661,   16399,   16430,   16201,   16170,   16398,   16429,   16202,   16171
    3662,   16430,   16461,   16232,   16201,   16429,   16460,   16233,   16202
    3663,   16461,   16492,   16263,   16232,   16460,   16491,   16264,   16233
    3664,   16492,   16523,   16294,   16263,   16491,   16522,   16295,   16264
    3665,   16523,   16554,   16325,   16294,   16522,   16553,   16326,   16295
    3666,   16554,   16362,   16133,   16325,   16553,   16361,   16134,   16326
    3667,   12811,   16398,   16171,   12839,   12812,   16397,   16172,   12838
    3668,   16398,   16429,   16202,   16171,   16397,   16428,   16203,   16172
    3669,   16429,   16460,   16233,   16202,   16428,   16459,   16234,   16203
    3670,   16460,   16491,   16264,   16233,   16459,   16490,   16265,   16234
    3671,   16491,   16522,   16295,   16264,   16490,   16521,   16296,   16265
    3672,   16522,   16553,   16326,   16295,   16521,   16552,   16327,   16296
    3673,   16553,   16361,   16134,   16326,   16552,   16360,   16135,   16327
    3674,   12812,   16397,   16172,   12838,   12813,   16396,   16173,   12837
    3675,   16397,   16428,   16203,   16172,   16396,   16427,   16204,   16173
    3676,   16428,   16459,   16234,   16203,   16427,   16458,   16235,   16204
    3677,   16459,   16490,   16265,   16234,   16458,   16489,   16266,   16235
    3678,   16490,   16521,   16296,   16265,   16489,   16520,   16297,   16266
    3679,   16521,   16552,   16327,   16296,   16520,   16551,   16328,   16297
    3680,   16552,   16360,   16135,   16327,   16551,   16359,   16136,   16328
    3681,   12813,   16396,   16173,   12837,   12814,   16395,   16174,   12836
    3682,   16396,   16427,   16204,   16173,   16395,   16426,   16205,   16174
    3683,   16427,   16458,   16235,   16204,   16426,   16457,   16236,   16205
    3684,   16458,   16489,   16266,   16235,   16457,   16488,   16267,   16236
    3685,   16489,   16520,   16297,   16266,   16488,   16519,   16298,   16267
    3686,   16520,   16551,   16328,   16297,   16519,   16550,   16329,   16298
    3687,   16551,   16359,   16136,   16328,   16550,   16358,   16137,   16329
    3688,   12814,   16395,   16174,   12836,   12815,   16394,   16175,   12835
    3689,   16395,   16426,   16205,   16174,   16394,   16425,   16206,   16175
    3690,   16426,   16457,   16236,   16205,   16425,   16456,   16237,   16206
    3691,   16457,   16488,   16267,   16236,   16456,   16487,   16268,   16237
    3692,   16488,   16519,   16298,   16267,   16487,   16518,   16299,   16268
    3693,   16519,   16550,   16329,   16298,   16518,   16549,   16330,   16299
    3694,   16550,   16358,   16137,   16329,   16549,   16357,   16138,   16330
    3695,   12815,   16394,   16175,   12835,   12816,   16393,   16176,   12834
    3696,   16394,   16425,   16206,   16175,   16393,   16424,   16207,   16176
    3697,   16425,   16456,   16237,   16206,   16424,   16455,   16238,   16207
    3698,   16456,   16487,   16268,   16237,   16455,   16486,   16269,   16238
    3699,   16487,   16518,   16299,   16268,   16486,   16517,   16300,   16269
    3700,   16518,   16549,   16330,   16299,   16517,   16548,   16331,   16300
    3701,   16549,   16357,   16138,   16330,   16548,   16356,   16139,   16331
    3702,   12816,   16393,   16176,   12834,   12817,   16392,   16177,   12833
    3703,   16393,   16424,   16207,   16176,   16392,   16423,   16208,   16177
    3704,   16424,   16455,   16238,   16207,   16423,   16454,   16239,   16208
    3705,   16455,   16486,   16269,   16238,   16454,   16485,   16270,   16239
    3706,   16486,   16517,   16300,   16269,   16485,   16516,   16301,   16270
    3707,   16517,   16548,   16331,   16300,   16516,   16547,   16332,   16301
    3708,   16548,   16356,   16139,   16331,   16547,   16355,   16140,   16332
    3709,   12817,   16392,   16177,   12833,   12818,   16391,   16178,   12832
    3710,   16392,   16423,   16208,   16177,   16391,   16422,   16209,   16178
    3711,   16423,   16454,   16239,   16208,   16422,   16453,   16240,   16209
    3712,   16454,   16485,   16270,   16239,   16453,   16484,   16271,   16240
    3713,   16485,   16516,   16301,   16270,   16484,   16515,   16302,   16271
    3714,   16516,   16547,   16332,   16301,   16515,   16546,   16333,   16302
    3715,   16547,   16355,   16140,   16332,   16546,   16354,   16141,   16333
    3716,   12818,   16391,   16178,   12832,   12819,   16390,   16179,   12831
    3717,   16391,   16422,   16209,   16178,   16390,   16421,   16210,   16179
    3718,   16422,   16453,   16240,   16209,   16421,   16452,   16241,   16210
    3719,   16453,   16484,   16271,   16240,   16452,   16483,   16272,   16241
    3720,   16484,   16515,   16302,   16271,   16483,   16514,   16303,   16272
    3721,   16515,   16546,   16333,   16302,   16514,   16545,   16334,   16303
    3722,   16546,   16354,   16141,   16333,   16545,   16353,   16142,   16334
    3723,   12819,   16390,   16179,   12831,   12820,   16389,   16180,   12830
    3724,   16390,   16421,   16210,   16179,   16389,   16420,   16211,   16180
    3725,   16421,   16452,   16241,   16210,   16420,   16451,   16242,   16211
    3726,   16452,   16483,   16272,   16241,   16451,   16482,   16273,   16242
    3727,   16483,   16514,   16303,   16272,   16482,   16513,   16304,   16273
    3728,   16514,   16545,   16334,   16303,   16513,   16544,   16335,   16304
    3729,   16545,   16353,   16142,   16334,   16544,   16352,   16143,   16335
    3730,   12820,   16389,   16180,   12830,   12821,   16388,   16181,   12829
    3731,   16389,   16420,   16211,   16180,   16388,   16419,   16212,   16181
    3732,   16420,   16451,   16242,   16211,   16419,   16450,   16243,   16212
    3733,   16451,   16482,   16273,   16242,   16450,   16481,   16274,   16243
    3734,   16482,   16513,   16304,   16273,   16481,   16512,   16305,   16274
    3735,   16513,   16544,   16335,   16304,   16512,   16543,   16336,   16305
    3736,   16544,   16352,   16143,   16335,   16543,   16351,   16144,   16336
    3737,   12821,   16388,   16181,   12829,   12822,   16387,   16182,   12828
    3738,   16388,   16419,   16212,   16181,   16387,   16418,   16213,   16182
    3739,   16419,   16450,   16243,   16212,   16418,   16449,   16244,   16213
    3740,   16450,   16481,   16274,   16243,   16449,   16480,   16275,   16244
    3741,   16481,   16512,   16305,   16274,   16480,   16511,   16306,   16275
    3742,   16512,   16543,   16336,   16305,   16511,   16542,   16337,   16306
    3743,   16543,   16351,   16144,   16336,   16542,   16350,   16145,   16337
    3744,   12822,   16387,   16182,   12828,   12823,   16386,   16183,   12827
    3745,   16387,   16418,   16213,   16182,   16386,   16417,   16214,   16183
    3746,   16418,   16449,   16244,   16213,   16417,   16448,   16245,   16214
    3747,   16449,   16480,   16275,   16244,   16448,   16479,   16276,   16245
    3748,   16480,   16511,   16306,   16275,   16479,   16510,   16307,   16276
    3749,   16511,   16542,   16337,   16306,   16510,   16541,   16338,   16307
    3750,   16542,   16350,   16145,   16337,   16541,   16349,   16146,   16338
    3751,   12823,   16386,   16183,   12827,   12824,   16385,   16184,   12826
    3752,   16386,   16417,   16214,   16183,   16385,   16416,   16215,   16184
    3753,   16417,   16448,   16245,   16214,   16416,   16447,   16246,   16215
    3754,   16448,   16479,   16276,   16245,   16447,   16478,   16277,   16246
    3755,   16479,   16510,   16307,   16276,   16478,   16509,   16308,   16277
    3756,   16510,   16541,   16338,   16307,   16509,   16540,   16339,   16308
    3757,   16541,   16349,   16146,   16338,   16540,   16348,   16147,   16339
    3758,   12824,   16385,   16184,   12826,   12791,   16341,   16115,   12792
    3759,   16385,   16416,   16215,   16184,   16341,   16342,   16114,   16115
    3760,   16416,   16447,   16246,   16215,   16342,   16343,   16113,   16114
    3761,   16447,   16478,   16277,   16246,   16343,   16344,   16112,   16113
    3762,   16478,   16509,   16308,   16277,   16344,   16345,   16111,   16112
    3763,   16509,   16540,   16339,   16308,   16345,   16346,   16110,   16111
    3764,   16540,   16348,   16147,   16339,   16346,   16340,   16109,   16110
********************************** N O D E S E T S **********************************
*NSET, NSET=z_symm
    4490,    4494,    4495,    4496,    4497,    4498,
    4520,    4541,    4542,    4543,    4544,    4545,
    4546,    4547,    4548,    4549,    4583,    4589,
    4590,    4591,    4592,    4593,    4594,    4595,
    4596,    4597,    4598,    4599,    4600,    4601,
    4602,    4603,    4604,    4605,    4606,    4607,
    4608,    4609,    4610,    4611,    4612,    4613,
    4614,    4615,    4616,    4617,    4618,    4619,
    4620,    4621,    4622,    4623,    4624,    4789,
    4793,    4794,    4795,    4796,    4797,    4798,
    4799,    4800,    4801,    4802,    4803,    4804,
    4805,    4806,    4807,    4808,    4809,    4810,
    4811,    4870,    4871,    4872,    4873,    4893,
    4894,    4895,    4896,    4897,    4898,    4899,
    4900,    4901,    4902,    4903,    4904,    4905,
    4906,    4907,    4908,    4909,    4910,    4911,
    4912,    4913,    4914,    4915,    4916,    4917,
    4918,    4919,    4920,    4921,    4922,    4923,
    4924,    4925,    4926,    4927,    4928,    4929,
    4930,    4931,    4932,    4933,    4934,    4935,
    4936,    4937,    4938,    4939,    4940,    4941,
    4942,    4943,    4944,    4945,    4946,    4947,
    4948,    4949,    4950,    4951,    4952,    4953,
    4954,    4955,    4956,    4957,    4958,    4959,
    4960,    4961,    4962,    4963,    4964,    4965,
    4966,    4967,    4968,    5335,    5342,    5343,
    5344,    5345,    5346,    5459,    5462,    5501,
    5502,    5503,    5504,    5505,    5506,    5507,
    5508,    5509,    5510,    5511,    5512,    5513,
    5514,    5515,    5516,    5517,    5518,    5519,
    5520,    5521,    5522,    5523,    5524,    5525,
    5526,    5527,    5528,    5529,    5530,    6005,
    6026,    6027,    6028,    6029,    6030,    6031,
    6032,    6033,    6034,    6035,    6036,    6037,
    6038,    6039,    6040,   10906,   10907,   10908,
   10909,   10985,   10986,   10987,   10988,   10989,
   10990,   10991,   10992,   10993,   10994,   10995,
   10996,   10997,   10998,   10999,   11000,   11001,
   11002,   11003,   11004,   11005,   11006,   11007,
   11008,   11009,   11010,   11011,   11012,   11013,
   11014,   11015,   11016,   11017,   11018,   11019,
   11020,   11129,   11269,   11270,   11271,   11272,
   11273,   11274,   11275,   11276,   11277,   11278,
   11279,   11280,   11281,   11282,   11283,   11284,
   11285,   11286,   11287,   11288,   11289,   11290,
   11291,   11292,   11293,   11294,   11295,   11296,
   11297,   11298,   11299,   11300,   11301,   11302,
   11303,   11304,   11305,   11306,   11307,   11308,
   11309,   11310,   11311,   11312,   11313,   11314,
   11315,   11316,   11317,   11318,   11319,   11320,
   11321,   11322,   11323,   11324,   11325,   11326,
   11327,   11328,   11329,   11330,   11331,   11332,
   11333,   11334,   11335,   11336,   11337,   11338,
   11339,   11340,   11341,   11342,   11343,   11344,
   11345,   11346,   11347,   11348,   11599,   11611,
   11612,   11613,   11614,   11740,   11743,   11744,
   11745,   11746,   11747,   11748,   11749,   11750,
   11751,   11752,   11753,   11754,   11755,   11756,
   11757,   11758,   11759,   11760,   11761,   11762,
   11763,   11764,   11765,   11766,   11767,   11768,
   11769,   11770,   11771,   11772,   12238,   12239,
   12240,   12241,   12242,   12243,   12244,   12245,
   12246,   12247,   12248,   12249,   12250,   12251,
   12252,   12893,   13111,   15653,   15654,   15655,
   15656,   15657,   15658,   15695,   15696,   15697,
   15698,   15699,   15700,   15701,   15702,   15703,
   15704,   15705,   15706,   15707,   15708,   15709,
   15710,   15711,   15712,   15857,   15858,   15859,
   15860,   15861,   15862,   15863,   15864,   15865,
   15866,   15867,   15868,   15869,   15870,   15871,
   15872,   15873,   15874,   15875,   15876,   15877,
   15878,   15879,   15880,   15881,   15882,   15883,
   15884,   15885,   15886,   15887,   15888,   15889,
   15890,   15891,   15892,   16109,   16116,   16132,
   16340,   16347,   16363,   18496,   18497,   18498,
   18499,   18500,   18501,   18538,   18539,   18540,
   18541,   18542,   18543,   18544,   18545,   18546,
   18547,   18548,   18549,   18550,   18551,   18552,
   18553,   18554,   18555,   18664,   18665,   18666,
   18667,   18668,   18669,   18706,   18707,   18708,
   18709,   18710,   18711,   18712,   18713,   18714,
   18715,   18716,   18717,   18718,   18719,   18720,
   18721,   18722,   18723,   18724,   18725,   18726,
   18727,   18728,   18729,   18730,   18731,   18732,
   18733,   18734,   18735,
*NSET, NSET=plate_left_loading
   11589,   11599,   11600,   11601,   11602,   11603,
   11604,   11605,   11606,   11607,   11608,   11609,
********************************** S I D E S E T S **********************************
*ELSET, ELSET=plate_bottom_S1
    1251,    1252,    1253,    1254,    1255,    1256,    1257,    1258,    1259,    1260,
    1261,    1262,    1263,    1264,    1265,    1266,    1267,    1268,    1269,    1270,
    1271,    1272,    1273,    1274,    1275,    1276,    1277,    1278,    1279,    1280,
    1281,    1282,    1283,    1284,    1285,    1286,    1287,    1288,    1289,    1290,
    1291,    1292,    1293,    1294,    1295,    1296,    1297,    1298,    1299,    1300,
    1301,    1302,    1303,    1304,    1305,    1306,    1307,    1308,    1309,    1310,
    1311,    1312,    1313,    1314,    1315,    1316,    1317,    1318,    1319,    1320,
    1321,    1322,    1323,    1324,    1769,    1770,    1771,    1772,    1773,    1774,
    1775,    1776,    1777,    1778,    1779,    1780,    1781,    1782,    1783,    1784,
    1785,    1786,    1787,    1788,    1789,    1790,    1791,    1792,    1793,    1794,
    1795,    1796,    1797,    1798,    1799,    1800,    1801,    1802,    1803,    1804,
    1805,    1806,    1807,    1808,    1809,    1810,    1811,    1812,    1813,    1814,
    1815,    1816,    1817,    2358,    2359,    2360,    2361,    2362,    2363,    2364,
    2365,    2366,    2367,    2368,    2369,    2370,    2371,    2372,    2373,    2374,
    2375,    2376,    2377,    2378,    2379,    2380,    2381,    2382,    2383,    2384,
    2385,    2386,    2387,    2388,    2389,    2390,    2391,    2392,    2393,    2394,
    2395,    2396,    2397,    2398,    2399,    2400,    2401,    2402,    2403,    2404,
    2405,    2406,    2407,    2408,    2409,    2410,    2411,    2412,    2413,    2414,
    2415,    2416,    2417,    2418,    2419,    2420,    2421,    2422,    2423,    2424,
    2425,    2426,    2427,    2428,    2429,    2430,    2431
*ELSET, ELSET=plate_bottom_S5
    2890,    2891,    2892,    2893,    2894,    2895,    2896,    2911,    2912,    2913,
    2914,    2915,    2916,    2917,    2932,    2933,    2934,    2935,    2936,    2937,
    2938,    2953,    2954,    2955,    2956,    2957,    2958,    2959,    2974,    2975,
    2976,    2977,    2978,    2979,    2980,    2995,    2996,    2997,    2998,    2999,
    3000,    3001,    3016,    3017,    3018,    3019,    3020,    3021,    3022
*SURFACE, NAME=plate_bottom
plate_bottom_S1, S1
plate_bottom_S5, S5
*ELSET, ELSET=mortar_to_concrete_S3
    3317,    3318,    3319,    3320,    3321,    3322,    3323,    3324,    3325,    3326,
    3327,    3328,    3329,    3330,    3331,    3332,    3333,    3334,    3335,    3336,
    3337,    3338,    3339,    3340,    3341,    3342,    3343,    3344,    3345,    3346,
    3347,    3348,    3349,    3350,    3351,    3352,    3353,    3354,    3355,    3356,
    3357,    3358,    3359,    3360,    3361,    3362,    3363,    3364,    3365,    3366,
    3367,    3368,    3369,    3370,    3371,    3372,    3373,    3374,    3375,    3376,
    3377,    3378,    3379,    3380,    3381,    3382,    3383,    3384,    3385,    3386,
    3387,    3388,    3389,    3390,    3391,    3392,    3393,    3394,    3395,    3396,
    3397,    3398,    3399,    3400,    3401,    3402,    3403,    3404,    3405,    3406,
    3407,    3408,    3409,    3410,    3411,    3412,    3413,    3414,    3415,    3416,
    3417,    3418,    3419,    3420,    3421,    3422,    3423,    3424,    3425,    3426,
    3427,    3428,    3429,    3430,    3431,    3432,    3433,    3434,    3435,    3436,
    3437,    3438,    3439,    3440,    3441,    3442,    3443,    3444,    3445,    3446,
    3447,    3448,    3449,    3450,    3451,    3452,    3453,    3454,    3455,    3456,
    3457,    3458,    3459,    3460,    3461,    3462,    3463,    3464,    3465,    3466,
    3467,    3468,    3469,    3470,    3471,    3472,    3473,    3474,    3475,    3476,
    3477,    3478,    3479,    3480,    3481,    3482,    3483,    3484,    3485,    3486,
    3487,    3488,    3489,    3490,    3491,    3492,    3493,    3494,    3495,    3496,
    3497,    3498,    3499,    3500,    3501,    3502,    3503,    3504,    3505,    3506,
    3507,    3508,    3509,    3510,    3511,    3512,    3513,    3514,    3515,    3516,
    3517,    3518,    3519,    3520,    3521,    3522,    3523,    3524,    3525,    3526,
    3527,    3528,    3529,    3530,    3531,    3532,    3533,    3534,    3535,    3536,
    3537,    3538,    3539,    3540,    3541,    3542,    3543,    3544,    3545,    3546,
    3547,    3548,    3549,    3550,    3551,    3552,    3553,    3554,    3555,    3556,
    3557,    3558,    3559,    3560,    3561,    3562,    3563,    3564,    3565,    3566,
    3567,    3568,    3569,    3570,    3571,    3572,    3573,    3574,    3575,    3576,
    3577,    3578,    3579,    3580,    3581,    3582,    3583,    3584,    3585,    3586,
    3587,    3588,    3589,    3590,    3591,    3592,    3593,    3594,    3595,    3596,
    3597,    3598,    3599,    3600,    3601,    3602,    3603,    3604,    3605,    3606,
    3607,    3608,    3609,    3610,    3611,    3612,    3613,    3614,    3615,    3616,
    3617,    3618,    3619,    3620,    3621,    3622,    3623,    3624,    3625,    3626,
    3627,    3628,    3629,    3630,    3631,    3632,    3633,    3634,    3635,    3636,
    3637,    3638,    3639,    3640,    3641,    3642,    3643,    3644,    3645,    3646,
    3647,    3648,    3649,    3650,    3651,    3652,    3653,    3654,    3655,    3656,
    3657,    3658,    3659,    3660,    3661,    3662,    3663,    3664,    3665,    3666,
    3667,    3668,    3669,    3670,    3671,    3672,    3673,    3674,    3675,    3676,
    3677,    3678,    3679,    3680,    3681,    3682,    3683,    3684,    3685,    3686,
    3687,    3688,    3689,    3690,    3691,    3692,    3693,    3694,    3695,    3696,
    3697,    3698,    3699,    3700,    3701,    3702,    3703,    3704,    3705,    3706,
    3707,    3708,    3709,    3710,    3711,    3712,    3713,    3714,    3715,    3716,
    3717,    3718,    3719,    3720,    3721,    3722,    3723,    3724,    3725,    3726,
    3727,    3728,    3729,    3730,    3731,    3732,    3733,    3734,    3735,    3736,
    3737,    3738,    3739,    3740,    3741,    3742,    3743,    3744,    3745,    3746,
    3747,    3748,    3749,    3750,    3751,    3752,    3753,    3754,    3755,    3756,
    3757,    3758,    3759,    3760,    3761,    3762,    3763,    3764
*SURFACE, NAME=mortar_to_concrete
mortar_to_concrete_S3, S3
*ELSET, ELSET=mortar_to_anchor_S5
    3317,    3318,    3319,    3320,    3321,    3322,    3323,    3324,    3325,    3326,
    3327,    3328,    3329,    3330,    3331,    3332,    3333,    3334,    3335,    3336,
    3337,    3338,    3339,    3340,    3341,    3342,    3343,    3344,    3345,    3346,
    3347,    3348,    3349,    3350,    3351,    3352,    3353,    3354,    3355,    3356,
    3357,    3358,    3359,    3360,    3361,    3362,    3363,    3364,    3365,    3366,
    3367,    3368,    3369,    3370,    3371,    3372,    3373,    3374,    3375,    3376,
    3377,    3378,    3379,    3380,    3381,    3382,    3383,    3384,    3385,    3386,
    3387,    3388,    3389,    3390,    3391,    3392,    3393,    3394,    3395,    3396,
    3397,    3398,    3399,    3400,    3401,    3402,    3403,    3404,    3405,    3406,
    3407,    3408,    3409,    3410,    3411,    3412,    3413,    3414,    3415,    3416,
    3417,    3418,    3419,    3420,    3421,    3422,    3423,    3424,    3425,    3426,
    3427,    3428,    3429,    3430,    3431,    3432,    3433,    3434,    3435,    3436,
    3437,    3438,    3439,    3440,    3441,    3442,    3443,    3444,    3445,    3446,
    3447,    3448,    3449,    3450,    3451,    3452,    3453,    3454,    3455,    3456,
    3457,    3458,    3459,    3460,    3461,    3462,    3463,    3464,    3465,    3466,
    3467,    3468,    3469,    3470,    3471,    3472,    3473,    3474,    3475,    3476,
    3477,    3478,    3479,    3480,    3481,    3482,    3483,    3484,    3485,    3486,
    3487,    3488,    3489,    3490,    3491,    3492,    3493,    3494,    3495,    3496,
    3497,    3498,    3499,    3500,    3501,    3502,    3503,    3504,    3505,    3506,
    3507,    3508,    3509,    3510,    3511,    3512,    3513,    3514,    3515,    3516,
    3517,    3518,    3519,    3520,    3521,    3522,    3523,    3524,    3525,    3526,
    3527,    3528,    3529,    3530,    3531,    3532,    3533,    3534,    3535,    3536,
    3537,    3538,    3539,    3540,    3541,    3542,    3543,    3544,    3545,    3546,
    3547,    3548,    3549,    3550,    3551,    3552,    3553,    3554,    3555,    3556,
    3557,    3558,    3559,    3560,    3561,    3562,    3563,    3564,    3565,    3566,
    3567,    3568,    3569,    3570,    3571,    3572,    3573,    3574,    3575,    3576,
    3577,    3578,    3579,    3580,    3581,    3582,    3583,    3584,    3585,    3586,
    3587,    3588,    3589,    3590,    3591,    3592,    3593,    3594,    3595,    3596,
    3597,    3598,    3599,    3600,    3601,    3602,    3603,    3604,    3605,    3606,
    3607,    3608,    3609,    3610,    3611,    3612,    3613,    3614,    3615,    3616,
    3617,    3618,    3619,    3620,    3621,    3622,    3623,    3624,    3625,    3626,
    3627,    3628,    3629,    3630,    3631,    3632,    3633,    3634,    3635,    3636,
    3637,    3638,    3639,    3640,    3641,    3642,    3643,    3644,    3645,    3646,
    3647,    3648,    3649,    3650,    3651,    3652,    3653,    3654,    3655,    3656,
    3657,    3658,    3659,    3660,    3661,    3662,    3663,    3664,    3665,    3666,
    3667,    3668,    3669,    3670,    3671,    3672,    3673,    3674,    3675,    3676,
    3677,    3678,    3679,    3680,    3681,    3682,    3683,    3684,    3685,    3686,
    3687,    3688,    3689,    3690,    3691,    3692,    3693,    3694,    3695,    3696,
    3697,    3698,    3699,    3700,    3701,    3702,    3703,    3704,    3705,    3706,
    3707,    3708,    3709,    3710,    3711,    3712,    3713,    3714,    3715,    3716,
    3717,    3718,    3719,    3720,    3721,    3722,    3723,    3724,    3725,    3726,
    3727,    3728,    3729,    3730,    3731,    3732,    3733,    3734,    3735,    3736,
    3737,    3738,    3739,    3740,    3741,    3742,    3743,    3744,    3745,    3746,
    3747,    3748,    3749,    3750,    3751,    3752,    3753,    3754,    3755,    3756,
    3757,    3758,    3759,    3760,    3761,    3762,    3763,    3764
*SURFACE, NAME=mortar_to_anchor
mortar_to_anchor_S5, S5
*ELSET, ELSET=anchor_to_mortar_S3
      16,      17,      18,      19,      35,      36,      37,      38,      54,      55,
      56,      57,      73,      74,      75,      76,      92,      93,      94,      95,
     111,     112,     113,     114,     130,     131,     132,     133,     149,     150,
     151,     152,     168,     169,     170,     171,     187,     188,     189,     190,
     206,     207,     208,     209,     225,     226,     227,     228,     244,     245,
     246,     247,     263,     264,     265,     266,     282,     283,     284,     285,
     301,     302,     303,     304,     320,     321,     322,     323,     339,     340,
     341,     342,     358,     359,     360,     361,     377,     378,     379,     380,
     552,     553,     554,     571,     572,     573,     590,     591,     592,     609,
     610,     611,     628,     629,     630,     647,     648,     649,     666,     667,
     668,     685,     686,     687,     704,     705,     706,     723,     724,     725,
     742,     743,     744,     761,     762,     763,     780,     781,     782,     799,
     800,     801,     818,     819,     820,     837,     838,     839,     856,     857,
     858,     875,     876,     877,     894,     895,     896,     913,     914,     915
*ELSET, ELSET=anchor_to_mortar_S4
       1,       2,       3,      20,      21,      22,      39,      40,      41,      58,
      59,      60,      77,      78,      79,      96,      97,      98,     115,     116,
     117,     134,     135,     136,     153,     154,     155,     172,     173,     174,
     191,     192,     193,     210,     211,     212,     229,     230,     231,     248,
     249,     250,     267,     268,     269,     286,     287,     288,     305,     306,
     307,     324,     325,     326,     343,     344,     345,     362,     363,     364,
     555,     556,     557,     558,     574,     575,     576,     577,     593,     594,
     595,     596,     612,     613,     614,     615,     631,     632,     633,     634,
     650,     651,     652,     653,     669,     670,     671,     672,     688,     689,
     690,     691,     707,     708,     709,     710,     726,     727,     728,     729,
     745,     746,     747,     748,     764,     765,     766,     767,     783,     784,
     785,     786,     802,     803,     804,     805,     821,     822,     823,     824,
     840,     841,     842,     843,     859,     860,     861,     862,     878,     879,
     880,     881,     897,     898,     899,     900,     916,     917,     918,     919
*SURFACE, NAME=anchor_to_mortar
anchor_to_mortar_S3, S3
anchor_to_mortar_S4, S4
