*Heading
** Job name: bondedAnchor Model name: Model-1
** Generated by: Abaqus/CAE 2019
**
** ############################################################
** BARE ANCHOR -- LOAD INTRODUCTION STUDY, OPTION F (rigid cross-section at tPlate/3)
** ############################################################
**
** Generated directly and completely by:
** mesh/Pryout_elastic_bareanchor_section.py
** This is the fixed standalone M20 / hef80 / option-F model.
**
** The load height is plate_cut_h = tPlate/3 = 6.667 mm, the plane where the
** full-fixture model
** prescribes its displacement on, so the shear resultant sits tPlate/3 above the
** concrete surface -- that eccentricity is what rotates the anchor.
**
** RF1 is a HALF-MODEL reaction: the full specimen force is 2 x RF1.
**
** OPTION F -- the WHOLE shaft cross-section at y = tPlate/3 tied to a reference node
** and made to move as a rigid body in the loading plane. u1 is prescribed at that
** reference node; its vertical translation and its rotation about z are left free.
**
** Physically: cut the shaft at a third of the plate height and load it there through a
** rigid diaphragm, instead of pushing on a patch of its outer skin. This is the only
** option that loads the complete section rather than the -x half of the lateral
** surface, so it has none of the local artifacts the others trade against -- no
** ovalisation restraint (A), no dimple (E), no lopsided patch centroid to place (B).
**
** Why rotation is NOT suppressed: the constraint fixes u1 and u2 only on ONE node
** plane. du1/dy is unconstrained, so rotation about z remains whatever the mechanics
** dictate -- and it is reported directly as UR3 at the reference node, which no other
** deck in this study measures.
**
** Why the eccentricity is EXACT: UR3 at the reference node is free and carries no
** load, so the constraint's reaction moment about z is identically zero. A force
** system with zero moment about that node has its line of action through it, and the
** node is at y = tPlate/3. Nothing acts on the shaft above the section, so the moment
** the concrete sees at y = 0 is V * tPlate/3 exactly. Check RM3 = 0 in the results;
** that is the whole argument, and it is one number.
**
** The accepted error: the cross-section is forced to stay plane and rigid, i.e. a
** Bernoulli assumption imposed over one node plane, which suppresses the shear warping
** of that section and stiffens it slightly. Judge it by comparing the secant stiffness
** against options A and B rather than by assertion.
**
** Global preprint options:
**  - echo=NO      : do not echo the input file to the .dat file
**  - model=NO     : do not print full model definition
**  - history=NO   : do not print history output definitions
**  - contact=NO   : do not print contact definitions
*Preprint, echo=NO, model=NO, history=NO, contact=NO

**
** ============================================================
** PART DEFINITIONS
** ============================================================
**
** Each *Part defines geometry, mesh, sections, and orientations
** independently before being assembled later.
**

*Part, name=concrete
** Import the concrete mesh from an external input file
*Include, input="./mesh/concrete.inp"

** Assign a solid (continuum) section to the concrete elements
**  - elset=concrete : element set defined in the included mesh
**  - material=concrete : material defined later
*Solid Section, elset=concrete, material=concrete
*End Part

** ------------------------------------------------------------

*Part, name=steel
** BARE ANCHOR -- the steel mesh holds the anchor and the mortar only. There is no
** fixture plate, washer or nut in this model.
**
** ELEMENT TYPE: the anchor is C3D8I, NOT C3D8R. Reduced integration with hourglass
** control produces spurious oscillation in both displacement and stress wherever the
** load is introduced over a few nodes -- which is what every deck in this study does
** -- and its stabilisation forces are invisible to NFORC, so nodal-force
** post-processing of the loaded region loses part of the load path. C3D8I has no
** hourglass modes, does not shear-lock in bending (the shaft IS a bending member),
** and keeps the same 8 nodes per element. Set in Pryout_bondedAnchor.py; grep
** ./mesh/steel.inp for C3D8R to confirm none is left.
*Include, input="./mesh/steel.inp"

** Assign material to the steel anchor elements
*Solid Section, elset=ANCHOR, material=STEEL_ANCHOR

** Define a cylindrical local coordinate system
** This is later used for the cohesive (mortar) behavior
*ORIENTATION, name=MORTAR_CYL, SYSTEM=CYLINDRICAL
0, 0, 0,   0, 1, 0
**
** First point: origin of the coordinate system
** Second point: direction of the cylinder axis

** ------------------------------------------------------------
** Cohesive section for the mortar layer
** ------------------------------------------------------------
**  - elset=MORTAR : cohesive elements
**  - material=stick_slip : traction-separation law
**  - response=TRACTION SEPARATION : cohesive formulation
**  - ORIENTATION=MORTAR_CYL : defines normal and shear directions
**  - STACK DIRECTION=ORIENTATION : thickness direction follows orientation
*COHESIVE SECTION, elset=MORTAR, material=stick_slip, response=TRACTION SEPARATION, ORIENTATION=MORTAR_CYL, STACK DIRECTION=ORIENTATION
*End Part

**
** ============================================================
** ASSEMBLY
** ============================================================
**
** NOTE ON FORMATTING: no blank lines anywhere from here to *End Assembly. A blank
** line after a *TIE data line is read as an empty surface name and is FATAL
** ("THE SECONDARY SURFACE NAME MUST BE GIVEN ON *CONTACT PAIR OR *TIE. NOTE THAT
** EMPTY LINES ARE NOT ACCEPTABLE AS DATA LINES"), and it cascades into bogus
** "SELF CONTACTING SURFACE IS CURRENTLY NOT ALLOWED FOR TYING SURFACES" errors that
** point nowhere near the cause -- 8 fatal errors from one blank line. Separate blocks
** with ** comment lines, never with blanks. (*SURFACE merely warns, which is why this
** is easy to miss.)
*Assembly, name=Assembly
** Create an instance of the concrete part
*Instance, name=concrete-1, part=concrete
*End Instance
** Create an instance of the steel part
*Instance, name=steel-1, part=steel
*End Instance
** ------------------------------------------------------------
** TIE CONSTRAINTS
** ------------------------------------------------------------
** Tie constraints enforce perfect bonding (no slip, no separation).
** First surface listed is the secondary (slave), second is the main (master).
**
** Only two ties in this variant, and NO contact pairs at all:
**   Tie anchor to mortar
**   Tie mortar to concrete
** With no fixture there is nothing to tie the nut/washer to and nothing bearing on
** the concrete surface. The shaft is still fully restrained through the mortar bond,
** so removing the plate introduces no rigid-body mode.
**
** KNOWN PRE-EXISTING ISSUE, common to all five decks and NOT caused by the load
** introduction: MORTAR_TO_CONCRETE reports 1018 nodes with no intersection found and
** explicit "SECONDARY NODE ... WILL NOT BE TIED TO THE MAIN SURFACE ... DISTANCE FROM
** THE MAIN SURFACE IS GREATER THAN THE POSITION TOLERANCE". With ADJUST=NO and a 9 mm
** hex20 concrete mesh against a 2.5 mm mortar mesh on a curved borehole, part of the
** mortar->concrete bond is simply absent. Note also that the coarse surface (concrete)
** is the SECONDARY here and the fine one (mortar) the MAIN, which is the inverse of
** the usual recommendation and a likely contributor. This affects load transfer into
** the concrete identically in every deck, so it does not disturb the comparison
** BETWEEN options -- but it should be resolved before any single curve is trusted
** against a test.
*TIE, NAME=ANCHOR_TO_MORTAR, ADJUST=NO, TYPE=SURFACE TO SURFACE
steel-1.mortar_to_anchor, steel-1.anchor_to_mortar
*TIE, NAME=MORTAR_TO_CONCRETE, ADJUST=NO, TYPE=SURFACE TO SURFACE
concrete-1.concrete_to_mortar, steel-1.mortar_to_concrete
** ------------------------------------------------------------
** LOAD INTRODUCTION -- RIGID CROSS-SECTION AT tPlate/3   *** VARIANT ***
** ------------------------------------------------------------
** Section reference node. The prescribed displacement is applied here, not on the
** shaft, and the total shear is read back as RF1 (x2 for the full specimen).
**
** ITS y IS THE LOAD ECCENTRICITY AND IS NOT COSMETIC. y = tPlate/3 = 6.66667 matches
** the full-fixture model, which prescribes its displacement on the plane
** plate_cut_h = tPlate/3 of the plate. It scales with dAnchor (tPlate = dAnchor);
** update it if the diameter changes.
**
** x and z, by contrast, ARE immaterial here, and that is a property of a KINEMATIC
** coupling rather than luck. The constraint is u_i = u_RP + omega x (x_i - x_RP), and
** the boundary conditions below set omega_x = omega_y = 0 (they are the half-model
** symmetry conditions, see the *Boundary block further down), which removes every term
** in which x_RP or z_RP could appear. The node is put on the shaft axis in the load
** plane so that its remaining free dofs read as the section's own centroidal quantities
** -- u2 is the anchor's uplift there, UR3 is the anchor's rotation there. It coincides
** with steel node 5004 at (0, 6.66667, 0); that is legal and harmless, since 5004 is
** simply a slave node with a zero lever arm.
**
** NOT named DRIVE: postproc/fit.py keys on a DRIVE nodeset to recognise option B's
** distributing coupling, and it must keep rejecting this deck -- the mechanism here is
** a different one.
*Node, nset=SECRP
999002, 0., 6.66667, 0.
** The 51 nodes of the shaft cross-section on the plate_cut_h webcut plane -- perimeter
** AND interior, which is why anchor_load_section had to be a volume selection in the
** journal while every other load set there is a "node in surface" selection. *COUPLING
** takes a surface, not a nodeset, so the nodeset is wrapped as a node-based surface.
**
** The trailing 1. is a nodal weight. *KINEMATIC never uses weights -- it is a rigid
** kinematic constraint, not a weighted distribution -- but with the field left blank
** Abaqus warns "THE CONTACT AREA OR DISTRIBUTING WEIGHT ASSOCIATED WITH 51 NODES IS
** ZERO OR NEGATIVE ... A ZERO IS ASSUMED FOR THE DISTRIBUTING WEIGHT FACTOR". Harmless
** here, but writing the 1. keeps this deck's datacheck output comparable to the others.
*Surface, type=NODE, name=sec_nodes
steel-1.anchor_load_section, 1.
** The constraint.
**
** *KINEMATIC, not *DISTRIBUTING: this one is meant to be rigid, and unlike
** *DISTRIBUTING it can couple a SUBSET of the translations. Dofs 1 and 2 are coupled,
** dof 3 is not. Both halves of what that means were MEASURED on a one-element test
** model (2026-07-29) rather than reasoned about, because the two are easy to confuse:
**
**   1. The dof list IS honoured. With "1, 2" the coupled face's u3 comes out nonzero and
**      varying (+-5.12e-3 on a 0.01 stroke); with "1, 3" it is 0.000 at every node. So
**      this section really is rigid in the loading plane and free out of it. It is NOT
**      quietly a full rigid body.
**   2. But a *BOUNDARY on dof 3 of a slave node is SILENTLY IGNORED. Abaqus takes all
**      three translations of a kinematic-coupling slave node out of reach of a direct
**      boundary condition even though it constrains only the ones listed. Same test
**      model: u3 = 0 imposed on one face node gives RF3 = -138 N with no coupling, and
**      with the coupling gives no reaction at all and an unchanged u3. A zSYMM-type BC
**      at least prints "DEGREE OF FREEDOM 3 HAS BEEN ELIMINATED ... ZSYMM MAY NOT BE
**      APPLIED AT THIS NODE"; a plain "node, 3, 3" prints NOTHING.
**
** So the price of "1, 2" is real and must not be glossed: 10 of the 51 section nodes lie
** on z = 0 and are in steel-1.z_symm, so the model asks for u3 = 0 there and does not
** get it. The symmetry plane has a 10-node hole in it at the load plane. The error is
** second order -- symmetric geometry loaded along x has u3 = 0 on that plane anyway, so
** those free dofs should simply come out at ~0 -- but it IS an error, so check it: max
** |u3| over those 10 nodes must be negligible against |u|.
**
** If exact symmetry there is ever preferred over the smaller restraint, changing "1, 2"
** to "1, 3" gives u3 = 0 at all 51 nodes exactly and drops no boundary condition. The
** price is that the section can then not breathe radially in z at all, a real extra
** stiffening of the same family as option A's ovalisation restraint. That is a modelling
** choice, not a bug fix -- do not make it silently.
**
** What dofs 1 and 2 buy: u1 uniform over the section and u2 linear across it, i.e.
** plane sections remain plane -- the Bernoulli approximation this option accepts. What
** they do NOT buy is any restraint on du1/dy, because this is ONE node plane. Rotation
** about z stays free, which is the entire point of the study; what WOULD suppress it is
** prescribing u1 at two different heights at once, as the REFERENCE deck does over a
** 20 mm band.
*Coupling, constraint name=SEC_RIGID, ref node=SECRP, surface=sec_nodes
*Kinematic
1, 2
*End Assembly
**
** ============================================================
** MATERIAL DEFINITIONS
** ============================================================
**
*Material, name=STEEL_ANCHOR
** Linear elastic steel properties
** Density (mass units consistent with model units)
*Elastic
200000., 0.33
*DENSITY
7.85e-9
** No STEEL_PLATE or STEEL_FASTENER material in this variant: no plate, washer or nut.
*Material, name=CONCRETE
** Simplified linear elastic concrete model
*Elastic
27000., 0.18
*DENSITY
2.4e-9
** ------------------------------------------------------------
** Cohesive (stick-slip) material for mortar
** ------------------------------------------------------------
*Material, name=stick_slip
** Elastic traction-separation stiffness
** Normal, shear-1, shear-2 stiffness values
*Elastic, type=TRACTION
5400, 2700, 2700
*DENSITY
2.0e-9
**
** ============================================================
** CONTACT INTERACTIONS
** ============================================================
**
** NONE. This variant has no contact anywhere: with the plate removed nothing rests on
** the concrete surface and nothing bears in a hole. All load transfer is through the
** two tie constraints above.
**
** ============================================================
** BOUNDARY CONDITIONS
** ============================================================
**
** Fully constrain outer concrete boundaries (encastre-like behavior)
*Boundary
concrete-1.left,   1, 1
concrete-1.left,   2, 2
concrete-1.left,   3, 3
concrete-1.right,  1, 1
concrete-1.right,  2, 2
concrete-1.right,  3, 3
concrete-1.back,   1, 1
concrete-1.back,   2, 2
concrete-1.back,   3, 3
concrete-1.bottom, 1, 1
concrete-1.bottom, 2, 2
concrete-1.bottom, 3, 3
**
** Symmetry boundary conditions in Z-direction
*Boundary
steel-1.z_symm, zSYMM
concrete-1.z_symm, zSYMM
**
** The section reference node carries the half-model symmetry conditions and nothing
** else. Dofs 3, 4, 5 = u3, UR1, UR2 -- exactly the triple zSYMM sets, applied here
** because SECRP is where the rigid section's rotational dofs live.
**
** These add NO restraint to the mechanics. UR2 = 0 forbids twist about the anchor axis
** and UR1 = 0 forbids out-of-plane tilt; both are zero by symmetry in a model whose
** loading is along x and whose geometry is mirrored at z = 0. RM1 and RM2 are their
** reactions and should come out at ~0 -- check them. u3 = 0 additionally removes a dof
** that appears in no constraint equation at all (dof 3 is not coupled), and would
** otherwise be a numerical singularity; its reaction RF3 is identically zero.
**
** Note that these three do NOT repair the 10 section nodes whose zSYMM is dropped (see
** the *Coupling comment): with dof 3 uncoupled, u3 at SECRP is connected to nothing.
**
** What is deliberately left FREE: dof 2, so the anchor may lift -- it does, by about a
** quarter of its lateral displacement in the other decks, which is the frictionless-rig
** idealisation -- and dof 6, UR3, the rotation this whole study exists to permit.
*Boundary
SECRP, 3, 3
SECRP, 4, 4
SECRP, 5, 5
**
** No base-state clamp on steel-1.anchor_left_loading in this deck. It carries no
** boundary condition at all -- the load goes in through the anchor_load_section nodeset
** and the coupling, and prescribing u1 here as well would fight the coupling and
** overconstrain the model. It is an output set only, and its u1(y) profile is still the
** rotation diagnostic.
**
** ============================================================
** ANALYSIS STEP
** ============================================================
**
*Step, name=loading, nlgeom=no, inc=100000
** Quasi-static dynamic step, used for convergence robustness. The fourth value caps
** the increment at 0.01 of the step, which keeps the frame spacing even across all
** five decks so their curves can be overlaid. Do not drop it.
*Dynamic, APPLICATION=QUASI-STATIC
0.0001, 1, 1e-08, 0.01
**
** ============================================================
** LOAD INTRODUCTION -- OPTION F (rigid cross-section at tPlate/3)  *** VARIANT ***
** ============================================================
** Driven at the section reference node: one scalar prescribed displacement, delivered
** to the whole cross-section at tPlate/3 through a rigid diaphragm. Displacement
** control is retained, so the softening branch after the pry-out peak stays traceable.
**
** Because UR3 is free and unloaded, RM3 = 0 at every increment and the line of action
** of the shear passes exactly through y = tPlate/3. That is the eccentricity, measured
** rather than argued -- one number in the history output.
*Boundary, type=displacement
SECRP, 1, 1, 5.
**
** ============================================================
** OUTPUT REQUESTS
** ============================================================
**

** Print contact information to the .dat file
*Print, contact=yes

** Write restart files every increment
*Restart, write, frequency=1, overlay

** Include external output request files
*Include, input="./incfiles/output.inc"
*Include, input="./incfiles/fileOutput.inc"

*End Step
