********************************** N O D E S **********************************
*NODE, NSET=ALLNODES
   18463,   -8.000000e+00,   -1.000000e+02,    0.000000e+00
   18464,    8.000000e+00,   -1.000000e+02,    3.673940e-15
   18465,   -4.000000e+00,   -1.000000e+02,    0.000000e+00
   18466,    0.000000e+00,   -1.000000e+02,    0.000000e+00
   18467,    4.000000e+00,   -1.000000e+02,    0.000000e+00
   18468,   -6.928203e+00,   -1.000000e+02,   -4.000000e+00
   18469,   -4.000000e+00,   -1.000000e+02,   -6.928203e+00
   18470,   -1.469576e-15,   -1.000000e+02,   -8.000000e+00
   18471,    4.000000e+00,   -1.000000e+02,   -6.928203e+00
   18472,    6.928203e+00,   -1.000000e+02,   -4.000000e+00
   18473,   -1.654799e+00,   -1.000000e+02,   -3.423652e+00
   18474,   -4.166067e+00,   -1.000000e+02,   -2.494552e+00
   18475,    3.366241e+00,   -1.000000e+02,   -4.575300e+00
   18476,    1.222426e+00,   -1.000000e+02,   -3.926771e+00
   18477,    4.764815e+00,   -1.000000e+02,   -2.858433e+00
   18478,   -8.000000e+00,    6.666667e+00,    1.183825e-15
   18479,   -8.000000e+00,    2.000000e+01,    0.000000e+00
   18480,   -8.000000e+00,    1.111111e+01,   -6.803593e-17
   18481,   -8.000000e+00,    1.555556e+01,   -3.401797e-16
   18482,    8.000000e+00,    6.666667e+00,    0.000000e+00
   18483,    6.928203e+00,    6.666667e+00,   -4.000000e+00
   18484,    4.000000e+00,    6.666667e+00,   -6.928203e+00
   18485,    4.898587e-16,    6.666667e+00,   -8.000000e+00
   18486,   -4.000000e+00,    6.666667e+00,   -6.928203e+00
   18487,   -6.928203e+00,    6.666667e+00,   -4.000000e+00
   18488,    8.000000e+00,    2.000000e+01,   -3.673940e-15
   18489,    8.000000e+00,    1.555556e+01,   -3.401797e-16
   18490,    8.000000e+00,    1.111111e+01,   -6.803593e-17
   18491,    6.928203e+00,    2.000000e+01,   -4.000000e+00
   18492,    4.000000e+00,    2.000000e+01,   -6.928203e+00
   18493,   -3.062855e-15,    2.000000e+01,   -8.000000e+00
   18494,   -4.000000e+00,    2.000000e+01,   -6.928203e+00
   18495,   -6.928203e+00,    2.000000e+01,   -4.000000e+00
   18496,   -6.928203e+00,    1.555556e+01,   -4.000000e+00
   18497,   -6.928203e+00,    1.111111e+01,   -4.000000e+00
   18498,   -4.000000e+00,    1.555556e+01,   -6.928203e+00
   18499,   -4.000000e+00,    1.111111e+01,   -6.928203e+00
   18500,   -3.062855e-15,    1.555556e+01,   -8.000000e+00
   18501,   -3.062855e-15,    1.111111e+01,   -8.000000e+00
   18502,    4.000000e+00,    1.555556e+01,   -6.928203e+00
   18503,    4.000000e+00,    1.111111e+01,   -6.928203e+00
   18504,    6.928203e+00,    1.555556e+01,   -4.000000e+00
   18505,    6.928203e+00,    1.111111e+01,   -4.000000e+00
   18506,    8.000000e+00,    0.000000e+00,    6.123234e-16
   18507,    8.000000e+00,    3.333333e+00,    2.719262e-32
   18508,   -8.000000e+00,    0.000000e+00,    0.000000e+00
   18509,   -8.000000e+00,    3.333333e+00,    2.719262e-32
   18510,    6.928203e+00,    0.000000e+00,   -4.000000e+00
   18511,    4.000000e+00,    0.000000e+00,   -6.928203e+00
   18512,    4.898587e-16,    0.000000e+00,   -8.000000e+00
   18513,   -4.000000e+00,    0.000000e+00,   -6.928203e+00
   18514,   -6.928203e+00,    0.000000e+00,   -4.000000e+00
   18515,    6.928203e+00,    3.333333e+00,   -4.000000e+00
   18516,    4.000000e+00,    3.333333e+00,   -6.928203e+00
   18517,    2.266216e-15,    3.333333e+00,   -8.000000e+00
   18518,   -4.000000e+00,    3.333333e+00,   -6.928203e+00
   18519,   -6.928203e+00,    3.333333e+00,   -4.000000e+00
   18520,   -8.000000e+00,   -4.000000e+00,   -2.204364e-15
   18521,   -8.000000e+00,   -8.000000e+00,   -1.959435e-15
   18522,   -8.000000e+00,   -1.200000e+01,   -1.714506e-15
   18523,   -8.000000e+00,   -1.600000e+01,   -1.469576e-15
   18524,   -8.000000e+00,   -2.000000e+01,   -1.224647e-15
   18525,   -8.000000e+00,   -2.400000e+01,   -9.797174e-16
   18526,   -8.000000e+00,   -2.800000e+01,   -7.347881e-16
   18527,   -8.000000e+00,   -3.200000e+01,   -4.898587e-16
   18528,   -8.000000e+00,   -3.600000e+01,   -2.449294e-16
   18529,   -8.000000e+00,   -4.000000e+01,    0.000000e+00
   18530,   -8.000000e+00,   -4.400000e+01,    2.449294e-16
   18531,   -8.000000e+00,   -4.800000e+01,    4.898587e-16
   18532,   -8.000000e+00,   -5.200000e+01,    7.347881e-16
   18533,   -8.000000e+00,   -5.600000e+01,    9.797174e-16
   18534,   -8.000000e+00,   -6.000000e+01,    1.224647e-15
   18535,   -8.000000e+00,   -6.400000e+01,    1.469576e-15
   18536,   -8.000000e+00,   -6.800000e+01,    1.714506e-15
   18537,   -8.000000e+00,   -7.200000e+01,    1.959435e-15
   18538,   -8.000000e+00,   -7.600000e+01,    2.204364e-15
   18539,   -8.000000e+00,   -8.000000e+01,    2.449294e-15
   18540,   -8.000000e+00,   -8.400000e+01,    2.694223e-15
   18541,   -8.000000e+00,   -8.800000e+01,    2.939152e-15
   18542,   -8.000000e+00,   -9.200000e+01,    3.184082e-15
   18543,   -8.000000e+00,   -9.600000e+01,    3.429011e-15
   18544,    8.000000e+00,   -9.600000e+01,    3.429011e-15
   18545,    8.000000e+00,   -9.200000e+01,    3.184082e-15
   18546,    8.000000e+00,   -8.800000e+01,    2.939152e-15
   18547,    8.000000e+00,   -8.400000e+01,    2.694223e-15
   18548,    8.000000e+00,   -8.000000e+01,    2.449294e-15
   18549,    8.000000e+00,   -7.600000e+01,    2.204364e-15
   18550,    8.000000e+00,   -7.200000e+01,    1.959435e-15
   18551,    8.000000e+00,   -6.800000e+01,    1.714506e-15
   18552,    8.000000e+00,   -6.400000e+01,    1.469576e-15
   18553,    8.000000e+00,   -6.000000e+01,    1.224647e-15
   18554,    8.000000e+00,   -5.600000e+01,    9.797174e-16
   18555,    8.000000e+00,   -5.200000e+01,    7.347881e-16
   18556,    8.000000e+00,   -4.800000e+01,    4.898587e-16
   18557,    8.000000e+00,   -4.400000e+01,    2.449294e-16
   18558,    8.000000e+00,   -4.000000e+01,    0.000000e+00
   18559,    8.000000e+00,   -3.600000e+01,   -2.449294e-16
   18560,    8.000000e+00,   -3.200000e+01,   -4.898587e-16
   18561,    8.000000e+00,   -2.800000e+01,   -7.347881e-16
   18562,    8.000000e+00,   -2.400000e+01,   -9.797174e-16
   18563,    8.000000e+00,   -2.000000e+01,   -1.224647e-15
   18564,    8.000000e+00,   -1.600000e+01,   -1.469576e-15
   18565,    8.000000e+00,   -1.200000e+01,   -1.714506e-15
   18566,    8.000000e+00,   -8.000000e+00,   -1.959435e-15
   18567,    8.000000e+00,   -4.000000e+00,   -2.204364e-15
   18568,    4.000000e+00,    2.000000e+01,    0.000000e+00
   18569,    0.000000e+00,    2.000000e+01,    0.000000e+00
   18570,   -4.000000e+00,    2.000000e+01,    0.000000e+00
   18571,   -4.000000e+00,    1.555556e+01,    0.000000e+00
   18572,   -4.000000e+00,    1.111111e+01,    0.000000e+00
   18573,   -4.000000e+00,    6.666667e+00,    0.000000e+00
   18574,   -4.000000e+00,    3.333333e+00,    0.000000e+00
   18575,   -4.000000e+00,   -1.776357e-15,    0.000000e+00
   18576,   -4.000000e+00,   -4.000000e+00,    0.000000e+00
   18577,   -4.000000e+00,   -8.000000e+00,    0.000000e+00
   18578,   -4.000000e+00,   -1.200000e+01,    0.000000e+00
   18579,   -4.000000e+00,   -1.600000e+01,    0.000000e+00
   18580,   -4.000000e+00,   -2.000000e+01,    0.000000e+00
   18581,   -4.000000e+00,   -2.400000e+01,    0.000000e+00
   18582,   -4.000000e+00,   -2.800000e+01,    0.000000e+00
   18583,   -4.000000e+00,   -3.200000e+01,    0.000000e+00
   18584,   -4.000000e+00,   -3.600000e+01,    0.000000e+00
   18585,   -4.000000e+00,   -4.000000e+01,    0.000000e+00
   18586,   -4.000000e+00,   -4.400000e+01,    0.000000e+00
   18587,   -4.000000e+00,   -4.800000e+01,    0.000000e+00
   18588,   -4.000000e+00,   -5.200000e+01,    0.000000e+00
   18589,   -4.000000e+00,   -5.600000e+01,    0.000000e+00
   18590,   -4.000000e+00,   -6.000000e+01,    0.000000e+00
   18591,   -4.000000e+00,   -6.400000e+01,    0.000000e+00
   18592,   -4.000000e+00,   -6.800000e+01,    0.000000e+00
   18593,   -4.000000e+00,   -7.200000e+01,    0.000000e+00
   18594,   -4.000000e+00,   -7.600000e+01,    0.000000e+00
   18595,   -4.000000e+00,   -8.000000e+01,    0.000000e+00
   18596,   -4.000000e+00,   -8.400000e+01,    0.000000e+00
   18597,   -4.000000e+00,   -8.800000e+01,    0.000000e+00
   18598,   -4.000000e+00,   -9.200000e+01,    0.000000e+00
   18599,   -4.000000e+00,   -9.600000e+01,    0.000000e+00
   18600,    2.220446e-16,    1.555556e+01,    0.000000e+00
   18601,   -4.440892e-16,    1.111111e+01,    0.000000e+00
   18602,   -4.440892e-16,    6.666667e+00,    0.000000e+00
   18603,    4.440892e-16,    3.333333e+00,    0.000000e+00
   18604,    4.440892e-16,    0.000000e+00,    0.000000e+00
   18605,    6.661338e-16,   -4.000000e+00,    0.000000e+00
   18606,    6.661338e-16,   -8.000000e+00,    0.000000e+00
   18607,   -6.661338e-16,   -1.200000e+01,    0.000000e+00
   18608,   -4.440892e-16,   -1.600000e+01,    0.000000e+00
   18609,   -2.220446e-16,   -2.000000e+01,    0.000000e+00
   18610,    2.220446e-16,   -2.400000e+01,    0.000000e+00
   18611,   -2.220446e-16,   -2.800000e+01,    0.000000e+00
   18612,    0.000000e+00,   -3.200000e+01,    0.000000e+00
   18613,    0.000000e+00,   -3.600000e+01,    0.000000e+00
   18614,    0.000000e+00,   -4.000000e+01,    0.000000e+00
   18615,    0.000000e+00,   -4.400000e+01,    0.000000e+00
   18616,    0.000000e+00,   -4.800000e+01,    0.000000e+00
   18617,    0.000000e+00,   -5.200000e+01,    0.000000e+00
   18618,    0.000000e+00,   -5.600000e+01,    0.000000e+00
   18619,   -4.440892e-16,   -6.000000e+01,    0.000000e+00
   18620,    4.440892e-16,   -6.400000e+01,    0.000000e+00
   18621,    4.440892e-16,   -6.800000e+01,    0.000000e+00
   18622,    0.000000e+00,   -7.200000e+01,    0.000000e+00
   18623,   -4.440892e-16,   -7.600000e+01,    0.000000e+00
   18624,    0.000000e+00,   -8.000000e+01,    0.000000e+00
   18625,    0.000000e+00,   -8.400000e+01,    0.000000e+00
   18626,    0.000000e+00,   -8.800000e+01,    0.000000e+00
   18627,    0.000000e+00,   -9.200000e+01,    0.000000e+00
   18628,    0.000000e+00,   -9.600000e+01,    0.000000e+00
   18629,    4.000000e+00,    1.555556e+01,    0.000000e+00
   18630,    4.000000e+00,    1.111111e+01,    0.000000e+00
   18631,    4.000000e+00,    6.666667e+00,    0.000000e+00
   18632,    4.000000e+00,    3.333333e+00,    0.000000e+00
   18633,    4.000000e+00,    1.776357e-15,    0.000000e+00
   18634,    4.000000e+00,   -4.000000e+00,    0.000000e+00
   18635,    4.000000e+00,   -8.000000e+00,    0.000000e+00
   18636,    4.000000e+00,   -1.200000e+01,    0.000000e+00
   18637,    4.000000e+00,   -1.600000e+01,    0.000000e+00
   18638,    4.000000e+00,   -2.000000e+01,    0.000000e+00
   18639,    4.000000e+00,   -2.400000e+01,    0.000000e+00
   18640,    4.000000e+00,   -2.800000e+01,    0.000000e+00
   18641,    4.000000e+00,   -3.200000e+01,    0.000000e+00
   18642,    4.000000e+00,   -3.600000e+01,    0.000000e+00
   18643,    4.000000e+00,   -4.000000e+01,    0.000000e+00
   18644,    4.000000e+00,   -4.400000e+01,    0.000000e+00
   18645,    4.000000e+00,   -4.800000e+01,    0.000000e+00
   18646,    4.000000e+00,   -5.200000e+01,    0.000000e+00
   18647,    4.000000e+00,   -5.600000e+01,    0.000000e+00
   18648,    4.000000e+00,   -6.000000e+01,    0.000000e+00
   18649,    4.000000e+00,   -6.400000e+01,    0.000000e+00
   18650,    4.000000e+00,   -6.800000e+01,    0.000000e+00
   18651,    4.000000e+00,   -7.200000e+01,    0.000000e+00
   18652,    4.000000e+00,   -7.600000e+01,    0.000000e+00
   18653,    4.000000e+00,   -8.000000e+01,    0.000000e+00
   18654,    4.000000e+00,   -8.400000e+01,    0.000000e+00
   18655,    4.000000e+00,   -8.800000e+01,    0.000000e+00
   18656,    4.000000e+00,   -9.200000e+01,    0.000000e+00
   18657,    4.000000e+00,   -9.600000e+01,    0.000000e+00
   18658,   -6.928203e+00,   -4.000000e+00,   -4.000000e+00
   18659,   -4.000000e+00,   -4.000000e+00,   -6.928203e+00
   18660,   -1.286498e-15,   -4.000000e+00,   -8.000000e+00
   18661,    4.000000e+00,   -4.000000e+00,   -6.928203e+00
   18662,    6.928203e+00,   -4.000000e+00,   -4.000000e+00
   18663,   -6.928203e+00,   -8.000000e+00,   -4.000000e+00
   18664,   -4.000000e+00,   -8.000000e+00,   -6.928203e+00
   18665,   -1.286498e-15,   -8.000000e+00,   -8.000000e+00
   18666,    4.000000e+00,   -8.000000e+00,   -6.928203e+00
   18667,    6.928203e+00,   -8.000000e+00,   -4.000000e+00
   18668,   -6.928203e+00,   -1.200000e+01,   -4.000000e+00
   18669,   -4.000000e+00,   -1.200000e+01,   -6.928203e+00
   18670,   -1.286498e-15,   -1.200000e+01,   -8.000000e+00
   18671,    4.000000e+00,   -1.200000e+01,   -6.928203e+00
   18672,    6.928203e+00,   -1.200000e+01,   -4.000000e+00
   18673,   -6.928203e+00,   -1.600000e+01,   -4.000000e+00
   18674,   -4.000000e+00,   -1.600000e+01,   -6.928203e+00
   18675,   -3.062855e-15,   -1.600000e+01,   -8.000000e+00
   18676,    4.000000e+00,   -1.600000e+01,   -6.928203e+00
   18677,    6.928203e+00,   -1.600000e+01,   -4.000000e+00
   18678,   -6.928203e+00,   -2.000000e+01,   -4.000000e+00
   18679,   -4.000000e+00,   -2.000000e+01,   -6.928203e+00
   18680,   -1.286498e-15,   -2.000000e+01,   -8.000000e+00
   18681,    4.000000e+00,   -2.000000e+01,   -6.928203e+00
   18682,    6.928203e+00,   -2.000000e+01,   -4.000000e+00
   18683,   -6.928203e+00,   -2.400000e+01,   -4.000000e+00
   18684,   -4.000000e+00,   -2.400000e+01,   -6.928203e+00
   18685,   -3.062855e-15,   -2.400000e+01,   -8.000000e+00
   18686,    4.000000e+00,   -2.400000e+01,   -6.928203e+00
   18687,    6.928203e+00,   -2.400000e+01,   -4.000000e+00
   18688,   -6.928203e+00,   -2.800000e+01,   -4.000000e+00
   18689,   -4.000000e+00,   -2.800000e+01,   -6.928203e+00
   18690,   -3.062855e-15,   -2.800000e+01,   -8.000000e+00
   18691,    4.000000e+00,   -2.800000e+01,   -6.928203e+00
   18692,    6.928203e+00,   -2.800000e+01,   -4.000000e+00
   18693,   -6.928203e+00,   -3.200000e+01,   -4.000000e+00
   18694,   -4.000000e+00,   -3.200000e+01,   -6.928203e+00
   18695,   -4.839212e-15,   -3.200000e+01,   -8.000000e+00
   18696,    4.000000e+00,   -3.200000e+01,   -6.928203e+00
   18697,    6.928203e+00,   -3.200000e+01,   -4.000000e+00
   18698,   -6.928203e+00,   -3.600000e+01,   -4.000000e+00
   18699,   -4.000000e+00,   -3.600000e+01,   -6.928203e+00
   18700,   -4.839212e-15,   -3.600000e+01,   -8.000000e+00
   18701,    4.000000e+00,   -3.600000e+01,   -6.928203e+00
   18702,    6.928203e+00,   -3.600000e+01,   -4.000000e+00
   18703,   -6.928203e+00,   -4.000000e+01,   -4.000000e+00
   18704,   -4.000000e+00,   -4.000000e+01,   -6.928203e+00
   18705,   -4.839212e-15,   -4.000000e+01,   -8.000000e+00
   18706,    4.000000e+00,   -4.000000e+01,   -6.928203e+00
   18707,    6.928203e+00,   -4.000000e+01,   -4.000000e+00
   18708,   -6.928203e+00,   -4.400000e+01,   -4.000000e+00
   18709,   -4.000000e+00,   -4.400000e+01,   -6.928203e+00
   18710,    4.898587e-16,   -4.400000e+01,   -8.000000e+00
   18711,    4.000000e+00,   -4.400000e+01,   -6.928203e+00
   18712,    6.928203e+00,   -4.400000e+01,   -4.000000e+00
   18713,   -6.928203e+00,   -4.800000e+01,   -4.000000e+00
   18714,   -4.000000e+00,   -4.800000e+01,   -6.928203e+00
   18715,   -1.286498e-15,   -4.800000e+01,   -8.000000e+00
   18716,    4.000000e+00,   -4.800000e+01,   -6.928203e+00
   18717,    6.928203e+00,   -4.800000e+01,   -4.000000e+00
   18718,   -6.928203e+00,   -5.200000e+01,   -4.000000e+00
   18719,   -4.000000e+00,   -5.200000e+01,   -6.928203e+00
   18720,   -3.062855e-15,   -5.200000e+01,   -8.000000e+00
   18721,    4.000000e+00,   -5.200000e+01,   -6.928203e+00
   18722,    6.928203e+00,   -5.200000e+01,   -4.000000e+00
   18723,   -6.928203e+00,   -5.600000e+01,   -4.000000e+00
   18724,   -4.000000e+00,   -5.600000e+01,   -6.928203e+00
   18725,   -3.062855e-15,   -5.600000e+01,   -8.000000e+00
   18726,    4.000000e+00,   -5.600000e+01,   -6.928203e+00
   18727,    6.928203e+00,   -5.600000e+01,   -4.000000e+00
   18728,   -6.928203e+00,   -6.000000e+01,   -4.000000e+00
   18729,   -4.000000e+00,   -6.000000e+01,   -6.928203e+00
   18730,    4.898587e-16,   -6.000000e+01,   -8.000000e+00
   18731,    4.000000e+00,   -6.000000e+01,   -6.928203e+00
   18732,    6.928203e+00,   -6.000000e+01,   -4.000000e+00
   18733,   -6.928203e+00,   -6.400000e+01,   -4.000000e+00
   18734,   -4.000000e+00,   -6.400000e+01,   -6.928203e+00
   18735,   -4.839212e-15,   -6.400000e+01,   -8.000000e+00
   18736,    4.000000e+00,   -6.400000e+01,   -6.928203e+00
   18737,    6.928203e+00,   -6.400000e+01,   -4.000000e+00
   18738,   -6.928203e+00,   -6.800000e+01,   -4.000000e+00
   18739,   -4.000000e+00,   -6.800000e+01,   -6.928203e+00
   18740,   -1.286498e-15,   -6.800000e+01,   -8.000000e+00
   18741,    4.000000e+00,   -6.800000e+01,   -6.928203e+00
   18742,    6.928203e+00,   -6.800000e+01,   -4.000000e+00
   18743,   -6.928203e+00,   -7.200000e+01,   -4.000000e+00
   18744,   -4.000000e+00,   -7.200000e+01,   -6.928203e+00
   18745,   -3.062855e-15,   -7.200000e+01,   -8.000000e+00
   18746,    4.000000e+00,   -7.200000e+01,   -6.928203e+00
   18747,    6.928203e+00,   -7.200000e+01,   -4.000000e+00
   18748,   -6.928203e+00,   -7.600000e+01,   -4.000000e+00
   18749,   -4.000000e+00,   -7.600000e+01,   -6.928203e+00
   18750,   -4.839212e-15,   -7.600000e+01,   -8.000000e+00
   18751,    4.000000e+00,   -7.600000e+01,   -6.928203e+00
   18752,    6.928203e+00,   -7.600000e+01,   -4.000000e+00
   18753,   -6.928203e+00,   -8.000000e+01,   -4.000000e+00
   18754,   -4.000000e+00,   -8.000000e+01,   -6.928203e+00
   18755,   -4.839212e-15,   -8.000000e+01,   -8.000000e+00
   18756,    4.000000e+00,   -8.000000e+01,   -6.928203e+00
   18757,    6.928203e+00,   -8.000000e+01,   -4.000000e+00
   18758,   -6.928203e+00,   -8.400000e+01,   -4.000000e+00
   18759,   -4.000000e+00,   -8.400000e+01,   -6.928203e+00
   18760,   -3.062855e-15,   -8.400000e+01,   -8.000000e+00
   18761,    4.000000e+00,   -8.400000e+01,   -6.928203e+00
   18762,    6.928203e+00,   -8.400000e+01,   -4.000000e+00
   18763,   -6.928203e+00,   -8.800000e+01,   -4.000000e+00
   18764,   -4.000000e+00,   -8.800000e+01,   -6.928203e+00
   18765,   -1.286498e-15,   -8.800000e+01,   -8.000000e+00
   18766,    4.000000e+00,   -8.800000e+01,   -6.928203e+00
   18767,    6.928203e+00,   -8.800000e+01,   -4.000000e+00
   18768,   -6.928203e+00,   -9.200000e+01,   -4.000000e+00
   18769,   -4.000000e+00,   -9.200000e+01,   -6.928203e+00
   18770,   -3.062855e-15,   -9.200000e+01,   -8.000000e+00
   18771,    4.000000e+00,   -9.200000e+01,   -6.928203e+00
   18772,    6.928203e+00,   -9.200000e+01,   -4.000000e+00
   18773,   -6.928203e+00,   -9.600000e+01,   -4.000000e+00
   18774,   -4.000000e+00,   -9.600000e+01,   -6.928203e+00
   18775,   -4.839212e-15,   -9.600000e+01,   -8.000000e+00
   18776,    4.000000e+00,   -9.600000e+01,   -6.928203e+00
   18777,    6.928203e+00,   -9.600000e+01,   -4.000000e+00
   18778,   -1.654799e+00,   -9.600000e+01,   -3.423652e+00
   18779,    1.222426e+00,   -9.600000e+01,   -3.926771e+00
   18780,   -4.166067e+00,   -9.600000e+01,   -2.494552e+00
   18781,    3.366241e+00,   -9.600000e+01,   -4.575300e+00
   18782,    4.764815e+00,   -9.600000e+01,   -2.858433e+00
   18783,   -1.654799e+00,   -9.200000e+01,   -3.423652e+00
   18784,    1.222426e+00,   -9.200000e+01,   -3.926771e+00
   18785,   -4.166067e+00,   -9.200000e+01,   -2.494552e+00
   18786,    3.366241e+00,   -9.200000e+01,   -4.575300e+00
   18787,    4.764815e+00,   -9.200000e+01,   -2.858433e+00
   18788,   -1.654799e+00,   -8.800000e+01,   -3.423652e+00
   18789,    1.222426e+00,   -8.800000e+01,   -3.926771e+00
   18790,   -4.166067e+00,   -8.800000e+01,   -2.494552e+00
   18791,    3.366241e+00,   -8.800000e+01,   -4.575300e+00
   18792,    4.764815e+00,   -8.800000e+01,   -2.858433e+00
   18793,   -1.654799e+00,   -8.400000e+01,   -3.423652e+00
   18794,    1.222426e+00,   -8.400000e+01,   -3.926771e+00
   18795,   -4.166067e+00,   -8.400000e+01,   -2.494552e+00
   18796,    3.366241e+00,   -8.400000e+01,   -4.575300e+00
   18797,    4.764815e+00,   -8.400000e+01,   -2.858433e+00
   18798,   -1.654799e+00,   -8.000000e+01,   -3.423652e+00
   18799,    1.222426e+00,   -8.000000e+01,   -3.926771e+00
   18800,   -4.166067e+00,   -8.000000e+01,   -2.494552e+00
   18801,    3.366241e+00,   -8.000000e+01,   -4.575300e+00
   18802,    4.764815e+00,   -8.000000e+01,   -2.858433e+00
   18803,   -1.654799e+00,   -7.600000e+01,   -3.423652e+00
   18804,    1.222426e+00,   -7.600000e+01,   -3.926771e+00
   18805,   -4.166067e+00,   -7.600000e+01,   -2.494552e+00
   18806,    3.366241e+00,   -7.600000e+01,   -4.575300e+00
   18807,    4.764815e+00,   -7.600000e+01,   -2.858433e+00
   18808,   -1.654799e+00,   -7.200000e+01,   -3.423652e+00
   18809,    1.222426e+00,   -7.200000e+01,   -3.926771e+00
   18810,   -4.166067e+00,   -7.200000e+01,   -2.494552e+00
   18811,    3.366241e+00,   -7.200000e+01,   -4.575300e+00
   18812,    4.764815e+00,   -7.200000e+01,   -2.858433e+00
   18813,   -1.654799e+00,   -6.800000e+01,   -3.423652e+00
   18814,    1.222426e+00,   -6.800000e+01,   -3.926771e+00
   18815,   -4.166067e+00,   -6.800000e+01,   -2.494552e+00
   18816,    3.366241e+00,   -6.800000e+01,   -4.575300e+00
   18817,    4.764815e+00,   -6.800000e+01,   -2.858433e+00
   18818,   -1.654799e+00,   -6.400000e+01,   -3.423652e+00
   18819,    1.222426e+00,   -6.400000e+01,   -3.926771e+00
   18820,   -4.166067e+00,   -6.400000e+01,   -2.494552e+00
   18821,    3.366241e+00,   -6.400000e+01,   -4.575300e+00
   18822,    4.764815e+00,   -6.400000e+01,   -2.858433e+00
   18823,   -1.654799e+00,   -6.000000e+01,   -3.423652e+00
   18824,    1.222426e+00,   -6.000000e+01,   -3.926771e+00
   18825,   -4.166067e+00,   -6.000000e+01,   -2.494552e+00
   18826,    3.366241e+00,   -6.000000e+01,   -4.575300e+00
   18827,    4.764815e+00,   -6.000000e+01,   -2.858433e+00
   18828,   -1.654799e+00,   -5.600000e+01,   -3.423652e+00
   18829,    1.222426e+00,   -5.600000e+01,   -3.926771e+00
   18830,   -4.166067e+00,   -5.600000e+01,   -2.494552e+00
   18831,    3.366241e+00,   -5.600000e+01,   -4.575300e+00
   18832,    4.764815e+00,   -5.600000e+01,   -2.858433e+00
   18833,   -1.654799e+00,   -5.200000e+01,   -3.423652e+00
   18834,    1.222426e+00,   -5.200000e+01,   -3.926771e+00
   18835,   -4.166067e+00,   -5.200000e+01,   -2.494552e+00
   18836,    3.366241e+00,   -5.200000e+01,   -4.575300e+00
   18837,    4.764815e+00,   -5.200000e+01,   -2.858433e+00
   18838,   -1.654799e+00,   -4.800000e+01,   -3.423652e+00
   18839,    1.222426e+00,   -4.800000e+01,   -3.926771e+00
   18840,   -4.166067e+00,   -4.800000e+01,   -2.494552e+00
   18841,    3.366241e+00,   -4.800000e+01,   -4.575300e+00
   18842,    4.764815e+00,   -4.800000e+01,   -2.858433e+00
   18843,   -1.654799e+00,   -4.400000e+01,   -3.423652e+00
   18844,    1.222426e+00,   -4.400000e+01,   -3.926771e+00
   18845,   -4.166067e+00,   -4.400000e+01,   -2.494552e+00
   18846,    3.366241e+00,   -4.400000e+01,   -4.575300e+00
   18847,    4.764815e+00,   -4.400000e+01,   -2.858433e+00
   18848,   -1.654799e+00,   -4.000000e+01,   -3.423652e+00
   18849,    1.222426e+00,   -4.000000e+01,   -3.926771e+00
   18850,   -4.166067e+00,   -4.000000e+01,   -2.494552e+00
   18851,    3.366241e+00,   -4.000000e+01,   -4.575300e+00
   18852,    4.764815e+00,   -4.000000e+01,   -2.858433e+00
   18853,   -1.654799e+00,   -3.600000e+01,   -3.423652e+00
   18854,    1.222426e+00,   -3.600000e+01,   -3.926771e+00
   18855,   -4.166067e+00,   -3.600000e+01,   -2.494552e+00
   18856,    3.366241e+00,   -3.600000e+01,   -4.575300e+00
   18857,    4.764815e+00,   -3.600000e+01,   -2.858433e+00
   18858,   -1.654799e+00,   -3.200000e+01,   -3.423652e+00
   18859,    1.222426e+00,   -3.200000e+01,   -3.926771e+00
   18860,   -4.166067e+00,   -3.200000e+01,   -2.494552e+00
   18861,    3.366241e+00,   -3.200000e+01,   -4.575300e+00
   18862,    4.764815e+00,   -3.200000e+01,   -2.858433e+00
   18863,   -1.654799e+00,   -2.800000e+01,   -3.423652e+00
   18864,    1.222426e+00,   -2.800000e+01,   -3.926771e+00
   18865,   -4.166067e+00,   -2.800000e+01,   -2.494552e+00
   18866,    3.366241e+00,   -2.800000e+01,   -4.575300e+00
   18867,    4.764815e+00,   -2.800000e+01,   -2.858433e+00
   18868,   -1.654799e+00,   -2.400000e+01,   -3.423652e+00
   18869,    1.222426e+00,   -2.400000e+01,   -3.926771e+00
   18870,   -4.166067e+00,   -2.400000e+01,   -2.494552e+00
   18871,    3.366241e+00,   -2.400000e+01,   -4.575300e+00
   18872,    4.764815e+00,   -2.400000e+01,   -2.858433e+00
   18873,   -1.654799e+00,   -2.000000e+01,   -3.423652e+00
   18874,    1.222426e+00,   -2.000000e+01,   -3.926771e+00
   18875,   -4.166067e+00,   -2.000000e+01,   -2.494552e+00
   18876,    3.366241e+00,   -2.000000e+01,   -4.575300e+00
   18877,    4.764815e+00,   -2.000000e+01,   -2.858433e+00
   18878,   -1.654799e+00,   -1.600000e+01,   -3.423652e+00
   18879,    1.222426e+00,   -1.600000e+01,   -3.926771e+00
   18880,   -4.166067e+00,   -1.600000e+01,   -2.494552e+00
   18881,    3.366241e+00,   -1.600000e+01,   -4.575300e+00
   18882,    4.764815e+00,   -1.600000e+01,   -2.858433e+00
   18883,   -1.654799e+00,   -1.200000e+01,   -3.423652e+00
   18884,    1.222426e+00,   -1.200000e+01,   -3.926771e+00
   18885,   -4.166067e+00,   -1.200000e+01,   -2.494552e+00
   18886,    3.366241e+00,   -1.200000e+01,   -4.575300e+00
   18887,    4.764815e+00,   -1.200000e+01,   -2.858433e+00
   18888,   -1.654799e+00,   -8.000000e+00,   -3.423652e+00
   18889,    1.222426e+00,   -8.000000e+00,   -3.926771e+00
   18890,   -4.166067e+00,   -8.000000e+00,   -2.494552e+00
   18891,    3.366241e+00,   -8.000000e+00,   -4.575300e+00
   18892,    4.764815e+00,   -8.000000e+00,   -2.858433e+00
   18893,   -1.654799e+00,   -4.000000e+00,   -3.423652e+00
   18894,    1.222426e+00,   -4.000000e+00,   -3.926771e+00
   18895,   -4.166067e+00,   -4.000000e+00,   -2.494552e+00
   18896,    3.366241e+00,   -4.000000e+00,   -4.575300e+00
   18897,    4.764815e+00,   -4.000000e+00,   -2.858433e+00
   18898,   -1.654799e+00,   -8.165316e-17,   -3.423652e+00
   18899,    1.222426e+00,    6.031845e-17,   -3.926771e+00
   18900,   -4.166067e+00,   -2.055673e-16,   -2.494552e+00
   18901,    3.366241e+00,    1.661013e-16,   -4.575300e+00
   18902,    4.764815e+00,    2.351114e-16,   -2.858433e+00
   18903,   -1.654799e+00,    3.333333e+00,   -3.423652e+00
   18904,    1.222426e+00,    3.333333e+00,   -3.926771e+00
   18905,   -4.166067e+00,    3.333333e+00,   -2.494552e+00
   18906,    3.366241e+00,    3.333333e+00,   -4.575300e+00
   18907,    4.764815e+00,    3.333333e+00,   -2.858433e+00
   18908,   -1.654799e+00,    6.666667e+00,   -3.423652e+00
   18909,    1.222426e+00,    6.666667e+00,   -3.926771e+00
   18910,   -4.166067e+00,    6.666667e+00,   -2.494552e+00
   18911,    3.366241e+00,    6.666667e+00,   -4.575300e+00
   18912,    4.764815e+00,    6.666667e+00,   -2.858433e+00
   18913,   -1.654799e+00,    1.111111e+01,   -3.423652e+00
   18914,    1.222426e+00,    1.111111e+01,   -3.926771e+00
   18915,   -4.166067e+00,    1.111111e+01,   -2.494552e+00
   18916,    3.366241e+00,    1.111111e+01,   -4.575300e+00
   18917,    4.764815e+00,    1.111111e+01,   -2.858433e+00
   18918,   -1.654799e+00,    1.555556e+01,   -3.423652e+00
   18919,    1.222426e+00,    1.555556e+01,   -3.926771e+00
   18920,   -4.166067e+00,    1.555556e+01,   -2.494552e+00
   18921,    3.366241e+00,    1.555556e+01,   -4.575300e+00
   18922,    4.764815e+00,    1.555556e+01,   -2.858433e+00
   18923,   -1.654799e+00,    2.000000e+01,   -3.423652e+00
   18924,    1.222426e+00,    2.000000e+01,   -3.926771e+00
   18925,   -4.166067e+00,    2.000000e+01,   -2.494552e+00
   18926,    3.366241e+00,    2.000000e+01,   -4.575300e+00
   18927,    4.764815e+00,    2.000000e+01,   -2.858433e+00
   18928,    4.000000e+01,    6.666667e+00,    0.000000e+00
   18929,    3.600000e+01,    6.666667e+00,    0.000000e+00
   18930,    3.200000e+01,    6.666667e+00,    0.000000e+00
   18931,    2.800000e+01,    6.666667e+00,    0.000000e+00
   18932,    2.400000e+01,    6.666667e+00,    0.000000e+00
   18933,    2.000000e+01,    6.666667e+00,    0.000000e+00
   18934,    1.600000e+01,    6.666667e+00,    0.000000e+00
   18935,    1.200000e+01,    6.666667e+00,    0.000000e+00
   18936,    4.000000e+01,    6.666667e+00,   -4.000000e+01
   18937,    4.000000e+01,    6.666667e+00,   -3.600000e+01
   18938,    4.000000e+01,    6.666667e+00,   -3.200000e+01
   18939,    4.000000e+01,    6.666667e+00,   -2.800000e+01
   18940,    4.000000e+01,    6.666667e+00,   -2.400000e+01
   18941,    4.000000e+01,    6.666667e+00,   -2.000000e+01
   18942,    4.000000e+01,    6.666667e+00,   -1.600000e+01
   18943,    4.000000e+01,    6.666667e+00,   -1.200000e+01
   18944,    4.000000e+01,    6.666667e+00,   -8.000000e+00
   18945,    4.000000e+01,    6.666667e+00,   -4.000000e+00
   18946,   -4.000000e+01,    6.666667e+00,   -4.000000e+01
   18947,   -3.600000e+01,    6.666667e+00,   -4.000000e+01
   18948,   -3.200000e+01,    6.666667e+00,   -4.000000e+01
   18949,   -2.800000e+01,    6.666667e+00,   -4.000000e+01
   18950,   -2.400000e+01,    6.666667e+00,   -4.000000e+01
   18951,   -2.000000e+01,    6.666667e+00,   -4.000000e+01
   18952,   -1.600000e+01,    6.666667e+00,   -4.000000e+01
   18953,   -1.200000e+01,    6.666667e+00,   -4.000000e+01
   18954,   -8.000000e+00,    6.666667e+00,   -4.000000e+01
   18955,   -4.000000e+00,    6.666667e+00,   -4.000000e+01
   18956,    0.000000e+00,    6.666667e+00,   -4.000000e+01
   18957,    4.000000e+00,    6.666667e+00,   -4.000000e+01
   18958,    8.000000e+00,    6.666667e+00,   -4.000000e+01
   18959,    1.200000e+01,    6.666667e+00,   -4.000000e+01
   18960,    1.600000e+01,    6.666667e+00,   -4.000000e+01
   18961,    2.000000e+01,    6.666667e+00,   -4.000000e+01
   18962,    2.400000e+01,    6.666667e+00,   -4.000000e+01
   18963,    2.800000e+01,    6.666667e+00,   -4.000000e+01
   18964,    3.200000e+01,    6.666667e+00,   -4.000000e+01
   18965,    3.600000e+01,    6.666667e+00,   -4.000000e+01
   18966,   -4.000000e+01,    6.666667e+00,    0.000000e+00
   18967,   -4.000000e+01,    6.666667e+00,   -4.000000e+00
   18968,   -4.000000e+01,    6.666667e+00,   -8.000000e+00
   18969,   -4.000000e+01,    6.666667e+00,   -1.200000e+01
   18970,   -4.000000e+01,    6.666667e+00,   -1.600000e+01
   18971,   -4.000000e+01,    6.666667e+00,   -2.000000e+01
   18972,   -4.000000e+01,    6.666667e+00,   -2.400000e+01
   18973,   -4.000000e+01,    6.666667e+00,   -2.800000e+01
   18974,   -4.000000e+01,    6.666667e+00,   -3.200000e+01
   18975,   -4.000000e+01,    6.666667e+00,   -3.600000e+01
   18976,   -1.200000e+01,    6.666667e+00,    0.000000e+00
   18977,   -1.600000e+01,    6.666667e+00,    0.000000e+00
   18978,   -2.000000e+01,    6.666667e+00,    0.000000e+00
   18979,   -2.400000e+01,    6.666667e+00,    0.000000e+00
   18980,   -2.800000e+01,    6.666667e+00,    0.000000e+00
   18981,   -3.200000e+01,    6.666667e+00,    0.000000e+00
   18982,   -3.600000e+01,    6.666667e+00,    0.000000e+00
   18983,    1.035338e+01,    6.666667e+00,   -6.239661e+00
   18984,    1.543794e+01,    6.666667e+00,   -5.296863e+00
   18985,    1.979447e+01,    6.666667e+00,   -4.729876e+00
   18986,    2.393743e+01,    6.666667e+00,   -4.403914e+00
   18987,    2.799402e+01,    6.666667e+00,   -4.214100e+00
   18988,    3.201046e+01,    6.666667e+00,   -4.106555e+00
   18989,    3.600822e+01,    6.666667e+00,   -4.043703e+00
   18990,    3.603363e+01,    6.666667e+00,   -3.599565e+01
   18991,    3.206636e+01,    6.666667e+00,   -3.598076e+01
   18992,    2.809964e+01,    6.666667e+00,   -3.593847e+01
   18993,    2.412620e+01,    6.666667e+00,   -3.584023e+01
   18994,    2.014125e+01,    6.666667e+00,   -3.567464e+01
   18995,    1.614008e+01,    6.666667e+00,   -3.550916e+01
   18996,    1.210931e+01,    6.666667e+00,   -3.549320e+01
   18997,    8.067386e+00,    6.666667e+00,   -3.557565e+01
   18998,    4.018314e+00,    6.666667e+00,   -3.569426e+01
   18999,   -2.185552e-02,    6.666667e+00,   -3.581454e+01
   19000,   -4.049930e+00,    6.666667e+00,   -3.591278e+01
   19001,   -8.066805e+00,    6.666667e+00,   -3.598319e+01
   19002,   -1.207464e+01,    6.666667e+00,   -3.602514e+01
   19003,   -1.607607e+01,    6.666667e+00,   -3.603932e+01
   19004,   -2.007116e+01,    6.666667e+00,   -3.603858e+01
   19005,   -2.406112e+01,    6.666667e+00,   -3.603122e+01
   19006,   -2.804734e+01,    6.666667e+00,   -3.602356e+01
   19007,   -3.203121e+01,    6.666667e+00,   -3.601527e+01
   19008,   -3.601473e+01,    6.666667e+00,   -3.600728e+01
   19009,   -3.602582e+01,    6.666667e+00,   -4.010657e+00
   19010,   -3.204930e+01,    6.666667e+00,   -4.024200e+00
   19011,   -2.806748e+01,    6.666667e+00,   -4.042642e+00
   19012,   -2.406696e+01,    6.666667e+00,   -4.073720e+00
   19013,   -2.003270e+01,    6.666667e+00,   -4.147645e+00
   19014,   -1.591408e+01,    6.666667e+00,   -4.346095e+00
   19015,   -1.102871e+01,    6.666667e+00,   -5.208622e+00
   19016,    3.602988e+01,    6.666667e+00,   -8.076038e+00
   19017,    3.607704e+01,    6.666667e+00,   -1.209229e+01
   19018,    3.613444e+01,    6.666667e+00,   -1.608596e+01
   19019,    3.617567e+01,    6.666667e+00,   -2.005981e+01
   19020,    3.615918e+01,    6.666667e+00,   -2.402974e+01
   19021,    3.611786e+01,    6.666667e+00,   -2.800854e+01
   19022,    3.607315e+01,    6.666667e+00,   -3.199625e+01
   19023,   -3.603153e+01,    6.666667e+00,   -3.201490e+01
   19024,   -3.605004e+01,    6.666667e+00,   -2.802104e+01
   19025,   -3.606525e+01,    6.666667e+00,   -2.402789e+01
   19026,   -3.607824e+01,    6.666667e+00,   -2.003086e+01
   19027,   -3.608145e+01,    6.666667e+00,   -1.602970e+01
   19028,   -3.607165e+01,    6.666667e+00,   -1.202596e+01
   19029,   -3.605270e+01,    6.666667e+00,   -8.019129e+00
   19030,   -7.676420e+00,    6.666667e+00,   -8.483598e+00
   19031,   -6.292756e+00,    6.666667e+00,   -1.204892e+01
   19032,   -2.585946e+00,    6.666667e+00,   -1.130823e+01
   19033,    1.359922e+00,    6.666667e+00,   -1.094810e+01
   19034,    5.527334e+00,    6.666667e+00,   -9.659845e+00
   19035,   -3.210361e+01,    6.666667e+00,   -8.042339e+00
   19036,   -2.815510e+01,    6.666667e+00,   -8.071414e+00
   19037,   -2.421217e+01,    6.666667e+00,   -8.119311e+00
   19038,   -2.029000e+01,    6.666667e+00,   -8.213446e+00
   19039,   -1.639400e+01,    6.666667e+00,   -8.526873e+00
   19040,   -1.270903e+01,    6.666667e+00,   -9.124861e+00
   19041,   -1.001863e+01,    6.666667e+00,   -1.010961e+01
   19042,   -9.622448e+00,    6.666667e+00,   -1.280972e+01
   19043,   -9.151827e+00,    6.666667e+00,   -1.628220e+01
   19044,   -5.396329e+00,    6.666667e+00,   -1.578446e+01
   19045,   -1.447074e+00,    6.666667e+00,   -1.514390e+01
   19046,    2.476808e+00,    6.666667e+00,   -1.449494e+01
   19047,    6.692977e+00,    6.666667e+00,   -1.336327e+01
   19048,    1.116349e+01,    6.666667e+00,   -1.165195e+01
   19049,    1.565638e+01,    6.666667e+00,   -1.038855e+01
   19050,    1.991511e+01,    6.666667e+00,   -9.379810e+00
   19051,    2.403449e+01,    6.666667e+00,   -8.746451e+00
   19052,    2.807243e+01,    6.666667e+00,   -8.389235e+00
   19053,    3.206505e+01,    6.666667e+00,   -8.195069e+00
   19054,   -3.206475e+01,    6.666667e+00,   -3.203047e+01
   19055,   -3.209886e+01,    6.666667e+00,   -2.804457e+01
   19056,   -3.213310e+01,    6.666667e+00,   -2.405446e+01
   19057,   -3.215742e+01,    6.666667e+00,   -2.005855e+01
   19058,   -3.216365e+01,    6.666667e+00,   -1.605701e+01
   19059,   -3.214263e+01,    6.666667e+00,   -1.205265e+01
   19060,    3.216217e+01,    6.666667e+00,   -1.222571e+01
   19061,    3.229260e+01,    6.666667e+00,   -1.620179e+01
   19062,    3.238709e+01,    6.666667e+00,   -2.013122e+01
   19063,    3.233972e+01,    6.666667e+00,   -2.405016e+01
   19064,    3.224253e+01,    6.666667e+00,   -2.799413e+01
   19065,    3.214827e+01,    6.666667e+00,   -3.197185e+01
   19066,    2.822197e+01,    6.666667e+00,   -3.189704e+01
   19067,    2.428602e+01,    6.666667e+00,   -3.170823e+01
   19068,    2.033196e+01,    6.666667e+00,   -3.134567e+01
   19069,    1.633846e+01,    6.666667e+00,   -3.104956e+01
   19070,    1.224031e+01,    6.666667e+00,   -3.094010e+01
   19071,    8.123892e+00,    6.666667e+00,   -3.112419e+01
   19072,    4.018007e+00,    6.666667e+00,   -3.138206e+01
   19073,   -6.542876e-02,    6.666667e+00,   -3.162889e+01
   19074,   -4.124216e+00,    6.666667e+00,   -3.183011e+01
   19075,   -8.155029e+00,    6.666667e+00,   -3.197181e+01
   19076,   -1.216891e+01,    6.666667e+00,   -3.205153e+01
   19077,   -1.616803e+01,    6.666667e+00,   -3.207971e+01
   19078,   -2.015168e+01,    6.666667e+00,   -3.207489e+01
   19079,   -2.412672e+01,    6.666667e+00,   -3.206050e+01
   19080,   -2.809696e+01,    6.666667e+00,   -3.204531e+01
   19081,   -2.822439e+01,    6.666667e+00,   -1.208660e+01
   19082,   -2.432462e+01,    6.666667e+00,   -1.213923e+01
   19083,   -2.045791e+01,    6.666667e+00,   -1.222285e+01
   19084,   -1.666024e+01,    6.666667e+00,   -1.238090e+01
   19085,   -1.297778e+01,    6.666667e+00,   -1.267569e+01
   19086,   -1.287965e+01,    6.666667e+00,   -1.636961e+01
   19087,   -1.266446e+01,    6.666667e+00,   -2.022277e+01
   19088,   -8.769277e+00,    6.666667e+00,   -2.006644e+01
   19089,   -4.834281e+00,    6.666667e+00,   -1.968643e+01
   19090,   -7.972943e-01,    6.666667e+00,   -1.915056e+01
   19091,    3.342716e+00,    6.666667e+00,   -1.846399e+01
   19092,    7.486011e+00,    6.666667e+00,   -1.760938e+01
   19093,    1.186113e+01,    6.666667e+00,   -1.650747e+01
   19094,    1.625990e+01,    6.666667e+00,   -1.527754e+01
   19095,    2.040732e+01,    6.666667e+00,   -1.381863e+01
   19096,    2.431061e+01,    6.666667e+00,   -1.293101e+01
   19097,    2.825242e+01,    6.666667e+00,   -1.248018e+01
   19098,   -2.815075e+01,    6.666667e+00,   -2.806490e+01
   19099,   -2.820490e+01,    6.666667e+00,   -2.408056e+01
   19100,   -2.824369e+01,    6.666667e+00,   -2.008837e+01
   19101,   -2.825184e+01,    6.666667e+00,   -1.609231e+01
   19102,    2.848942e+01,    6.666667e+00,   -1.641873e+01
   19103,    2.868685e+01,    6.666667e+00,   -2.022711e+01
   19104,    2.855625e+01,    6.666667e+00,   -2.401984e+01
   19105,    2.837726e+01,    6.666667e+00,   -2.790630e+01
   19106,    2.451634e+01,    6.666667e+00,   -2.765203e+01
   19107,    2.069141e+01,    6.666667e+00,   -2.713403e+01
   19108,    1.667189e+01,    6.666667e+00,   -2.635339e+01
   19109,    1.238312e+01,    6.666667e+00,   -2.636243e+01
   19110,    8.154765e+00,    6.666667e+00,   -2.664113e+01
   19111,    3.967979e+00,    6.666667e+00,   -2.706137e+01
   19112,   -1.673856e-01,    6.666667e+00,   -2.744351e+01
   19113,   -4.249289e+00,    6.666667e+00,   -2.775387e+01
   19114,   -8.287866e+00,    6.666667e+00,   -2.796880e+01
   19115,   -1.229746e+01,    6.666667e+00,   -2.808248e+01
   19116,   -1.628430e+01,    6.666667e+00,   -2.811640e+01
   19117,   -2.025078e+01,    6.666667e+00,   -2.810617e+01
   19118,   -2.420374e+01,    6.666667e+00,   -2.808623e+01
   19119,   -1.666216e+01,    6.666667e+00,   -1.629514e+01
   19120,   -1.655734e+01,    6.666667e+00,   -2.022217e+01
   19121,   -1.641626e+01,    6.666667e+00,   -2.416168e+01
   19122,   -1.246127e+01,    6.666667e+00,   -2.412491e+01
   19123,   -8.489061e+00,    6.666667e+00,   -2.397315e+01
   19124,   -4.478439e+00,    6.666667e+00,   -2.367560e+01
   19125,   -3.990548e-01,    6.666667e+00,   -2.325239e+01
   19126,    3.758583e+00,    6.666667e+00,   -2.270783e+01
   19127,    2.122412e+01,    6.666667e+00,   -1.781483e+01
   19128,    2.479457e+01,    6.666667e+00,   -1.689246e+01
   19129,   -2.436292e+01,    6.666667e+00,   -1.613900e+01
   19130,   -2.048923e+01,    6.666667e+00,   -1.621063e+01
   19131,    2.528646e+01,    6.666667e+00,   -2.034120e+01
   19132,    2.490981e+01,    6.666667e+00,   -2.378897e+01
   19133,   -2.428118e+01,    6.666667e+00,   -2.410971e+01
   19134,   -2.433997e+01,    6.666667e+00,   -2.013038e+01
   19135,    2.137323e+01,    6.666667e+00,   -2.315172e+01
   19136,    1.749845e+01,    6.666667e+00,   -2.077788e+01
   19137,    1.249406e+01,    6.666667e+00,   -2.140399e+01
   19138,    7.994831e+00,    6.666667e+00,   -2.208453e+01
   19139,    2.257048e+01,    6.666667e+00,   -2.043818e+01
   19140,   -2.035498e+01,    6.666667e+00,   -2.414043e+01
   19141,   -2.043622e+01,    6.666667e+00,   -2.017628e+01
   19142,    4.000000e+01,    2.000000e+01,    0.000000e+00
   19143,    4.000000e+01,    1.111111e+01,    0.000000e+00
   19144,    4.000000e+01,    1.555556e+01,    0.000000e+00
   19145,    3.600000e+01,    2.000000e+01,    0.000000e+00
   19146,    3.200000e+01,    2.000000e+01,    0.000000e+00
   19147,    2.800000e+01,    2.000000e+01,    0.000000e+00
   19148,    2.400000e+01,    2.000000e+01,    0.000000e+00
   19149,    2.000000e+01,    2.000000e+01,    0.000000e+00
   19150,    1.600000e+01,    2.000000e+01,    0.000000e+00
   19151,    1.200000e+01,    2.000000e+01,    0.000000e+00
   19152,    1.200000e+01,    1.111111e+01,    0.000000e+00
   19153,    1.600000e+01,    1.111111e+01,    0.000000e+00
   19154,    2.000000e+01,    1.111111e+01,    0.000000e+00
   19155,    2.400000e+01,    1.111111e+01,    0.000000e+00
   19156,    2.800000e+01,    1.111111e+01,    0.000000e+00
   19157,    3.200000e+01,    1.111111e+01,    0.000000e+00
   19158,    3.600000e+01,    1.111111e+01,    0.000000e+00
   19159,    1.200000e+01,    1.555556e+01,    0.000000e+00
   19160,    1.600000e+01,    1.555556e+01,    0.000000e+00
   19161,    2.000000e+01,    1.555556e+01,    0.000000e+00
   19162,    2.400000e+01,    1.555556e+01,    0.000000e+00
   19163,    2.800000e+01,    1.555556e+01,    0.000000e+00
   19164,    3.200000e+01,    1.555556e+01,    0.000000e+00
   19165,    3.600000e+01,    1.555556e+01,    0.000000e+00
   19166,   -4.000000e+01,    2.000000e+01,    0.000000e+00
   19167,   -1.200000e+01,    2.000000e+01,    0.000000e+00
   19168,   -1.600000e+01,    2.000000e+01,    0.000000e+00
   19169,   -2.000000e+01,    2.000000e+01,    0.000000e+00
   19170,   -2.400000e+01,    2.000000e+01,    0.000000e+00
   19171,   -2.800000e+01,    2.000000e+01,    0.000000e+00
   19172,   -3.200000e+01,    2.000000e+01,    0.000000e+00
   19173,   -3.600000e+01,    2.000000e+01,    0.000000e+00
   19174,   -4.000000e+01,    1.555556e+01,    0.000000e+00
   19175,   -4.000000e+01,    1.111111e+01,    0.000000e+00
   19176,   -3.600000e+01,    1.111111e+01,    0.000000e+00
   19177,   -3.200000e+01,    1.111111e+01,    0.000000e+00
   19178,   -2.800000e+01,    1.111111e+01,    0.000000e+00
   19179,   -2.400000e+01,    1.111111e+01,    0.000000e+00
   19180,   -2.000000e+01,    1.111111e+01,    0.000000e+00
   19181,   -1.600000e+01,    1.111111e+01,    0.000000e+00
   19182,   -1.200000e+01,    1.111111e+01,    0.000000e+00
   19183,   -3.600000e+01,    1.555556e+01,    0.000000e+00
   19184,   -3.200000e+01,    1.555556e+01,    0.000000e+00
   19185,   -2.800000e+01,    1.555556e+01,    0.000000e+00
   19186,   -2.400000e+01,    1.555556e+01,    0.000000e+00
   19187,   -2.000000e+01,    1.555556e+01,    0.000000e+00
   19188,   -1.600000e+01,    1.555556e+01,    0.000000e+00
   19189,   -1.200000e+01,    1.555556e+01,    0.000000e+00
   19190,    4.000000e+01,    2.000000e+01,   -4.000000e+01
   19191,    4.000000e+01,    1.555556e+01,   -4.000000e+01
   19192,    4.000000e+01,    1.111111e+01,   -4.000000e+01
   19193,    4.000000e+01,    2.000000e+01,   -4.000000e+00
   19194,    4.000000e+01,    2.000000e+01,   -8.000000e+00
   19195,    4.000000e+01,    2.000000e+01,   -1.200000e+01
   19196,    4.000000e+01,    2.000000e+01,   -1.600000e+01
   19197,    4.000000e+01,    2.000000e+01,   -2.000000e+01
   19198,    4.000000e+01,    2.000000e+01,   -2.400000e+01
   19199,    4.000000e+01,    2.000000e+01,   -2.800000e+01
   19200,    4.000000e+01,    2.000000e+01,   -3.200000e+01
   19201,    4.000000e+01,    2.000000e+01,   -3.600000e+01
   19202,    4.000000e+01,    1.555556e+01,   -4.000000e+00
   19203,    4.000000e+01,    1.111111e+01,   -4.000000e+00
   19204,    4.000000e+01,    1.555556e+01,   -8.000000e+00
   19205,    4.000000e+01,    1.111111e+01,   -8.000000e+00
   19206,    4.000000e+01,    1.555556e+01,   -1.200000e+01
   19207,    4.000000e+01,    1.111111e+01,   -1.200000e+01
   19208,    4.000000e+01,    1.555556e+01,   -1.600000e+01
   19209,    4.000000e+01,    1.111111e+01,   -1.600000e+01
   19210,    4.000000e+01,    1.555556e+01,   -2.000000e+01
   19211,    4.000000e+01,    1.111111e+01,   -2.000000e+01
   19212,    4.000000e+01,    1.555556e+01,   -2.400000e+01
   19213,    4.000000e+01,    1.111111e+01,   -2.400000e+01
   19214,    4.000000e+01,    1.555556e+01,   -2.800000e+01
   19215,    4.000000e+01,    1.111111e+01,   -2.800000e+01
   19216,    4.000000e+01,    1.555556e+01,   -3.200000e+01
   19217,    4.000000e+01,    1.111111e+01,   -3.200000e+01
   19218,    4.000000e+01,    1.555556e+01,   -3.600000e+01
   19219,    4.000000e+01,    1.111111e+01,   -3.600000e+01
   19220,   -4.000000e+01,    2.000000e+01,   -4.000000e+01
   19221,   -4.000000e+01,    1.111111e+01,   -4.000000e+01
   19222,   -4.000000e+01,    1.555556e+01,   -4.000000e+01
   19223,   -3.600000e+01,    2.000000e+01,   -4.000000e+01
   19224,   -3.200000e+01,    2.000000e+01,   -4.000000e+01
   19225,   -2.800000e+01,    2.000000e+01,   -4.000000e+01
   19226,   -2.400000e+01,    2.000000e+01,   -4.000000e+01
   19227,   -2.000000e+01,    2.000000e+01,   -4.000000e+01
   19228,   -1.600000e+01,    2.000000e+01,   -4.000000e+01
   19229,   -1.200000e+01,    2.000000e+01,   -4.000000e+01
   19230,   -8.000000e+00,    2.000000e+01,   -4.000000e+01
   19231,   -4.000000e+00,    2.000000e+01,   -4.000000e+01
   19232,    0.000000e+00,    2.000000e+01,   -4.000000e+01
   19233,    4.000000e+00,    2.000000e+01,   -4.000000e+01
   19234,    8.000000e+00,    2.000000e+01,   -4.000000e+01
   19235,    1.200000e+01,    2.000000e+01,   -4.000000e+01
   19236,    1.600000e+01,    2.000000e+01,   -4.000000e+01
   19237,    2.000000e+01,    2.000000e+01,   -4.000000e+01
   19238,    2.400000e+01,    2.000000e+01,   -4.000000e+01
   19239,    2.800000e+01,    2.000000e+01,   -4.000000e+01
   19240,    3.200000e+01,    2.000000e+01,   -4.000000e+01
   19241,    3.600000e+01,    2.000000e+01,   -4.000000e+01
   19242,    3.600000e+01,    1.111111e+01,   -4.000000e+01
   19243,    3.200000e+01,    1.111111e+01,   -4.000000e+01
   19244,    2.800000e+01,    1.111111e+01,   -4.000000e+01
   19245,    2.400000e+01,    1.111111e+01,   -4.000000e+01
   19246,    2.000000e+01,    1.111111e+01,   -4.000000e+01
   19247,    1.600000e+01,    1.111111e+01,   -4.000000e+01
   19248,    1.200000e+01,    1.111111e+01,   -4.000000e+01
   19249,    8.000000e+00,    1.111111e+01,   -4.000000e+01
   19250,    4.000000e+00,    1.111111e+01,   -4.000000e+01
   19251,    0.000000e+00,    1.111111e+01,   -4.000000e+01
   19252,   -4.000000e+00,    1.111111e+01,   -4.000000e+01
   19253,   -8.000000e+00,    1.111111e+01,   -4.000000e+01
   19254,   -1.200000e+01,    1.111111e+01,   -4.000000e+01
   19255,   -1.600000e+01,    1.111111e+01,   -4.000000e+01
   19256,   -2.000000e+01,    1.111111e+01,   -4.000000e+01
   19257,   -2.400000e+01,    1.111111e+01,   -4.000000e+01
   19258,   -2.800000e+01,    1.111111e+01,   -4.000000e+01
   19259,   -3.200000e+01,    1.111111e+01,   -4.000000e+01
   19260,   -3.600000e+01,    1.111111e+01,   -4.000000e+01
   19261,    3.600000e+01,    1.555556e+01,   -4.000000e+01
   19262,    3.200000e+01,    1.555556e+01,   -4.000000e+01
   19263,    2.800000e+01,    1.555556e+01,   -4.000000e+01
   19264,    2.400000e+01,    1.555556e+01,   -4.000000e+01
   19265,    2.000000e+01,    1.555556e+01,   -4.000000e+01
   19266,    1.600000e+01,    1.555556e+01,   -4.000000e+01
   19267,    1.200000e+01,    1.555556e+01,   -4.000000e+01
   19268,    8.000000e+00,    1.555556e+01,   -4.000000e+01
   19269,    4.000000e+00,    1.555556e+01,   -4.000000e+01
   19270,    0.000000e+00,    1.555556e+01,   -4.000000e+01
   19271,   -4.000000e+00,    1.555556e+01,   -4.000000e+01
   19272,   -8.000000e+00,    1.555556e+01,   -4.000000e+01
   19273,   -1.200000e+01,    1.555556e+01,   -4.000000e+01
   19274,   -1.600000e+01,    1.555556e+01,   -4.000000e+01
   19275,   -2.000000e+01,    1.555556e+01,   -4.000000e+01
   19276,   -2.400000e+01,    1.555556e+01,   -4.000000e+01
   19277,   -2.800000e+01,    1.555556e+01,   -4.000000e+01
   19278,   -3.200000e+01,    1.555556e+01,   -4.000000e+01
   19279,   -3.600000e+01,    1.555556e+01,   -4.000000e+01
   19280,   -4.000000e+01,    2.000000e+01,   -4.000000e+00
   19281,   -4.000000e+01,    2.000000e+01,   -8.000000e+00
   19282,   -4.000000e+01,    2.000000e+01,   -1.200000e+01
   19283,   -4.000000e+01,    2.000000e+01,   -1.600000e+01
   19284,   -4.000000e+01,    2.000000e+01,   -2.000000e+01
   19285,   -4.000000e+01,    2.000000e+01,   -2.400000e+01
   19286,   -4.000000e+01,    2.000000e+01,   -2.800000e+01
   19287,   -4.000000e+01,    2.000000e+01,   -3.200000e+01
   19288,   -4.000000e+01,    2.000000e+01,   -3.600000e+01
   19289,   -4.000000e+01,    1.111111e+01,   -4.000000e+00
   19290,   -4.000000e+01,    1.555556e+01,   -4.000000e+00
   19291,   -4.000000e+01,    1.111111e+01,   -8.000000e+00
   19292,   -4.000000e+01,    1.555556e+01,   -8.000000e+00
   19293,   -4.000000e+01,    1.111111e+01,   -1.200000e+01
   19294,   -4.000000e+01,    1.555556e+01,   -1.200000e+01
   19295,   -4.000000e+01,    1.111111e+01,   -1.600000e+01
   19296,   -4.000000e+01,    1.555556e+01,   -1.600000e+01
   19297,   -4.000000e+01,    1.111111e+01,   -2.000000e+01
   19298,   -4.000000e+01,    1.555556e+01,   -2.000000e+01
   19299,   -4.000000e+01,    1.111111e+01,   -2.400000e+01
   19300,   -4.000000e+01,    1.555556e+01,   -2.400000e+01
   19301,   -4.000000e+01,    1.111111e+01,   -2.800000e+01
   19302,   -4.000000e+01,    1.555556e+01,   -2.800000e+01
   19303,   -4.000000e+01,    1.111111e+01,   -3.200000e+01
   19304,   -4.000000e+01,    1.555556e+01,   -3.200000e+01
   19305,   -4.000000e+01,    1.111111e+01,   -3.600000e+01
   19306,   -4.000000e+01,    1.555556e+01,   -3.600000e+01
   19307,    1.035338e+01,    1.111111e+01,   -6.239661e+00
   19308,    1.543794e+01,    1.111111e+01,   -5.296863e+00
   19309,    1.979447e+01,    1.111111e+01,   -4.729876e+00
   19310,    2.393743e+01,    1.111111e+01,   -4.403914e+00
   19311,    2.799402e+01,    1.111111e+01,   -4.214100e+00
   19312,    3.201046e+01,    1.111111e+01,   -4.106555e+00
   19313,    3.600822e+01,    1.111111e+01,   -4.043703e+00
   19314,    3.603363e+01,    1.111111e+01,   -3.599565e+01
   19315,    3.206636e+01,    1.111111e+01,   -3.598076e+01
   19316,    2.809964e+01,    1.111111e+01,   -3.593847e+01
   19317,    2.412620e+01,    1.111111e+01,   -3.584023e+01
   19318,    2.014125e+01,    1.111111e+01,   -3.567464e+01
   19319,    1.614008e+01,    1.111111e+01,   -3.550916e+01
   19320,    1.210931e+01,    1.111111e+01,   -3.549320e+01
   19321,    8.067386e+00,    1.111111e+01,   -3.557565e+01
   19322,    4.018314e+00,    1.111111e+01,   -3.569426e+01
   19323,   -2.185552e-02,    1.111111e+01,   -3.581454e+01
   19324,   -4.049930e+00,    1.111111e+01,   -3.591278e+01
   19325,   -8.066805e+00,    1.111111e+01,   -3.598319e+01
   19326,   -1.207464e+01,    1.111111e+01,   -3.602514e+01
   19327,   -1.607607e+01,    1.111111e+01,   -3.603932e+01
   19328,   -2.007116e+01,    1.111111e+01,   -3.603858e+01
   19329,   -2.406112e+01,    1.111111e+01,   -3.603122e+01
   19330,   -2.804734e+01,    1.111111e+01,   -3.602356e+01
   19331,   -3.203121e+01,    1.111111e+01,   -3.601527e+01
   19332,   -3.601473e+01,    1.111111e+01,   -3.600728e+01
   19333,   -3.602582e+01,    1.111111e+01,   -4.010657e+00
   19334,   -3.204930e+01,    1.111111e+01,   -4.024200e+00
   19335,   -2.806748e+01,    1.111111e+01,   -4.042642e+00
   19336,   -2.406696e+01,    1.111111e+01,   -4.073720e+00
   19337,   -2.003270e+01,    1.111111e+01,   -4.147645e+00
   19338,   -1.591408e+01,    1.111111e+01,   -4.346095e+00
   19339,   -1.102871e+01,    1.111111e+01,   -5.208622e+00
   19340,    3.602988e+01,    1.111111e+01,   -8.076038e+00
   19341,    3.607704e+01,    1.111111e+01,   -1.209229e+01
   19342,    3.613444e+01,    1.111111e+01,   -1.608596e+01
   19343,    3.617567e+01,    1.111111e+01,   -2.005981e+01
   19344,    3.615918e+01,    1.111111e+01,   -2.402974e+01
   19345,    3.611786e+01,    1.111111e+01,   -2.800854e+01
   19346,    3.607315e+01,    1.111111e+01,   -3.199625e+01
   19347,   -3.603153e+01,    1.111111e+01,   -3.201490e+01
   19348,   -3.605004e+01,    1.111111e+01,   -2.802104e+01
   19349,   -3.606525e+01,    1.111111e+01,   -2.402789e+01
   19350,   -3.607824e+01,    1.111111e+01,   -2.003086e+01
   19351,   -3.608145e+01,    1.111111e+01,   -1.602970e+01
   19352,   -3.607165e+01,    1.111111e+01,   -1.202596e+01
   19353,   -3.605270e+01,    1.111111e+01,   -8.019129e+00
   19354,   -7.676420e+00,    1.111111e+01,   -8.483598e+00
   19355,   -6.292756e+00,    1.111111e+01,   -1.204892e+01
   19356,   -2.585946e+00,    1.111111e+01,   -1.130823e+01
   19357,    1.359922e+00,    1.111111e+01,   -1.094810e+01
   19358,    5.527334e+00,    1.111111e+01,   -9.659845e+00
   19359,   -3.210361e+01,    1.111111e+01,   -8.042339e+00
   19360,   -2.815510e+01,    1.111111e+01,   -8.071414e+00
   19361,   -2.421217e+01,    1.111111e+01,   -8.119311e+00
   19362,   -2.029000e+01,    1.111111e+01,   -8.213446e+00
   19363,   -1.639400e+01,    1.111111e+01,   -8.526873e+00
   19364,   -1.270903e+01,    1.111111e+01,   -9.124861e+00
   19365,   -1.001863e+01,    1.111111e+01,   -1.010961e+01
   19366,   -9.622448e+00,    1.111111e+01,   -1.280972e+01
   19367,   -9.151827e+00,    1.111111e+01,   -1.628220e+01
   19368,   -5.396329e+00,    1.111111e+01,   -1.578446e+01
   19369,   -1.447074e+00,    1.111111e+01,   -1.514390e+01
   19370,    2.476808e+00,    1.111111e+01,   -1.449494e+01
   19371,    6.692977e+00,    1.111111e+01,   -1.336327e+01
   19372,    1.116349e+01,    1.111111e+01,   -1.165195e+01
   19373,    1.565638e+01,    1.111111e+01,   -1.038855e+01
   19374,    1.991511e+01,    1.111111e+01,   -9.379810e+00
   19375,    2.403449e+01,    1.111111e+01,   -8.746451e+00
   19376,    2.807243e+01,    1.111111e+01,   -8.389235e+00
   19377,    3.206505e+01,    1.111111e+01,   -8.195069e+00
   19378,   -3.206475e+01,    1.111111e+01,   -3.203047e+01
   19379,   -3.209886e+01,    1.111111e+01,   -2.804457e+01
   19380,   -3.213310e+01,    1.111111e+01,   -2.405446e+01
   19381,   -3.215742e+01,    1.111111e+01,   -2.005855e+01
   19382,   -3.216365e+01,    1.111111e+01,   -1.605701e+01
   19383,   -3.214263e+01,    1.111111e+01,   -1.205265e+01
   19384,    3.216217e+01,    1.111111e+01,   -1.222571e+01
   19385,    3.229260e+01,    1.111111e+01,   -1.620179e+01
   19386,    3.238709e+01,    1.111111e+01,   -2.013122e+01
   19387,    3.233972e+01,    1.111111e+01,   -2.405016e+01
   19388,    3.224253e+01,    1.111111e+01,   -2.799413e+01
   19389,    3.214827e+01,    1.111111e+01,   -3.197185e+01
   19390,    2.822197e+01,    1.111111e+01,   -3.189704e+01
   19391,    2.428602e+01,    1.111111e+01,   -3.170823e+01
   19392,    2.033196e+01,    1.111111e+01,   -3.134567e+01
   19393,    1.633846e+01,    1.111111e+01,   -3.104956e+01
   19394,    1.224031e+01,    1.111111e+01,   -3.094010e+01
   19395,    8.123892e+00,    1.111111e+01,   -3.112419e+01
   19396,    4.018007e+00,    1.111111e+01,   -3.138206e+01
   19397,   -6.542876e-02,    1.111111e+01,   -3.162889e+01
   19398,   -4.124216e+00,    1.111111e+01,   -3.183011e+01
   19399,   -8.155029e+00,    1.111111e+01,   -3.197181e+01
   19400,   -1.216891e+01,    1.111111e+01,   -3.205153e+01
   19401,   -1.616803e+01,    1.111111e+01,   -3.207971e+01
   19402,   -2.015168e+01,    1.111111e+01,   -3.207489e+01
   19403,   -2.412672e+01,    1.111111e+01,   -3.206050e+01
   19404,   -2.809696e+01,    1.111111e+01,   -3.204531e+01
   19405,   -2.822439e+01,    1.111111e+01,   -1.208660e+01
   19406,   -2.432462e+01,    1.111111e+01,   -1.213923e+01
   19407,   -2.045791e+01,    1.111111e+01,   -1.222285e+01
   19408,   -1.666024e+01,    1.111111e+01,   -1.238090e+01
   19409,   -1.297778e+01,    1.111111e+01,   -1.267569e+01
   19410,   -1.287965e+01,    1.111111e+01,   -1.636961e+01
   19411,   -1.266446e+01,    1.111111e+01,   -2.022277e+01
   19412,   -8.769277e+00,    1.111111e+01,   -2.006644e+01
   19413,   -4.834281e+00,    1.111111e+01,   -1.968643e+01
   19414,   -7.972943e-01,    1.111111e+01,   -1.915056e+01
   19415,    3.342716e+00,    1.111111e+01,   -1.846399e+01
   19416,    7.486011e+00,    1.111111e+01,   -1.760938e+01
   19417,    1.186113e+01,    1.111111e+01,   -1.650747e+01
   19418,    1.625990e+01,    1.111111e+01,   -1.527754e+01
   19419,    2.040732e+01,    1.111111e+01,   -1.381863e+01
   19420,    2.431061e+01,    1.111111e+01,   -1.293101e+01
   19421,    2.825242e+01,    1.111111e+01,   -1.248018e+01
   19422,   -2.815075e+01,    1.111111e+01,   -2.806490e+01
   19423,   -2.820490e+01,    1.111111e+01,   -2.408056e+01
   19424,   -2.824369e+01,    1.111111e+01,   -2.008837e+01
   19425,   -2.825184e+01,    1.111111e+01,   -1.609231e+01
   19426,    2.848942e+01,    1.111111e+01,   -1.641873e+01
   19427,    2.868685e+01,    1.111111e+01,   -2.022711e+01
   19428,    2.855625e+01,    1.111111e+01,   -2.401984e+01
   19429,    2.837726e+01,    1.111111e+01,   -2.790630e+01
   19430,    2.451634e+01,    1.111111e+01,   -2.765203e+01
   19431,    2.069141e+01,    1.111111e+01,   -2.713403e+01
   19432,    1.667189e+01,    1.111111e+01,   -2.635339e+01
   19433,    1.238312e+01,    1.111111e+01,   -2.636243e+01
   19434,    8.154765e+00,    1.111111e+01,   -2.664113e+01
   19435,    3.967979e+00,    1.111111e+01,   -2.706137e+01
   19436,   -1.673856e-01,    1.111111e+01,   -2.744351e+01
   19437,   -4.249289e+00,    1.111111e+01,   -2.775387e+01
   19438,   -8.287866e+00,    1.111111e+01,   -2.796880e+01
   19439,   -1.229746e+01,    1.111111e+01,   -2.808248e+01
   19440,   -1.628430e+01,    1.111111e+01,   -2.811640e+01
   19441,   -2.025078e+01,    1.111111e+01,   -2.810617e+01
   19442,   -2.420374e+01,    1.111111e+01,   -2.808623e+01
   19443,   -1.666216e+01,    1.111111e+01,   -1.629514e+01
   19444,   -1.655734e+01,    1.111111e+01,   -2.022217e+01
   19445,   -1.641626e+01,    1.111111e+01,   -2.416168e+01
   19446,   -1.246127e+01,    1.111111e+01,   -2.412491e+01
   19447,   -8.489061e+00,    1.111111e+01,   -2.397315e+01
   19448,   -4.478439e+00,    1.111111e+01,   -2.367560e+01
   19449,   -3.990548e-01,    1.111111e+01,   -2.325239e+01
   19450,    3.758583e+00,    1.111111e+01,   -2.270783e+01
   19451,    7.994831e+00,    1.111111e+01,   -2.208453e+01
   19452,    1.249406e+01,    1.111111e+01,   -2.140399e+01
   19453,    1.749845e+01,    1.111111e+01,   -2.077788e+01
   19454,    2.122412e+01,    1.111111e+01,   -1.781483e+01
   19455,    2.479457e+01,    1.111111e+01,   -1.689246e+01
   19456,   -2.436292e+01,    1.111111e+01,   -1.613900e+01
   19457,   -2.048923e+01,    1.111111e+01,   -1.621063e+01
   19458,    2.528646e+01,    1.111111e+01,   -2.034120e+01
   19459,    2.490981e+01,    1.111111e+01,   -2.378897e+01
   19460,   -2.428118e+01,    1.111111e+01,   -2.410971e+01
   19461,   -2.433997e+01,    1.111111e+01,   -2.013038e+01
   19462,    2.137323e+01,    1.111111e+01,   -2.315172e+01
   19463,    2.257048e+01,    1.111111e+01,   -2.043818e+01
   19464,   -2.035498e+01,    1.111111e+01,   -2.414043e+01
   19465,   -2.043622e+01,    1.111111e+01,   -2.017628e+01
   19466,    1.035338e+01,    1.555556e+01,   -6.239661e+00
   19467,    1.543794e+01,    1.555556e+01,   -5.296863e+00
   19468,    1.979447e+01,    1.555556e+01,   -4.729876e+00
   19469,    2.393743e+01,    1.555556e+01,   -4.403914e+00
   19470,    2.799402e+01,    1.555556e+01,   -4.214100e+00
   19471,    3.201046e+01,    1.555556e+01,   -4.106555e+00
   19472,    3.600822e+01,    1.555556e+01,   -4.043703e+00
   19473,    3.603363e+01,    1.555556e+01,   -3.599565e+01
   19474,    3.206636e+01,    1.555556e+01,   -3.598076e+01
   19475,    2.809964e+01,    1.555556e+01,   -3.593847e+01
   19476,    2.412620e+01,    1.555556e+01,   -3.584023e+01
   19477,    2.014125e+01,    1.555556e+01,   -3.567464e+01
   19478,    1.614008e+01,    1.555556e+01,   -3.550916e+01
   19479,    1.210931e+01,    1.555556e+01,   -3.549320e+01
   19480,    8.067386e+00,    1.555556e+01,   -3.557565e+01
   19481,    4.018314e+00,    1.555556e+01,   -3.569426e+01
   19482,   -2.185552e-02,    1.555556e+01,   -3.581454e+01
   19483,   -4.049930e+00,    1.555556e+01,   -3.591278e+01
   19484,   -8.066805e+00,    1.555556e+01,   -3.598319e+01
   19485,   -1.207464e+01,    1.555556e+01,   -3.602514e+01
   19486,   -1.607607e+01,    1.555556e+01,   -3.603932e+01
   19487,   -2.007116e+01,    1.555556e+01,   -3.603858e+01
   19488,   -2.406112e+01,    1.555556e+01,   -3.603122e+01
   19489,   -2.804734e+01,    1.555556e+01,   -3.602356e+01
   19490,   -3.203121e+01,    1.555556e+01,   -3.601527e+01
   19491,   -3.601473e+01,    1.555556e+01,   -3.600728e+01
   19492,   -3.602582e+01,    1.555556e+01,   -4.010657e+00
   19493,   -3.204930e+01,    1.555556e+01,   -4.024200e+00
   19494,   -2.806748e+01,    1.555556e+01,   -4.042642e+00
   19495,   -2.406696e+01,    1.555556e+01,   -4.073720e+00
   19496,   -2.003270e+01,    1.555556e+01,   -4.147645e+00
   19497,   -1.591408e+01,    1.555556e+01,   -4.346095e+00
   19498,   -1.102871e+01,    1.555556e+01,   -5.208622e+00
   19499,    3.602988e+01,    1.555556e+01,   -8.076038e+00
   19500,    3.607704e+01,    1.555556e+01,   -1.209229e+01
   19501,    3.613444e+01,    1.555556e+01,   -1.608596e+01
   19502,    3.617567e+01,    1.555556e+01,   -2.005981e+01
   19503,    3.615918e+01,    1.555556e+01,   -2.402974e+01
   19504,    3.611786e+01,    1.555556e+01,   -2.800854e+01
   19505,    3.607315e+01,    1.555556e+01,   -3.199625e+01
   19506,   -3.603153e+01,    1.555556e+01,   -3.201490e+01
   19507,   -3.605004e+01,    1.555556e+01,   -2.802104e+01
   19508,   -3.606525e+01,    1.555556e+01,   -2.402789e+01
   19509,   -3.607824e+01,    1.555556e+01,   -2.003086e+01
   19510,   -3.608145e+01,    1.555556e+01,   -1.602970e+01
   19511,   -3.607165e+01,    1.555556e+01,   -1.202596e+01
   19512,   -3.605270e+01,    1.555556e+01,   -8.019129e+00
   19513,   -7.676420e+00,    1.555556e+01,   -8.483598e+00
   19514,   -6.292756e+00,    1.555556e+01,   -1.204892e+01
   19515,   -2.585946e+00,    1.555556e+01,   -1.130823e+01
   19516,    1.359922e+00,    1.555556e+01,   -1.094810e+01
   19517,    5.527334e+00,    1.555556e+01,   -9.659845e+00
   19518,   -3.210361e+01,    1.555556e+01,   -8.042339e+00
   19519,   -2.815510e+01,    1.555556e+01,   -8.071414e+00
   19520,   -2.421217e+01,    1.555556e+01,   -8.119311e+00
   19521,   -2.029000e+01,    1.555556e+01,   -8.213446e+00
   19522,   -1.639400e+01,    1.555556e+01,   -8.526873e+00
   19523,   -1.270903e+01,    1.555556e+01,   -9.124861e+00
   19524,   -1.001863e+01,    1.555556e+01,   -1.010961e+01
   19525,   -9.622448e+00,    1.555556e+01,   -1.280972e+01
   19526,   -9.151827e+00,    1.555556e+01,   -1.628220e+01
   19527,   -5.396329e+00,    1.555556e+01,   -1.578446e+01
   19528,   -1.447074e+00,    1.555556e+01,   -1.514390e+01
   19529,    2.476808e+00,    1.555556e+01,   -1.449494e+01
   19530,    6.692977e+00,    1.555556e+01,   -1.336327e+01
   19531,    1.116349e+01,    1.555556e+01,   -1.165195e+01
   19532,    1.565638e+01,    1.555556e+01,   -1.038855e+01
   19533,    1.991511e+01,    1.555556e+01,   -9.379810e+00
   19534,    2.403449e+01,    1.555556e+01,   -8.746451e+00
   19535,    2.807243e+01,    1.555556e+01,   -8.389235e+00
   19536,    3.206505e+01,    1.555556e+01,   -8.195069e+00
   19537,   -3.206475e+01,    1.555556e+01,   -3.203047e+01
   19538,   -3.209886e+01,    1.555556e+01,   -2.804457e+01
   19539,   -3.213310e+01,    1.555556e+01,   -2.405446e+01
   19540,   -3.215742e+01,    1.555556e+01,   -2.005855e+01
   19541,   -3.216365e+01,    1.555556e+01,   -1.605701e+01
   19542,   -3.214263e+01,    1.555556e+01,   -1.205265e+01
   19543,    3.216217e+01,    1.555556e+01,   -1.222571e+01
   19544,    3.229260e+01,    1.555556e+01,   -1.620179e+01
   19545,    3.238709e+01,    1.555556e+01,   -2.013122e+01
   19546,    3.233972e+01,    1.555556e+01,   -2.405016e+01
   19547,    3.224253e+01,    1.555556e+01,   -2.799413e+01
   19548,    3.214827e+01,    1.555556e+01,   -3.197185e+01
   19549,    2.822197e+01,    1.555556e+01,   -3.189704e+01
   19550,    2.428602e+01,    1.555556e+01,   -3.170823e+01
   19551,    2.033196e+01,    1.555556e+01,   -3.134567e+01
   19552,    1.633846e+01,    1.555556e+01,   -3.104956e+01
   19553,    1.224031e+01,    1.555556e+01,   -3.094010e+01
   19554,    8.123892e+00,    1.555556e+01,   -3.112419e+01
   19555,    4.018007e+00,    1.555556e+01,   -3.138206e+01
   19556,   -6.542876e-02,    1.555556e+01,   -3.162889e+01
   19557,   -4.124216e+00,    1.555556e+01,   -3.183011e+01
   19558,   -8.155029e+00,    1.555556e+01,   -3.197181e+01
   19559,   -1.216891e+01,    1.555556e+01,   -3.205153e+01
   19560,   -1.616803e+01,    1.555556e+01,   -3.207971e+01
   19561,   -2.015168e+01,    1.555556e+01,   -3.207489e+01
   19562,   -2.412672e+01,    1.555556e+01,   -3.206050e+01
   19563,   -2.809696e+01,    1.555556e+01,   -3.204531e+01
   19564,   -2.822439e+01,    1.555556e+01,   -1.208660e+01
   19565,   -2.432462e+01,    1.555556e+01,   -1.213923e+01
   19566,   -2.045791e+01,    1.555556e+01,   -1.222285e+01
   19567,   -1.666024e+01,    1.555556e+01,   -1.238090e+01
   19568,   -1.297778e+01,    1.555556e+01,   -1.267569e+01
   19569,   -1.287965e+01,    1.555556e+01,   -1.636961e+01
   19570,   -1.266446e+01,    1.555556e+01,   -2.022277e+01
   19571,   -8.769277e+00,    1.555556e+01,   -2.006644e+01
   19572,   -4.834281e+00,    1.555556e+01,   -1.968643e+01
   19573,   -7.972943e-01,    1.555556e+01,   -1.915056e+01
   19574,    3.342716e+00,    1.555556e+01,   -1.846399e+01
   19575,    7.486011e+00,    1.555556e+01,   -1.760938e+01
   19576,    1.186113e+01,    1.555556e+01,   -1.650747e+01
   19577,    1.625990e+01,    1.555556e+01,   -1.527754e+01
   19578,    2.040732e+01,    1.555556e+01,   -1.381863e+01
   19579,    2.431061e+01,    1.555556e+01,   -1.293101e+01
   19580,    2.825242e+01,    1.555556e+01,   -1.248018e+01
   19581,   -2.815075e+01,    1.555556e+01,   -2.806490e+01
   19582,   -2.820490e+01,    1.555556e+01,   -2.408056e+01
   19583,   -2.824369e+01,    1.555556e+01,   -2.008837e+01
   19584,   -2.825184e+01,    1.555556e+01,   -1.609231e+01
   19585,    2.848942e+01,    1.555556e+01,   -1.641873e+01
   19586,    2.868685e+01,    1.555556e+01,   -2.022711e+01
   19587,    2.855625e+01,    1.555556e+01,   -2.401984e+01
   19588,    2.837726e+01,    1.555556e+01,   -2.790630e+01
   19589,    2.451634e+01,    1.555556e+01,   -2.765203e+01
   19590,    2.069141e+01,    1.555556e+01,   -2.713403e+01
   19591,    1.667189e+01,    1.555556e+01,   -2.635339e+01
   19592,    1.238312e+01,    1.555556e+01,   -2.636243e+01
   19593,    8.154765e+00,    1.555556e+01,   -2.664113e+01
   19594,    3.967979e+00,    1.555556e+01,   -2.706137e+01
   19595,   -1.673856e-01,    1.555556e+01,   -2.744351e+01
   19596,   -4.249289e+00,    1.555556e+01,   -2.775387e+01
   19597,   -8.287866e+00,    1.555556e+01,   -2.796880e+01
   19598,   -1.229746e+01,    1.555556e+01,   -2.808248e+01
   19599,   -1.628430e+01,    1.555556e+01,   -2.811640e+01
   19600,   -2.025078e+01,    1.555556e+01,   -2.810617e+01
   19601,   -2.420374e+01,    1.555556e+01,   -2.808623e+01
   19602,   -1.666216e+01,    1.555556e+01,   -1.629514e+01
   19603,   -1.655734e+01,    1.555556e+01,   -2.022217e+01
   19604,   -1.641626e+01,    1.555556e+01,   -2.416168e+01
   19605,   -1.246127e+01,    1.555556e+01,   -2.412491e+01
   19606,   -8.489061e+00,    1.555556e+01,   -2.397315e+01
   19607,   -4.478439e+00,    1.555556e+01,   -2.367560e+01
   19608,   -3.990548e-01,    1.555556e+01,   -2.325239e+01
   19609,    3.758583e+00,    1.555556e+01,   -2.270783e+01
   19610,    7.994831e+00,    1.555556e+01,   -2.208453e+01
   19611,    1.249406e+01,    1.555556e+01,   -2.140399e+01
   19612,    1.749845e+01,    1.555556e+01,   -2.077788e+01
   19613,    2.122412e+01,    1.555556e+01,   -1.781483e+01
   19614,    2.479457e+01,    1.555556e+01,   -1.689246e+01
   19615,   -2.436292e+01,    1.555556e+01,   -1.613900e+01
   19616,   -2.048923e+01,    1.555556e+01,   -1.621063e+01
   19617,    2.528646e+01,    1.555556e+01,   -2.034120e+01
   19618,    2.490981e+01,    1.555556e+01,   -2.378897e+01
   19619,   -2.428118e+01,    1.555556e+01,   -2.410971e+01
   19620,   -2.433997e+01,    1.555556e+01,   -2.013038e+01
   19621,    2.137323e+01,    1.555556e+01,   -2.315172e+01
   19622,    2.257048e+01,    1.555556e+01,   -2.043818e+01
   19623,   -2.035498e+01,    1.555556e+01,   -2.414043e+01
   19624,   -2.043622e+01,    1.555556e+01,   -2.017628e+01
   19625,    1.035338e+01,    2.000000e+01,   -6.239661e+00
   19626,    1.543794e+01,    2.000000e+01,   -5.296863e+00
   19627,    1.979447e+01,    2.000000e+01,   -4.729876e+00
   19628,    2.393743e+01,    2.000000e+01,   -4.403914e+00
   19629,    2.799402e+01,    2.000000e+01,   -4.214100e+00
   19630,    3.201046e+01,    2.000000e+01,   -4.106555e+00
   19631,    3.600822e+01,    2.000000e+01,   -4.043703e+00
   19632,    3.603363e+01,    2.000000e+01,   -3.599565e+01
   19633,    3.206636e+01,    2.000000e+01,   -3.598076e+01
   19634,    2.809964e+01,    2.000000e+01,   -3.593847e+01
   19635,    2.412620e+01,    2.000000e+01,   -3.584023e+01
   19636,    2.014125e+01,    2.000000e+01,   -3.567464e+01
   19637,    1.614008e+01,    2.000000e+01,   -3.550916e+01
   19638,    1.210931e+01,    2.000000e+01,   -3.549320e+01
   19639,    8.067386e+00,    2.000000e+01,   -3.557565e+01
   19640,    4.018314e+00,    2.000000e+01,   -3.569426e+01
   19641,   -2.185552e-02,    2.000000e+01,   -3.581454e+01
   19642,   -4.049930e+00,    2.000000e+01,   -3.591278e+01
   19643,   -8.066805e+00,    2.000000e+01,   -3.598319e+01
   19644,   -1.207464e+01,    2.000000e+01,   -3.602514e+01
   19645,   -1.607607e+01,    2.000000e+01,   -3.603932e+01
   19646,   -2.007116e+01,    2.000000e+01,   -3.603858e+01
   19647,   -2.406112e+01,    2.000000e+01,   -3.603122e+01
   19648,   -2.804734e+01,    2.000000e+01,   -3.602356e+01
   19649,   -3.203121e+01,    2.000000e+01,   -3.601527e+01
   19650,   -3.601473e+01,    2.000000e+01,   -3.600728e+01
   19651,   -3.602582e+01,    2.000000e+01,   -4.010657e+00
   19652,   -3.204930e+01,    2.000000e+01,   -4.024200e+00
   19653,   -2.806748e+01,    2.000000e+01,   -4.042642e+00
   19654,   -2.406696e+01,    2.000000e+01,   -4.073720e+00
   19655,   -2.003270e+01,    2.000000e+01,   -4.147645e+00
   19656,   -1.591408e+01,    2.000000e+01,   -4.346095e+00
   19657,   -1.102871e+01,    2.000000e+01,   -5.208622e+00
   19658,    3.602988e+01,    2.000000e+01,   -8.076038e+00
   19659,    3.607704e+01,    2.000000e+01,   -1.209229e+01
   19660,    3.613444e+01,    2.000000e+01,   -1.608596e+01
   19661,    3.617567e+01,    2.000000e+01,   -2.005981e+01
   19662,    3.615918e+01,    2.000000e+01,   -2.402974e+01
   19663,    3.611786e+01,    2.000000e+01,   -2.800854e+01
   19664,    3.607315e+01,    2.000000e+01,   -3.199625e+01
   19665,   -3.603153e+01,    2.000000e+01,   -3.201490e+01
   19666,   -3.605004e+01,    2.000000e+01,   -2.802104e+01
   19667,   -3.606525e+01,    2.000000e+01,   -2.402789e+01
   19668,   -3.607824e+01,    2.000000e+01,   -2.003086e+01
   19669,   -3.608145e+01,    2.000000e+01,   -1.602970e+01
   19670,   -3.607165e+01,    2.000000e+01,   -1.202596e+01
   19671,   -3.605270e+01,    2.000000e+01,   -8.019129e+00
   19672,   -7.676420e+00,    2.000000e+01,   -8.483598e+00
   19673,   -6.292756e+00,    2.000000e+01,   -1.204892e+01
   19674,   -2.585946e+00,    2.000000e+01,   -1.130823e+01
   19675,    1.359922e+00,    2.000000e+01,   -1.094810e+01
   19676,    5.527334e+00,    2.000000e+01,   -9.659845e+00
   19677,   -3.210361e+01,    2.000000e+01,   -8.042339e+00
   19678,   -2.815510e+01,    2.000000e+01,   -8.071414e+00
   19679,   -2.421217e+01,    2.000000e+01,   -8.119311e+00
   19680,   -2.029000e+01,    2.000000e+01,   -8.213446e+00
   19681,   -1.639400e+01,    2.000000e+01,   -8.526873e+00
   19682,   -1.270903e+01,    2.000000e+01,   -9.124861e+00
   19683,   -1.001863e+01,    2.000000e+01,   -1.010961e+01
   19684,   -9.622448e+00,    2.000000e+01,   -1.280972e+01
   19685,   -9.151827e+00,    2.000000e+01,   -1.628220e+01
   19686,   -5.396329e+00,    2.000000e+01,   -1.578446e+01
   19687,   -1.447074e+00,    2.000000e+01,   -1.514390e+01
   19688,    2.476808e+00,    2.000000e+01,   -1.449494e+01
   19689,    6.692977e+00,    2.000000e+01,   -1.336327e+01
   19690,    1.116349e+01,    2.000000e+01,   -1.165195e+01
   19691,    1.565638e+01,    2.000000e+01,   -1.038855e+01
   19692,    1.991511e+01,    2.000000e+01,   -9.379810e+00
   19693,    2.403449e+01,    2.000000e+01,   -8.746451e+00
   19694,    2.807243e+01,    2.000000e+01,   -8.389235e+00
   19695,    3.206505e+01,    2.000000e+01,   -8.195069e+00
   19696,   -3.206475e+01,    2.000000e+01,   -3.203047e+01
   19697,   -3.209886e+01,    2.000000e+01,   -2.804457e+01
   19698,   -3.213310e+01,    2.000000e+01,   -2.405446e+01
   19699,   -3.215742e+01,    2.000000e+01,   -2.005855e+01
   19700,   -3.216365e+01,    2.000000e+01,   -1.605701e+01
   19701,   -3.214263e+01,    2.000000e+01,   -1.205265e+01
   19702,    3.216217e+01,    2.000000e+01,   -1.222571e+01
   19703,    3.229260e+01,    2.000000e+01,   -1.620179e+01
   19704,    3.238709e+01,    2.000000e+01,   -2.013122e+01
   19705,    3.233972e+01,    2.000000e+01,   -2.405016e+01
   19706,    3.224253e+01,    2.000000e+01,   -2.799413e+01
   19707,    3.214827e+01,    2.000000e+01,   -3.197185e+01
   19708,    2.822197e+01,    2.000000e+01,   -3.189704e+01
   19709,    2.428602e+01,    2.000000e+01,   -3.170823e+01
   19710,    2.033196e+01,    2.000000e+01,   -3.134567e+01
   19711,    1.633846e+01,    2.000000e+01,   -3.104956e+01
   19712,    1.224031e+01,    2.000000e+01,   -3.094010e+01
   19713,    8.123892e+00,    2.000000e+01,   -3.112419e+01
   19714,    4.018007e+00,    2.000000e+01,   -3.138206e+01
   19715,   -6.542876e-02,    2.000000e+01,   -3.162889e+01
   19716,   -4.124216e+00,    2.000000e+01,   -3.183011e+01
   19717,   -8.155029e+00,    2.000000e+01,   -3.197181e+01
   19718,   -1.216891e+01,    2.000000e+01,   -3.205153e+01
   19719,   -1.616803e+01,    2.000000e+01,   -3.207971e+01
   19720,   -2.015168e+01,    2.000000e+01,   -3.207489e+01
   19721,   -2.412672e+01,    2.000000e+01,   -3.206050e+01
   19722,   -2.809696e+01,    2.000000e+01,   -3.204531e+01
   19723,   -2.822439e+01,    2.000000e+01,   -1.208660e+01
   19724,   -2.432462e+01,    2.000000e+01,   -1.213923e+01
   19725,   -2.045791e+01,    2.000000e+01,   -1.222285e+01
   19726,   -1.666024e+01,    2.000000e+01,   -1.238090e+01
   19727,   -1.297778e+01,    2.000000e+01,   -1.267569e+01
   19728,   -1.287965e+01,    2.000000e+01,   -1.636961e+01
   19729,   -1.266446e+01,    2.000000e+01,   -2.022277e+01
   19730,   -8.769277e+00,    2.000000e+01,   -2.006644e+01
   19731,   -4.834281e+00,    2.000000e+01,   -1.968643e+01
   19732,   -7.972943e-01,    2.000000e+01,   -1.915056e+01
   19733,    3.342716e+00,    2.000000e+01,   -1.846399e+01
   19734,    7.486011e+00,    2.000000e+01,   -1.760938e+01
   19735,    1.186113e+01,    2.000000e+01,   -1.650747e+01
   19736,    1.625990e+01,    2.000000e+01,   -1.527754e+01
   19737,    2.040732e+01,    2.000000e+01,   -1.381863e+01
   19738,    2.431061e+01,    2.000000e+01,   -1.293101e+01
   19739,    2.825242e+01,    2.000000e+01,   -1.248018e+01
   19740,   -2.815075e+01,    2.000000e+01,   -2.806490e+01
   19741,   -2.820490e+01,    2.000000e+01,   -2.408056e+01
   19742,   -2.824369e+01,    2.000000e+01,   -2.008837e+01
   19743,   -2.825184e+01,    2.000000e+01,   -1.609231e+01
   19744,    2.848942e+01,    2.000000e+01,   -1.641873e+01
   19745,    2.868685e+01,    2.000000e+01,   -2.022711e+01
   19746,    2.855625e+01,    2.000000e+01,   -2.401984e+01
   19747,    2.837726e+01,    2.000000e+01,   -2.790630e+01
   19748,    2.451634e+01,    2.000000e+01,   -2.765203e+01
   19749,    2.069141e+01,    2.000000e+01,   -2.713403e+01
   19750,    1.667189e+01,    2.000000e+01,   -2.635339e+01
   19751,    1.238312e+01,    2.000000e+01,   -2.636243e+01
   19752,    8.154765e+00,    2.000000e+01,   -2.664113e+01
   19753,    3.967979e+00,    2.000000e+01,   -2.706137e+01
   19754,   -1.673856e-01,    2.000000e+01,   -2.744351e+01
   19755,   -4.249289e+00,    2.000000e+01,   -2.775387e+01
   19756,   -8.287866e+00,    2.000000e+01,   -2.796880e+01
   19757,   -1.229746e+01,    2.000000e+01,   -2.808248e+01
   19758,   -1.628430e+01,    2.000000e+01,   -2.811640e+01
   19759,   -2.025078e+01,    2.000000e+01,   -2.810617e+01
   19760,   -2.420374e+01,    2.000000e+01,   -2.808623e+01
   19761,   -1.666216e+01,    2.000000e+01,   -1.629514e+01
   19762,   -1.655734e+01,    2.000000e+01,   -2.022217e+01
   19763,   -1.641626e+01,    2.000000e+01,   -2.416168e+01
   19764,   -1.246127e+01,    2.000000e+01,   -2.412491e+01
   19765,   -8.489061e+00,    2.000000e+01,   -2.397315e+01
   19766,   -4.478439e+00,    2.000000e+01,   -2.367560e+01
   19767,   -3.990548e-01,    2.000000e+01,   -2.325239e+01
   19768,    3.758583e+00,    2.000000e+01,   -2.270783e+01
   19769,    7.994831e+00,    2.000000e+01,   -2.208453e+01
   19770,    1.249406e+01,    2.000000e+01,   -2.140399e+01
   19771,    1.749845e+01,    2.000000e+01,   -2.077788e+01
   19772,    2.122412e+01,    2.000000e+01,   -1.781483e+01
   19773,    2.479457e+01,    2.000000e+01,   -1.689246e+01
   19774,   -2.436292e+01,    2.000000e+01,   -1.613900e+01
   19775,   -2.048923e+01,    2.000000e+01,   -1.621063e+01
   19776,    2.528646e+01,    2.000000e+01,   -2.034120e+01
   19777,    2.490981e+01,    2.000000e+01,   -2.378897e+01
   19778,   -2.428118e+01,    2.000000e+01,   -2.410971e+01
   19779,   -2.433997e+01,    2.000000e+01,   -2.013038e+01
   19780,    2.137323e+01,    2.000000e+01,   -2.315172e+01
   19781,    2.257048e+01,    2.000000e+01,   -2.043818e+01
   19782,   -2.035498e+01,    2.000000e+01,   -2.414043e+01
   19783,   -2.043622e+01,    2.000000e+01,   -2.017628e+01
   19784,   -4.000000e+01,    0.000000e+00,    0.000000e+00
   19785,   -4.000000e+01,    3.333333e+00,    0.000000e+00
   19786,   -3.600000e+01,    0.000000e+00,    0.000000e+00
   19787,   -3.200000e+01,    0.000000e+00,    0.000000e+00
   19788,   -2.800000e+01,    0.000000e+00,    0.000000e+00
   19789,   -2.400000e+01,    0.000000e+00,    0.000000e+00
   19790,   -2.000000e+01,    0.000000e+00,    0.000000e+00
   19791,   -1.600000e+01,    0.000000e+00,    0.000000e+00
   19792,   -1.200000e+01,    0.000000e+00,    0.000000e+00
   19793,   -1.200000e+01,    3.333333e+00,    0.000000e+00
   19794,   -1.600000e+01,    3.333333e+00,    0.000000e+00
   19795,   -2.000000e+01,    3.333333e+00,    0.000000e+00
   19796,   -2.400000e+01,    3.333333e+00,    0.000000e+00
   19797,   -2.800000e+01,    3.333333e+00,    0.000000e+00
   19798,   -3.200000e+01,    3.333333e+00,    0.000000e+00
   19799,   -3.600000e+01,    3.333333e+00,    0.000000e+00
   19800,    4.000000e+01,    0.000000e+00,    0.000000e+00
   19801,    1.200000e+01,    0.000000e+00,    0.000000e+00
   19802,    1.600000e+01,    0.000000e+00,    0.000000e+00
   19803,    2.000000e+01,    0.000000e+00,    0.000000e+00
   19804,    2.400000e+01,    0.000000e+00,    0.000000e+00
   19805,    2.800000e+01,    0.000000e+00,    0.000000e+00
   19806,    3.200000e+01,    0.000000e+00,    0.000000e+00
   19807,    3.600000e+01,    0.000000e+00,    0.000000e+00
   19808,    4.000000e+01,    3.333333e+00,    0.000000e+00
   19809,    3.600000e+01,    3.333333e+00,    0.000000e+00
   19810,    3.200000e+01,    3.333333e+00,    0.000000e+00
   19811,    2.800000e+01,    3.333333e+00,    0.000000e+00
   19812,    2.400000e+01,    3.333333e+00,    0.000000e+00
   19813,    2.000000e+01,    3.333333e+00,    0.000000e+00
   19814,    1.600000e+01,    3.333333e+00,    0.000000e+00
   19815,    1.200000e+01,    3.333333e+00,    0.000000e+00
   19816,   -4.000000e+01,    0.000000e+00,   -4.000000e+01
   19817,   -4.000000e+01,    3.333333e+00,   -4.000000e+01
   19818,   -4.000000e+01,    0.000000e+00,   -4.000000e+00
   19819,   -4.000000e+01,    0.000000e+00,   -8.000000e+00
   19820,   -4.000000e+01,    0.000000e+00,   -1.200000e+01
   19821,   -4.000000e+01,    0.000000e+00,   -1.600000e+01
   19822,   -4.000000e+01,    0.000000e+00,   -2.000000e+01
   19823,   -4.000000e+01,    0.000000e+00,   -2.400000e+01
   19824,   -4.000000e+01,    0.000000e+00,   -2.800000e+01
   19825,   -4.000000e+01,    0.000000e+00,   -3.200000e+01
   19826,   -4.000000e+01,    0.000000e+00,   -3.600000e+01
   19827,   -4.000000e+01,    3.333333e+00,   -4.000000e+00
   19828,   -4.000000e+01,    3.333333e+00,   -8.000000e+00
   19829,   -4.000000e+01,    3.333333e+00,   -1.200000e+01
   19830,   -4.000000e+01,    3.333333e+00,   -1.600000e+01
   19831,   -4.000000e+01,    3.333333e+00,   -2.000000e+01
   19832,   -4.000000e+01,    3.333333e+00,   -2.400000e+01
   19833,   -4.000000e+01,    3.333333e+00,   -2.800000e+01
   19834,   -4.000000e+01,    3.333333e+00,   -3.200000e+01
   19835,   -4.000000e+01,    3.333333e+00,   -3.600000e+01
   19836,    4.000000e+01,    0.000000e+00,   -4.000000e+01
   19837,    4.000000e+01,    3.333333e+00,   -4.000000e+01
   19838,    3.600000e+01,    0.000000e+00,   -4.000000e+01
   19839,    3.200000e+01,    0.000000e+00,   -4.000000e+01
   19840,    2.800000e+01,    0.000000e+00,   -4.000000e+01
   19841,    2.400000e+01,    0.000000e+00,   -4.000000e+01
   19842,    2.000000e+01,    0.000000e+00,   -4.000000e+01
   19843,    1.600000e+01,    0.000000e+00,   -4.000000e+01
   19844,    1.200000e+01,    0.000000e+00,   -4.000000e+01
   19845,    8.000000e+00,    0.000000e+00,   -4.000000e+01
   19846,    4.000000e+00,    0.000000e+00,   -4.000000e+01
   19847,    0.000000e+00,    0.000000e+00,   -4.000000e+01
   19848,   -4.000000e+00,    0.000000e+00,   -4.000000e+01
   19849,   -8.000000e+00,    0.000000e+00,   -4.000000e+01
   19850,   -1.200000e+01,    0.000000e+00,   -4.000000e+01
   19851,   -1.600000e+01,    0.000000e+00,   -4.000000e+01
   19852,   -2.000000e+01,    0.000000e+00,   -4.000000e+01
   19853,   -2.400000e+01,    0.000000e+00,   -4.000000e+01
   19854,   -2.800000e+01,    0.000000e+00,   -4.000000e+01
   19855,   -3.200000e+01,    0.000000e+00,   -4.000000e+01
   19856,   -3.600000e+01,    0.000000e+00,   -4.000000e+01
   19857,   -3.600000e+01,    3.333333e+00,   -4.000000e+01
   19858,   -3.200000e+01,    3.333333e+00,   -4.000000e+01
   19859,   -2.800000e+01,    3.333333e+00,   -4.000000e+01
   19860,   -2.400000e+01,    3.333333e+00,   -4.000000e+01
   19861,   -2.000000e+01,    3.333333e+00,   -4.000000e+01
   19862,   -1.600000e+01,    3.333333e+00,   -4.000000e+01
   19863,   -1.200000e+01,    3.333333e+00,   -4.000000e+01
   19864,   -8.000000e+00,    3.333333e+00,   -4.000000e+01
   19865,   -4.000000e+00,    3.333333e+00,   -4.000000e+01
   19866,    1.776357e-15,    3.333333e+00,   -4.000000e+01
   19867,    4.000000e+00,    3.333333e+00,   -4.000000e+01
   19868,    8.000000e+00,    3.333333e+00,   -4.000000e+01
   19869,    1.200000e+01,    3.333333e+00,   -4.000000e+01
   19870,    1.600000e+01,    3.333333e+00,   -4.000000e+01
   19871,    2.000000e+01,    3.333333e+00,   -4.000000e+01
   19872,    2.400000e+01,    3.333333e+00,   -4.000000e+01
   19873,    2.800000e+01,    3.333333e+00,   -4.000000e+01
   19874,    3.200000e+01,    3.333333e+00,   -4.000000e+01
   19875,    3.600000e+01,    3.333333e+00,   -4.000000e+01
   19876,    4.000000e+01,    0.000000e+00,   -4.000000e+00
   19877,    4.000000e+01,    0.000000e+00,   -8.000000e+00
   19878,    4.000000e+01,    0.000000e+00,   -1.200000e+01
   19879,    4.000000e+01,    0.000000e+00,   -1.600000e+01
   19880,    4.000000e+01,    0.000000e+00,   -2.000000e+01
   19881,    4.000000e+01,    0.000000e+00,   -2.400000e+01
   19882,    4.000000e+01,    0.000000e+00,   -2.800000e+01
   19883,    4.000000e+01,    0.000000e+00,   -3.200000e+01
   19884,    4.000000e+01,    0.000000e+00,   -3.600000e+01
   19885,    4.000000e+01,    3.333333e+00,   -4.000000e+00
   19886,    4.000000e+01,    3.333333e+00,   -8.000000e+00
   19887,    4.000000e+01,    3.333333e+00,   -1.200000e+01
   19888,    4.000000e+01,    3.333333e+00,   -1.600000e+01
   19889,    4.000000e+01,    3.333333e+00,   -2.000000e+01
   19890,    4.000000e+01,    3.333333e+00,   -2.400000e+01
   19891,    4.000000e+01,    3.333333e+00,   -2.800000e+01
   19892,    4.000000e+01,    3.333333e+00,   -3.200000e+01
   19893,    4.000000e+01,    3.333333e+00,   -3.600000e+01
   19894,    1.035338e+01,    3.333333e+00,   -6.239661e+00
   19895,    1.543794e+01,    3.333333e+00,   -5.296863e+00
   19896,    1.979447e+01,    3.333333e+00,   -4.729876e+00
   19897,    2.393743e+01,    3.333333e+00,   -4.403914e+00
   19898,    2.799402e+01,    3.333333e+00,   -4.214100e+00
   19899,    3.201046e+01,    3.333333e+00,   -4.106555e+00
   19900,    3.600822e+01,    3.333333e+00,   -4.043703e+00
   19901,    3.603363e+01,    3.333333e+00,   -3.599565e+01
   19902,    3.206636e+01,    3.333333e+00,   -3.598076e+01
   19903,    2.809964e+01,    3.333333e+00,   -3.593847e+01
   19904,    2.412620e+01,    3.333333e+00,   -3.584023e+01
   19905,    2.014125e+01,    3.333333e+00,   -3.567464e+01
   19906,    1.614008e+01,    3.333333e+00,   -3.550916e+01
   19907,    1.210931e+01,    3.333333e+00,   -3.549320e+01
   19908,    8.067386e+00,    3.333333e+00,   -3.557565e+01
   19909,    4.018314e+00,    3.333333e+00,   -3.569426e+01
   19910,   -2.185552e-02,    3.333333e+00,   -3.581454e+01
   19911,   -4.049930e+00,    3.333333e+00,   -3.591278e+01
   19912,   -8.066805e+00,    3.333333e+00,   -3.598319e+01
   19913,   -1.207464e+01,    3.333333e+00,   -3.602514e+01
   19914,   -1.607607e+01,    3.333333e+00,   -3.603932e+01
   19915,   -2.007116e+01,    3.333333e+00,   -3.603858e+01
   19916,   -2.406112e+01,    3.333333e+00,   -3.603122e+01
   19917,   -2.804734e+01,    3.333333e+00,   -3.602356e+01
   19918,   -3.203121e+01,    3.333333e+00,   -3.601527e+01
   19919,   -3.601473e+01,    3.333333e+00,   -3.600728e+01
   19920,   -3.602582e+01,    3.333333e+00,   -4.010657e+00
   19921,   -3.204930e+01,    3.333333e+00,   -4.024200e+00
   19922,   -2.806748e+01,    3.333333e+00,   -4.042642e+00
   19923,   -2.406696e+01,    3.333333e+00,   -4.073720e+00
   19924,   -2.003270e+01,    3.333333e+00,   -4.147645e+00
   19925,   -1.591408e+01,    3.333333e+00,   -4.346095e+00
   19926,   -1.102871e+01,    3.333333e+00,   -5.208622e+00
   19927,    3.602988e+01,    3.333333e+00,   -8.076038e+00
   19928,    3.607704e+01,    3.333333e+00,   -1.209229e+01
   19929,    3.613444e+01,    3.333333e+00,   -1.608596e+01
   19930,    3.617567e+01,    3.333333e+00,   -2.005981e+01
   19931,    3.615918e+01,    3.333333e+00,   -2.402974e+01
   19932,    3.611786e+01,    3.333333e+00,   -2.800854e+01
   19933,    3.607315e+01,    3.333333e+00,   -3.199625e+01
   19934,   -3.603153e+01,    3.333333e+00,   -3.201490e+01
   19935,   -3.605004e+01,    3.333333e+00,   -2.802104e+01
   19936,   -3.606525e+01,    3.333333e+00,   -2.402789e+01
   19937,   -3.607824e+01,    3.333333e+00,   -2.003086e+01
   19938,   -3.608145e+01,    3.333333e+00,   -1.602970e+01
   19939,   -3.607165e+01,    3.333333e+00,   -1.202596e+01
   19940,   -3.605270e+01,    3.333333e+00,   -8.019129e+00
   19941,   -7.676420e+00,    3.333333e+00,   -8.483598e+00
   19942,   -2.585946e+00,    3.333333e+00,   -1.130823e+01
   19943,   -6.292756e+00,    3.333333e+00,   -1.204892e+01
   19944,    1.359922e+00,    3.333333e+00,   -1.094810e+01
   19945,    5.527334e+00,    3.333333e+00,   -9.659845e+00
   19946,   -3.210361e+01,    3.333333e+00,   -8.042339e+00
   19947,   -2.815510e+01,    3.333333e+00,   -8.071414e+00
   19948,   -2.421217e+01,    3.333333e+00,   -8.119311e+00
   19949,   -2.029000e+01,    3.333333e+00,   -8.213446e+00
   19950,   -1.639400e+01,    3.333333e+00,   -8.526873e+00
   19951,   -1.270903e+01,    3.333333e+00,   -9.124861e+00
   19952,   -1.001863e+01,    3.333333e+00,   -1.010961e+01
   19953,   -9.622448e+00,    3.333333e+00,   -1.280972e+01
   19954,   -5.396329e+00,    3.333333e+00,   -1.578446e+01
   19955,   -9.151827e+00,    3.333333e+00,   -1.628220e+01
   19956,   -1.447074e+00,    3.333333e+00,   -1.514390e+01
   19957,    2.476808e+00,    3.333333e+00,   -1.449494e+01
   19958,    6.692977e+00,    3.333333e+00,   -1.336327e+01
   19959,    1.116349e+01,    3.333333e+00,   -1.165195e+01
   19960,    1.565638e+01,    3.333333e+00,   -1.038855e+01
   19961,    1.991511e+01,    3.333333e+00,   -9.379810e+00
   19962,    2.403449e+01,    3.333333e+00,   -8.746451e+00
   19963,    2.807243e+01,    3.333333e+00,   -8.389235e+00
   19964,    3.206505e+01,    3.333333e+00,   -8.195069e+00
   19965,   -3.206475e+01,    3.333333e+00,   -3.203047e+01
   19966,   -3.209886e+01,    3.333333e+00,   -2.804457e+01
   19967,   -3.213310e+01,    3.333333e+00,   -2.405446e+01
   19968,   -3.215742e+01,    3.333333e+00,   -2.005855e+01
   19969,   -3.216365e+01,    3.333333e+00,   -1.605701e+01
   19970,   -3.214263e+01,    3.333333e+00,   -1.205265e+01
   19971,    3.216217e+01,    3.333333e+00,   -1.222571e+01
   19972,    3.229260e+01,    3.333333e+00,   -1.620179e+01
   19973,    3.238709e+01,    3.333333e+00,   -2.013122e+01
   19974,    3.233972e+01,    3.333333e+00,   -2.405016e+01
   19975,    3.224253e+01,    3.333333e+00,   -2.799413e+01
   19976,    3.214827e+01,    3.333333e+00,   -3.197185e+01
   19977,    2.822197e+01,    3.333333e+00,   -3.189704e+01
   19978,    2.428602e+01,    3.333333e+00,   -3.170823e+01
   19979,    2.033196e+01,    3.333333e+00,   -3.134567e+01
   19980,    1.633846e+01,    3.333333e+00,   -3.104956e+01
   19981,    1.224031e+01,    3.333333e+00,   -3.094010e+01
   19982,    8.123892e+00,    3.333333e+00,   -3.112419e+01
   19983,    4.018007e+00,    3.333333e+00,   -3.138206e+01
   19984,   -6.542876e-02,    3.333333e+00,   -3.162889e+01
   19985,   -4.124216e+00,    3.333333e+00,   -3.183011e+01
   19986,   -8.155029e+00,    3.333333e+00,   -3.197181e+01
   19987,   -1.216891e+01,    3.333333e+00,   -3.205153e+01
   19988,   -1.616803e+01,    3.333333e+00,   -3.207971e+01
   19989,   -2.015168e+01,    3.333333e+00,   -3.207489e+01
   19990,   -2.412672e+01,    3.333333e+00,   -3.206050e+01
   19991,   -2.809696e+01,    3.333333e+00,   -3.204531e+01
   19992,   -2.822439e+01,    3.333333e+00,   -1.208660e+01
   19993,   -2.432462e+01,    3.333333e+00,   -1.213923e+01
   19994,   -2.045791e+01,    3.333333e+00,   -1.222285e+01
   19995,   -1.666024e+01,    3.333333e+00,   -1.238090e+01
   19996,   -1.297778e+01,    3.333333e+00,   -1.267569e+01
   19997,   -1.287965e+01,    3.333333e+00,   -1.636961e+01
   19998,   -8.769277e+00,    3.333333e+00,   -2.006644e+01
   19999,   -1.266446e+01,    3.333333e+00,   -2.022277e+01
   20000,   -4.834281e+00,    3.333333e+00,   -1.968643e+01
   20001,   -7.972943e-01,    3.333333e+00,   -1.915056e+01
   20002,    3.342716e+00,    3.333333e+00,   -1.846399e+01
   20003,    7.486011e+00,    3.333333e+00,   -1.760938e+01
   20004,    1.186113e+01,    3.333333e+00,   -1.650747e+01
   20005,    1.625990e+01,    3.333333e+00,   -1.527754e+01
   20006,    2.040732e+01,    3.333333e+00,   -1.381863e+01
   20007,    2.431061e+01,    3.333333e+00,   -1.293101e+01
   20008,    2.825242e+01,    3.333333e+00,   -1.248018e+01
   20009,   -2.815075e+01,    3.333333e+00,   -2.806490e+01
   20010,   -2.820490e+01,    3.333333e+00,   -2.408056e+01
   20011,   -2.824369e+01,    3.333333e+00,   -2.008837e+01
   20012,   -2.825184e+01,    3.333333e+00,   -1.609231e+01
   20013,    2.848942e+01,    3.333333e+00,   -1.641873e+01
   20014,    2.868685e+01,    3.333333e+00,   -2.022711e+01
   20015,    2.855625e+01,    3.333333e+00,   -2.401984e+01
   20016,    2.837726e+01,    3.333333e+00,   -2.790630e+01
   20017,    2.451634e+01,    3.333333e+00,   -2.765203e+01
   20018,    2.069141e+01,    3.333333e+00,   -2.713403e+01
   20019,    1.667189e+01,    3.333333e+00,   -2.635339e+01
   20020,    1.238312e+01,    3.333333e+00,   -2.636243e+01
   20021,    8.154765e+00,    3.333333e+00,   -2.664113e+01
   20022,    3.967979e+00,    3.333333e+00,   -2.706137e+01
   20023,   -1.673856e-01,    3.333333e+00,   -2.744351e+01
   20024,   -4.249289e+00,    3.333333e+00,   -2.775387e+01
   20025,   -8.287866e+00,    3.333333e+00,   -2.796880e+01
   20026,   -1.229746e+01,    3.333333e+00,   -2.808248e+01
   20027,   -1.628430e+01,    3.333333e+00,   -2.811640e+01
   20028,   -2.025078e+01,    3.333333e+00,   -2.810617e+01
   20029,   -2.420374e+01,    3.333333e+00,   -2.808623e+01
   20030,   -1.666216e+01,    3.333333e+00,   -1.629514e+01
   20031,   -1.655734e+01,    3.333333e+00,   -2.022217e+01
   20032,   -1.246127e+01,    3.333333e+00,   -2.412491e+01
   20033,   -1.641626e+01,    3.333333e+00,   -2.416168e+01
   20034,   -8.489061e+00,    3.333333e+00,   -2.397315e+01
   20035,   -4.478439e+00,    3.333333e+00,   -2.367560e+01
   20036,   -3.990548e-01,    3.333333e+00,   -2.325239e+01
   20037,    3.758583e+00,    3.333333e+00,   -2.270783e+01
   20038,    7.994831e+00,    3.333333e+00,   -2.208453e+01
   20039,    1.249406e+01,    3.333333e+00,   -2.140399e+01
   20040,    1.749845e+01,    3.333333e+00,   -2.077788e+01
   20041,    2.122412e+01,    3.333333e+00,   -1.781483e+01
   20042,    2.479457e+01,    3.333333e+00,   -1.689246e+01
   20043,   -2.436292e+01,    3.333333e+00,   -1.613900e+01
   20044,   -2.048923e+01,    3.333333e+00,   -1.621063e+01
   20045,    2.528646e+01,    3.333333e+00,   -2.034120e+01
   20046,    2.490981e+01,    3.333333e+00,   -2.378897e+01
   20047,   -2.428118e+01,    3.333333e+00,   -2.410971e+01
   20048,   -2.433997e+01,    3.333333e+00,   -2.013038e+01
   20049,    2.137323e+01,    3.333333e+00,   -2.315172e+01
   20050,    2.257048e+01,    3.333333e+00,   -2.043818e+01
   20051,   -2.035498e+01,    3.333333e+00,   -2.414043e+01
   20052,   -2.043622e+01,    3.333333e+00,   -2.017628e+01
   20053,    1.035338e+01,    0.000000e+00,   -6.239661e+00
   20054,    1.543794e+01,    0.000000e+00,   -5.296863e+00
   20055,    1.979447e+01,    0.000000e+00,   -4.729876e+00
   20056,    2.393743e+01,    0.000000e+00,   -4.403914e+00
   20057,    2.799402e+01,    0.000000e+00,   -4.214100e+00
   20058,    3.201046e+01,    0.000000e+00,   -4.106555e+00
   20059,    3.600822e+01,    0.000000e+00,   -4.043703e+00
   20060,    3.603363e+01,    0.000000e+00,   -3.599565e+01
   20061,    3.206636e+01,    0.000000e+00,   -3.598076e+01
   20062,    2.809964e+01,    0.000000e+00,   -3.593847e+01
   20063,    2.412620e+01,    0.000000e+00,   -3.584023e+01
   20064,    2.014125e+01,    0.000000e+00,   -3.567464e+01
   20065,    1.614008e+01,    0.000000e+00,   -3.550916e+01
   20066,    1.210931e+01,    0.000000e+00,   -3.549320e+01
   20067,    8.067386e+00,    0.000000e+00,   -3.557565e+01
   20068,    4.018314e+00,    0.000000e+00,   -3.569426e+01
   20069,   -2.185552e-02,    0.000000e+00,   -3.581454e+01
   20070,   -4.049930e+00,    0.000000e+00,   -3.591278e+01
   20071,   -8.066805e+00,    0.000000e+00,   -3.598319e+01
   20072,   -1.207464e+01,    0.000000e+00,   -3.602514e+01
   20073,   -1.607607e+01,    0.000000e+00,   -3.603932e+01
   20074,   -2.007116e+01,    0.000000e+00,   -3.603858e+01
   20075,   -2.406112e+01,    0.000000e+00,   -3.603122e+01
   20076,   -2.804734e+01,    0.000000e+00,   -3.602356e+01
   20077,   -3.203121e+01,    0.000000e+00,   -3.601527e+01
   20078,   -3.601473e+01,    0.000000e+00,   -3.600728e+01
   20079,   -3.602582e+01,    0.000000e+00,   -4.010657e+00
   20080,   -3.204930e+01,    0.000000e+00,   -4.024200e+00
   20081,   -2.806748e+01,    0.000000e+00,   -4.042642e+00
   20082,   -2.406696e+01,    0.000000e+00,   -4.073720e+00
   20083,   -2.003270e+01,    0.000000e+00,   -4.147645e+00
   20084,   -1.591408e+01,    0.000000e+00,   -4.346095e+00
   20085,   -1.102871e+01,    0.000000e+00,   -5.208622e+00
   20086,    3.602988e+01,    0.000000e+00,   -8.076038e+00
   20087,    3.607704e+01,    0.000000e+00,   -1.209229e+01
   20088,    3.613444e+01,    0.000000e+00,   -1.608596e+01
   20089,    3.617567e+01,    0.000000e+00,   -2.005981e+01
   20090,    3.615918e+01,    0.000000e+00,   -2.402974e+01
   20091,    3.611786e+01,    0.000000e+00,   -2.800854e+01
   20092,    3.607315e+01,    0.000000e+00,   -3.199625e+01
   20093,   -3.603153e+01,    0.000000e+00,   -3.201490e+01
   20094,   -3.605004e+01,    0.000000e+00,   -2.802104e+01
   20095,   -3.606525e+01,    0.000000e+00,   -2.402789e+01
   20096,   -3.607824e+01,    0.000000e+00,   -2.003086e+01
   20097,   -3.608145e+01,    0.000000e+00,   -1.602970e+01
   20098,   -3.607165e+01,    0.000000e+00,   -1.202596e+01
   20099,   -3.605270e+01,    0.000000e+00,   -8.019129e+00
   20100,   -7.676420e+00,    0.000000e+00,   -8.483598e+00
   20101,   -2.585946e+00,    0.000000e+00,   -1.130823e+01
   20102,   -6.292756e+00,    0.000000e+00,   -1.204892e+01
   20103,    1.359922e+00,    0.000000e+00,   -1.094810e+01
   20104,    5.527334e+00,    0.000000e+00,   -9.659845e+00
   20105,   -3.210361e+01,    0.000000e+00,   -8.042339e+00
   20106,   -2.815510e+01,    0.000000e+00,   -8.071414e+00
   20107,   -2.421217e+01,    0.000000e+00,   -8.119311e+00
   20108,   -2.029000e+01,    0.000000e+00,   -8.213446e+00
   20109,   -1.639400e+01,    0.000000e+00,   -8.526873e+00
   20110,   -1.270903e+01,    0.000000e+00,   -9.124861e+00
   20111,   -1.001863e+01,    0.000000e+00,   -1.010961e+01
   20112,   -9.622448e+00,    0.000000e+00,   -1.280972e+01
   20113,   -5.396329e+00,    0.000000e+00,   -1.578446e+01
   20114,   -9.151827e+00,    0.000000e+00,   -1.628220e+01
   20115,   -1.447074e+00,    0.000000e+00,   -1.514390e+01
   20116,    2.476808e+00,    0.000000e+00,   -1.449494e+01
   20117,    6.692977e+00,    0.000000e+00,   -1.336327e+01
   20118,    1.116349e+01,    0.000000e+00,   -1.165195e+01
   20119,    1.565638e+01,    0.000000e+00,   -1.038855e+01
   20120,    1.991511e+01,    0.000000e+00,   -9.379810e+00
   20121,    2.403449e+01,    0.000000e+00,   -8.746451e+00
   20122,    2.807243e+01,    0.000000e+00,   -8.389235e+00
   20123,    3.206505e+01,    0.000000e+00,   -8.195069e+00
   20124,   -3.206475e+01,    0.000000e+00,   -3.203047e+01
   20125,   -3.209886e+01,    0.000000e+00,   -2.804457e+01
   20126,   -3.213310e+01,    0.000000e+00,   -2.405446e+01
   20127,   -3.215742e+01,    0.000000e+00,   -2.005855e+01
   20128,   -3.216365e+01,    0.000000e+00,   -1.605701e+01
   20129,   -3.214263e+01,    0.000000e+00,   -1.205265e+01
   20130,    3.216217e+01,    0.000000e+00,   -1.222571e+01
   20131,    3.229260e+01,    0.000000e+00,   -1.620179e+01
   20132,    3.238709e+01,    0.000000e+00,   -2.013122e+01
   20133,    3.233972e+01,    0.000000e+00,   -2.405016e+01
   20134,    3.224253e+01,    0.000000e+00,   -2.799413e+01
   20135,    3.214827e+01,    0.000000e+00,   -3.197185e+01
   20136,    2.822197e+01,    0.000000e+00,   -3.189704e+01
   20137,    2.428602e+01,    0.000000e+00,   -3.170823e+01
   20138,    2.033196e+01,    0.000000e+00,   -3.134567e+01
   20139,    1.633846e+01,    0.000000e+00,   -3.104956e+01
   20140,    1.224031e+01,    0.000000e+00,   -3.094010e+01
   20141,    8.123892e+00,    0.000000e+00,   -3.112419e+01
   20142,    4.018007e+00,    0.000000e+00,   -3.138206e+01
   20143,   -6.542876e-02,    0.000000e+00,   -3.162889e+01
   20144,   -4.124216e+00,    0.000000e+00,   -3.183011e+01
   20145,   -8.155029e+00,    0.000000e+00,   -3.197181e+01
   20146,   -1.216891e+01,    0.000000e+00,   -3.205153e+01
   20147,   -1.616803e+01,    0.000000e+00,   -3.207971e+01
   20148,   -2.015168e+01,    0.000000e+00,   -3.207489e+01
   20149,   -2.412672e+01,    0.000000e+00,   -3.206050e+01
   20150,   -2.809696e+01,    0.000000e+00,   -3.204531e+01
   20151,   -2.822439e+01,    0.000000e+00,   -1.208660e+01
   20152,   -2.432462e+01,    0.000000e+00,   -1.213923e+01
   20153,   -2.045791e+01,    0.000000e+00,   -1.222285e+01
   20154,   -1.666024e+01,    0.000000e+00,   -1.238090e+01
   20155,   -1.297778e+01,    0.000000e+00,   -1.267569e+01
   20156,   -1.287965e+01,    0.000000e+00,   -1.636961e+01
   20157,   -8.769277e+00,    0.000000e+00,   -2.006644e+01
   20158,   -1.266446e+01,    0.000000e+00,   -2.022277e+01
   20159,   -4.834281e+00,    0.000000e+00,   -1.968643e+01
   20160,   -7.972943e-01,    0.000000e+00,   -1.915056e+01
   20161,    3.342716e+00,    0.000000e+00,   -1.846399e+01
   20162,    7.486011e+00,    0.000000e+00,   -1.760938e+01
   20163,    1.186113e+01,    0.000000e+00,   -1.650747e+01
   20164,    1.625990e+01,    0.000000e+00,   -1.527754e+01
   20165,    2.040732e+01,    0.000000e+00,   -1.381863e+01
   20166,    2.431061e+01,    0.000000e+00,   -1.293101e+01
   20167,    2.825242e+01,    0.000000e+00,   -1.248018e+01
   20168,   -2.815075e+01,    0.000000e+00,   -2.806490e+01
   20169,   -2.820490e+01,    0.000000e+00,   -2.408056e+01
   20170,   -2.824369e+01,    0.000000e+00,   -2.008837e+01
   20171,   -2.825184e+01,    0.000000e+00,   -1.609231e+01
   20172,    2.848942e+01,    0.000000e+00,   -1.641873e+01
   20173,    2.868685e+01,    0.000000e+00,   -2.022711e+01
   20174,    2.855625e+01,    0.000000e+00,   -2.401984e+01
   20175,    2.837726e+01,    0.000000e+00,   -2.790630e+01
   20176,    2.451634e+01,    0.000000e+00,   -2.765203e+01
   20177,    2.069141e+01,    0.000000e+00,   -2.713403e+01
   20178,    1.667189e+01,    0.000000e+00,   -2.635339e+01
   20179,    1.238312e+01,    0.000000e+00,   -2.636243e+01
   20180,    8.154765e+00,    0.000000e+00,   -2.664113e+01
   20181,    3.967979e+00,    0.000000e+00,   -2.706137e+01
   20182,   -1.673856e-01,    0.000000e+00,   -2.744351e+01
   20183,   -4.249289e+00,    0.000000e+00,   -2.775387e+01
   20184,   -8.287866e+00,    0.000000e+00,   -2.796880e+01
   20185,   -1.229746e+01,    0.000000e+00,   -2.808248e+01
   20186,   -1.628430e+01,    0.000000e+00,   -2.811640e+01
   20187,   -2.025078e+01,    0.000000e+00,   -2.810617e+01
   20188,   -2.420374e+01,    0.000000e+00,   -2.808623e+01
   20189,   -1.666216e+01,    0.000000e+00,   -1.629514e+01
   20190,   -1.655734e+01,    0.000000e+00,   -2.022217e+01
   20191,   -1.246127e+01,    0.000000e+00,   -2.412491e+01
   20192,   -1.641626e+01,    0.000000e+00,   -2.416168e+01
   20193,   -8.489061e+00,    0.000000e+00,   -2.397315e+01
   20194,   -4.478439e+00,    0.000000e+00,   -2.367560e+01
   20195,   -3.990548e-01,    0.000000e+00,   -2.325239e+01
   20196,    3.758583e+00,    0.000000e+00,   -2.270783e+01
   20197,    7.994831e+00,    0.000000e+00,   -2.208453e+01
   20198,    1.249406e+01,    0.000000e+00,   -2.140399e+01
   20199,    1.749845e+01,    0.000000e+00,   -2.077788e+01
   20200,    2.122412e+01,    0.000000e+00,   -1.781483e+01
   20201,    2.479457e+01,    0.000000e+00,   -1.689246e+01
   20202,   -2.436292e+01,    0.000000e+00,   -1.613900e+01
   20203,   -2.048923e+01,    0.000000e+00,   -1.621063e+01
   20204,    2.528646e+01,    0.000000e+00,   -2.034120e+01
   20205,    2.490981e+01,    0.000000e+00,   -2.378897e+01
   20206,   -2.428118e+01,    0.000000e+00,   -2.410971e+01
   20207,   -2.433997e+01,    0.000000e+00,   -2.013038e+01
   20208,    2.137323e+01,    0.000000e+00,   -2.315172e+01
   20209,    2.257048e+01,    0.000000e+00,   -2.043818e+01
   20210,   -2.035498e+01,    0.000000e+00,   -2.414043e+01
   20211,   -2.043622e+01,    0.000000e+00,   -2.017628e+01
   26374,   -9.000000e+00,    1.874700e-31,    0.000000e+00
   26375,   -9.000000e+00,   -1.000000e+02,    0.000000e+00
   26376,   -9.000000e+00,   -4.000000e+00,   -2.816688e-15
   26377,   -9.000000e+00,   -8.000000e+00,   -2.571758e-15
   26378,   -9.000000e+00,   -1.200000e+01,   -2.326829e-15
   26379,   -9.000000e+00,   -1.600000e+01,   -2.081900e-15
   26380,   -9.000000e+00,   -2.000000e+01,   -1.836970e-15
   26381,   -9.000000e+00,   -2.400000e+01,   -1.592041e-15
   26382,   -9.000000e+00,   -2.800000e+01,   -1.347111e-15
   26383,   -9.000000e+00,   -3.200000e+01,   -1.102182e-15
   26384,   -9.000000e+00,   -3.600000e+01,   -8.572528e-16
   26385,   -9.000000e+00,   -4.000000e+01,   -6.123234e-16
   26386,   -9.000000e+00,   -4.400000e+01,   -3.673940e-16
   26387,   -9.000000e+00,   -4.800000e+01,   -1.224647e-16
   26388,   -9.000000e+00,   -5.200000e+01,    1.224647e-16
   26389,   -9.000000e+00,   -5.600000e+01,    3.673940e-16
   26390,   -9.000000e+00,   -6.000000e+01,    6.123234e-16
   26391,   -9.000000e+00,   -6.400000e+01,    8.572528e-16
   26392,   -9.000000e+00,   -6.800000e+01,    1.102182e-15
   26393,   -9.000000e+00,   -7.200000e+01,    1.347111e-15
   26394,   -9.000000e+00,   -7.600000e+01,    1.592041e-15
   26395,   -9.000000e+00,   -8.000000e+01,    1.836970e-15
   26396,   -9.000000e+00,   -8.400000e+01,    2.081900e-15
   26397,   -9.000000e+00,   -8.800000e+01,    2.326829e-15
   26398,   -9.000000e+00,   -9.200000e+01,    2.571758e-15
   26399,   -9.000000e+00,   -9.600000e+01,    2.816688e-15
   26400,   -8.000000e+00,   -1.000000e+02,    0.000000e+00
   26401,   -8.000000e+00,    1.874700e-31,    0.000000e+00
   26402,   -8.000000e+00,   -9.600000e+01,    2.816688e-15
   26403,   -8.000000e+00,   -9.200000e+01,    2.571758e-15
   26404,   -8.000000e+00,   -8.800000e+01,    2.326829e-15
   26405,   -8.000000e+00,   -8.400000e+01,    2.081900e-15
   26406,   -8.000000e+00,   -8.000000e+01,    1.836970e-15
   26407,   -8.000000e+00,   -7.600000e+01,    1.592041e-15
   26408,   -8.000000e+00,   -7.200000e+01,    1.347111e-15
   26409,   -8.000000e+00,   -6.800000e+01,    1.102182e-15
   26410,   -8.000000e+00,   -6.400000e+01,    8.572528e-16
   26411,   -8.000000e+00,   -6.000000e+01,    6.123234e-16
   26412,   -8.000000e+00,   -5.600000e+01,    3.673940e-16
   26413,   -8.000000e+00,   -5.200000e+01,    1.224647e-16
   26414,   -8.000000e+00,   -4.800000e+01,   -1.224647e-16
   26415,   -8.000000e+00,   -4.400000e+01,   -3.673940e-16
   26416,   -8.000000e+00,   -4.000000e+01,   -6.123234e-16
   26417,   -8.000000e+00,   -3.600000e+01,   -8.572528e-16
   26418,   -8.000000e+00,   -3.200000e+01,   -1.102182e-15
   26419,   -8.000000e+00,   -2.800000e+01,   -1.347111e-15
   26420,   -8.000000e+00,   -2.400000e+01,   -1.592041e-15
   26421,   -8.000000e+00,   -2.000000e+01,   -1.836970e-15
   26422,   -8.000000e+00,   -1.600000e+01,   -2.081900e-15
   26423,   -8.000000e+00,   -1.200000e+01,   -2.326829e-15
   26424,   -8.000000e+00,   -8.000000e+00,   -2.571758e-15
   26425,   -8.000000e+00,   -4.000000e+00,   -2.816688e-15
   26426,    9.000000e+00,   -1.000000e+02,    3.061617e-15
   26427,    9.000000e+00,    0.000000e+00,   -3.061617e-15
   26428,    9.000000e+00,   -9.600000e+01,    2.816688e-15
   26429,    9.000000e+00,   -9.200000e+01,    2.571758e-15
   26430,    9.000000e+00,   -8.800000e+01,    2.326829e-15
   26431,    9.000000e+00,   -8.400000e+01,    2.081900e-15
   26432,    9.000000e+00,   -8.000000e+01,    1.836970e-15
   26433,    9.000000e+00,   -7.600000e+01,    1.592041e-15
   26434,    9.000000e+00,   -7.200000e+01,    1.347111e-15
   26435,    9.000000e+00,   -6.800000e+01,    1.102182e-15
   26436,    9.000000e+00,   -6.400000e+01,    8.572528e-16
   26437,    9.000000e+00,   -6.000000e+01,    6.123234e-16
   26438,    9.000000e+00,   -5.600000e+01,    3.673940e-16
   26439,    9.000000e+00,   -5.200000e+01,    1.224647e-16
   26440,    9.000000e+00,   -4.800000e+01,   -1.224647e-16
   26441,    9.000000e+00,   -4.400000e+01,   -3.673940e-16
   26442,    9.000000e+00,   -4.000000e+01,   -6.123234e-16
   26443,    9.000000e+00,   -3.600000e+01,   -8.572528e-16
   26444,    9.000000e+00,   -3.200000e+01,   -1.102182e-15
   26445,    9.000000e+00,   -2.800000e+01,   -1.347111e-15
   26446,    9.000000e+00,   -2.400000e+01,   -1.592041e-15
   26447,    9.000000e+00,   -2.000000e+01,   -1.836970e-15
   26448,    9.000000e+00,   -1.600000e+01,   -2.081900e-15
   26449,    9.000000e+00,   -1.200000e+01,   -2.326829e-15
   26450,    9.000000e+00,   -8.000000e+00,   -2.571758e-15
   26451,    9.000000e+00,   -4.000000e+00,   -2.816688e-15
   26452,    8.000000e+00,    0.000000e+00,   -3.061617e-15
   26453,    8.000000e+00,   -1.000000e+02,    3.061617e-15
   26454,    8.000000e+00,   -4.000000e+00,   -2.816688e-15
   26455,    8.000000e+00,   -8.000000e+00,   -2.571758e-15
   26456,    8.000000e+00,   -1.200000e+01,   -2.326829e-15
   26457,    8.000000e+00,   -1.600000e+01,   -2.081900e-15
   26458,    8.000000e+00,   -2.000000e+01,   -1.836970e-15
   26459,    8.000000e+00,   -2.400000e+01,   -1.592041e-15
   26460,    8.000000e+00,   -2.800000e+01,   -1.347111e-15
   26461,    8.000000e+00,   -3.200000e+01,   -1.102182e-15
   26462,    8.000000e+00,   -3.600000e+01,   -8.572528e-16
   26463,    8.000000e+00,   -4.000000e+01,   -6.123234e-16
   26464,    8.000000e+00,   -4.400000e+01,   -3.673940e-16
   26465,    8.000000e+00,   -4.800000e+01,   -1.224647e-16
   26466,    8.000000e+00,   -5.200000e+01,    1.224647e-16
   26467,    8.000000e+00,   -5.600000e+01,    3.673940e-16
   26468,    8.000000e+00,   -6.000000e+01,    6.123234e-16
   26469,    8.000000e+00,   -6.400000e+01,    8.572528e-16
   26470,    8.000000e+00,   -6.800000e+01,    1.102182e-15
   26471,    8.000000e+00,   -7.200000e+01,    1.347111e-15
   26472,    8.000000e+00,   -7.600000e+01,    1.592041e-15
   26473,    8.000000e+00,   -8.000000e+01,    1.836970e-15
   26474,    8.000000e+00,   -8.400000e+01,    2.081900e-15
   26475,    8.000000e+00,   -8.800000e+01,    2.326829e-15
   26476,    8.000000e+00,   -9.200000e+01,    2.571758e-15
   26477,    8.000000e+00,   -9.600000e+01,    2.816688e-15
   26478,    8.108720e+00,   -2.391094e-16,   -3.904954e+00
   26479,    5.611408e+00,   -4.308603e-16,   -7.036483e+00
   26480,    2.002688e+00,   -5.372741e-16,   -8.774351e+00
   26481,   -2.002688e+00,   -5.372741e-16,   -8.774351e+00
   26482,   -5.611408e+00,   -4.308603e-16,   -7.036483e+00
   26483,   -8.108720e+00,   -2.391094e-16,   -3.904954e+00
   26484,   -7.207751e+00,   -2.125417e-16,   -3.471070e+00
   26485,   -4.987918e+00,   -3.829870e-16,   -6.254652e+00
   26486,   -1.780167e+00,   -4.775769e-16,   -7.799423e+00
   26487,    1.780167e+00,   -4.775769e-16,   -7.799423e+00
   26488,    4.987918e+00,   -3.829870e-16,   -6.254652e+00
   26489,    7.207751e+00,   -2.125417e-16,   -3.471070e+00
   26490,   -8.108720e+00,   -1.000000e+02,   -3.904954e+00
   26491,   -5.611408e+00,   -1.000000e+02,   -7.036483e+00
   26492,   -2.002688e+00,   -1.000000e+02,   -8.774351e+00
   26493,    2.002688e+00,   -1.000000e+02,   -8.774351e+00
   26494,    5.611408e+00,   -1.000000e+02,   -7.036483e+00
   26495,    8.108720e+00,   -1.000000e+02,   -3.904954e+00
   26496,    8.108720e+00,   -4.000000e+00,   -3.904954e+00
   26497,    8.108720e+00,   -8.000000e+00,   -3.904954e+00
   26498,    8.108720e+00,   -1.200000e+01,   -3.904954e+00
   26499,    8.108720e+00,   -1.600000e+01,   -3.904954e+00
   26500,    8.108720e+00,   -2.000000e+01,   -3.904954e+00
   26501,    8.108720e+00,   -2.400000e+01,   -3.904954e+00
   26502,    8.108720e+00,   -2.800000e+01,   -3.904954e+00
   26503,    8.108720e+00,   -3.200000e+01,   -3.904954e+00
   26504,    8.108720e+00,   -3.600000e+01,   -3.904954e+00
   26505,    8.108720e+00,   -4.000000e+01,   -3.904954e+00
   26506,    8.108720e+00,   -4.400000e+01,   -3.904954e+00
   26507,    8.108720e+00,   -4.800000e+01,   -3.904954e+00
   26508,    8.108720e+00,   -5.200000e+01,   -3.904954e+00
   26509,    8.108720e+00,   -5.600000e+01,   -3.904954e+00
   26510,    8.108720e+00,   -6.000000e+01,   -3.904954e+00
   26511,    8.108720e+00,   -6.400000e+01,   -3.904954e+00
   26512,    8.108720e+00,   -6.800000e+01,   -3.904954e+00
   26513,    8.108720e+00,   -7.200000e+01,   -3.904954e+00
   26514,    8.108720e+00,   -7.600000e+01,   -3.904954e+00
   26515,    8.108720e+00,   -8.000000e+01,   -3.904954e+00
   26516,    8.108720e+00,   -8.400000e+01,   -3.904954e+00
   26517,    8.108720e+00,   -8.800000e+01,   -3.904954e+00
   26518,    8.108720e+00,   -9.200000e+01,   -3.904954e+00
   26519,    8.108720e+00,   -9.600000e+01,   -3.904954e+00
   26520,    5.611408e+00,   -4.000000e+00,   -7.036483e+00
   26521,    5.611408e+00,   -8.000000e+00,   -7.036483e+00
   26522,    5.611408e+00,   -1.200000e+01,   -7.036483e+00
   26523,    5.611408e+00,   -1.600000e+01,   -7.036483e+00
   26524,    5.611408e+00,   -2.000000e+01,   -7.036483e+00
   26525,    5.611408e+00,   -2.400000e+01,   -7.036483e+00
   26526,    5.611408e+00,   -2.800000e+01,   -7.036483e+00
   26527,    5.611408e+00,   -3.200000e+01,   -7.036483e+00
   26528,    5.611408e+00,   -3.600000e+01,   -7.036483e+00
   26529,    5.611408e+00,   -4.000000e+01,   -7.036483e+00
   26530,    5.611408e+00,   -4.400000e+01,   -7.036483e+00
   26531,    5.611408e+00,   -4.800000e+01,   -7.036483e+00
   26532,    5.611408e+00,   -5.200000e+01,   -7.036483e+00
   26533,    5.611408e+00,   -5.600000e+01,   -7.036483e+00
   26534,    5.611408e+00,   -6.000000e+01,   -7.036483e+00
   26535,    5.611408e+00,   -6.400000e+01,   -7.036483e+00
   26536,    5.611408e+00,   -6.800000e+01,   -7.036483e+00
   26537,    5.611408e+00,   -7.200000e+01,   -7.036483e+00
   26538,    5.611408e+00,   -7.600000e+01,   -7.036483e+00
   26539,    5.611408e+00,   -8.000000e+01,   -7.036483e+00
   26540,    5.611408e+00,   -8.400000e+01,   -7.036483e+00
   26541,    5.611408e+00,   -8.800000e+01,   -7.036483e+00
   26542,    5.611408e+00,   -9.200000e+01,   -7.036483e+00
   26543,    5.611408e+00,   -9.600000e+01,   -7.036483e+00
   26544,    2.002688e+00,   -4.000000e+00,   -8.774351e+00
   26545,    2.002688e+00,   -8.000000e+00,   -8.774351e+00
   26546,    2.002688e+00,   -1.200000e+01,   -8.774351e+00
   26547,    2.002688e+00,   -1.600000e+01,   -8.774351e+00
   26548,    2.002688e+00,   -2.000000e+01,   -8.774351e+00
   26549,    2.002688e+00,   -2.400000e+01,   -8.774351e+00
   26550,    2.002688e+00,   -2.800000e+01,   -8.774351e+00
   26551,    2.002688e+00,   -3.200000e+01,   -8.774351e+00
   26552,    2.002688e+00,   -3.600000e+01,   -8.774351e+00
   26553,    2.002688e+00,   -4.000000e+01,   -8.774351e+00
   26554,    2.002688e+00,   -4.400000e+01,   -8.774351e+00
   26555,    2.002688e+00,   -4.800000e+01,   -8.774351e+00
   26556,    2.002688e+00,   -5.200000e+01,   -8.774351e+00
   26557,    2.002688e+00,   -5.600000e+01,   -8.774351e+00
   26558,    2.002688e+00,   -6.000000e+01,   -8.774351e+00
   26559,    2.002688e+00,   -6.400000e+01,   -8.774351e+00
   26560,    2.002688e+00,   -6.800000e+01,   -8.774351e+00
   26561,    2.002688e+00,   -7.200000e+01,   -8.774351e+00
   26562,    2.002688e+00,   -7.600000e+01,   -8.774351e+00
   26563,    2.002688e+00,   -8.000000e+01,   -8.774351e+00
   26564,    2.002688e+00,   -8.400000e+01,   -8.774351e+00
   26565,    2.002688e+00,   -8.800000e+01,   -8.774351e+00
   26566,    2.002688e+00,   -9.200000e+01,   -8.774351e+00
   26567,    2.002688e+00,   -9.600000e+01,   -8.774351e+00
   26568,   -2.002688e+00,   -4.000000e+00,   -8.774351e+00
   26569,   -2.002688e+00,   -8.000000e+00,   -8.774351e+00
   26570,   -2.002688e+00,   -1.200000e+01,   -8.774351e+00
   26571,   -2.002688e+00,   -1.600000e+01,   -8.774351e+00
   26572,   -2.002688e+00,   -2.000000e+01,   -8.774351e+00
   26573,   -2.002688e+00,   -2.400000e+01,   -8.774351e+00
   26574,   -2.002688e+00,   -2.800000e+01,   -8.774351e+00
   26575,   -2.002688e+00,   -3.200000e+01,   -8.774351e+00
   26576,   -2.002688e+00,   -3.600000e+01,   -8.774351e+00
   26577,   -2.002688e+00,   -4.000000e+01,   -8.774351e+00
   26578,   -2.002688e+00,   -4.400000e+01,   -8.774351e+00
   26579,   -2.002688e+00,   -4.800000e+01,   -8.774351e+00
   26580,   -2.002688e+00,   -5.200000e+01,   -8.774351e+00
   26581,   -2.002688e+00,   -5.600000e+01,   -8.774351e+00
   26582,   -2.002688e+00,   -6.000000e+01,   -8.774351e+00
   26583,   -2.002688e+00,   -6.400000e+01,   -8.774351e+00
   26584,   -2.002688e+00,   -6.800000e+01,   -8.774351e+00
   26585,   -2.002688e+00,   -7.200000e+01,   -8.774351e+00
   26586,   -2.002688e+00,   -7.600000e+01,   -8.774351e+00
   26587,   -2.002688e+00,   -8.000000e+01,   -8.774351e+00
   26588,   -2.002688e+00,   -8.400000e+01,   -8.774351e+00
   26589,   -2.002688e+00,   -8.800000e+01,   -8.774351e+00
   26590,   -2.002688e+00,   -9.200000e+01,   -8.774351e+00
   26591,   -2.002688e+00,   -9.600000e+01,   -8.774351e+00
   26592,   -5.611408e+00,   -4.000000e+00,   -7.036483e+00
   26593,   -5.611408e+00,   -8.000000e+00,   -7.036483e+00
   26594,   -5.611408e+00,   -1.200000e+01,   -7.036483e+00
   26595,   -5.611408e+00,   -1.600000e+01,   -7.036483e+00
   26596,   -5.611408e+00,   -2.000000e+01,   -7.036483e+00
   26597,   -5.611408e+00,   -2.400000e+01,   -7.036483e+00
   26598,   -5.611408e+00,   -2.800000e+01,   -7.036483e+00
   26599,   -5.611408e+00,   -3.200000e+01,   -7.036483e+00
   26600,   -5.611408e+00,   -3.600000e+01,   -7.036483e+00
   26601,   -5.611408e+00,   -4.000000e+01,   -7.036483e+00
   26602,   -5.611408e+00,   -4.400000e+01,   -7.036483e+00
   26603,   -5.611408e+00,   -4.800000e+01,   -7.036483e+00
   26604,   -5.611408e+00,   -5.200000e+01,   -7.036483e+00
   26605,   -5.611408e+00,   -5.600000e+01,   -7.036483e+00
   26606,   -5.611408e+00,   -6.000000e+01,   -7.036483e+00
   26607,   -5.611408e+00,   -6.400000e+01,   -7.036483e+00
   26608,   -5.611408e+00,   -6.800000e+01,   -7.036483e+00
   26609,   -5.611408e+00,   -7.200000e+01,   -7.036483e+00
   26610,   -5.611408e+00,   -7.600000e+01,   -7.036483e+00
   26611,   -5.611408e+00,   -8.000000e+01,   -7.036483e+00
   26612,   -5.611408e+00,   -8.400000e+01,   -7.036483e+00
   26613,   -5.611408e+00,   -8.800000e+01,   -7.036483e+00
   26614,   -5.611408e+00,   -9.200000e+01,   -7.036483e+00
   26615,   -5.611408e+00,   -9.600000e+01,   -7.036483e+00
   26616,   -8.108720e+00,   -4.000000e+00,   -3.904954e+00
   26617,   -8.108720e+00,   -8.000000e+00,   -3.904954e+00
   26618,   -8.108720e+00,   -1.200000e+01,   -3.904954e+00
   26619,   -8.108720e+00,   -1.600000e+01,   -3.904954e+00
   26620,   -8.108720e+00,   -2.000000e+01,   -3.904954e+00
   26621,   -8.108720e+00,   -2.400000e+01,   -3.904954e+00
   26622,   -8.108720e+00,   -2.800000e+01,   -3.904954e+00
   26623,   -8.108720e+00,   -3.200000e+01,   -3.904954e+00
   26624,   -8.108720e+00,   -3.600000e+01,   -3.904954e+00
   26625,   -8.108720e+00,   -4.000000e+01,   -3.904954e+00
   26626,   -8.108720e+00,   -4.400000e+01,   -3.904954e+00
   26627,   -8.108720e+00,   -4.800000e+01,   -3.904954e+00
   26628,   -8.108720e+00,   -5.200000e+01,   -3.904954e+00
   26629,   -8.108720e+00,   -5.600000e+01,   -3.904954e+00
   26630,   -8.108720e+00,   -6.000000e+01,   -3.904954e+00
   26631,   -8.108720e+00,   -6.400000e+01,   -3.904954e+00
   26632,   -8.108720e+00,   -6.800000e+01,   -3.904954e+00
   26633,   -8.108720e+00,   -7.200000e+01,   -3.904954e+00
   26634,   -8.108720e+00,   -7.600000e+01,   -3.904954e+00
   26635,   -8.108720e+00,   -8.000000e+01,   -3.904954e+00
   26636,   -8.108720e+00,   -8.400000e+01,   -3.904954e+00
   26637,   -8.108720e+00,   -8.800000e+01,   -3.904954e+00
   26638,   -8.108720e+00,   -9.200000e+01,   -3.904954e+00
   26639,   -8.108720e+00,   -9.600000e+01,   -3.904954e+00
   26640,    7.207751e+00,   -1.000000e+02,   -3.471070e+00
   26641,    4.987918e+00,   -1.000000e+02,   -6.254652e+00
   26642,    1.780167e+00,   -1.000000e+02,   -7.799423e+00
   26643,   -1.780167e+00,   -1.000000e+02,   -7.799423e+00
   26644,   -4.987918e+00,   -1.000000e+02,   -6.254652e+00
   26645,   -7.207751e+00,   -1.000000e+02,   -3.471070e+00
   26646,    7.207751e+00,   -9.600000e+01,   -3.471070e+00
   26647,    7.207751e+00,   -9.200000e+01,   -3.471070e+00
   26648,    7.207751e+00,   -8.800000e+01,   -3.471070e+00
   26649,    7.207751e+00,   -8.400000e+01,   -3.471070e+00
   26650,    7.207751e+00,   -8.000000e+01,   -3.471070e+00
   26651,    7.207751e+00,   -7.600000e+01,   -3.471070e+00
   26652,    7.207751e+00,   -7.200000e+01,   -3.471070e+00
   26653,    7.207751e+00,   -6.800000e+01,   -3.471070e+00
   26654,    7.207751e+00,   -6.400000e+01,   -3.471070e+00
   26655,    7.207751e+00,   -6.000000e+01,   -3.471070e+00
   26656,    7.207751e+00,   -5.600000e+01,   -3.471070e+00
   26657,    7.207751e+00,   -5.200000e+01,   -3.471070e+00
   26658,    7.207751e+00,   -4.800000e+01,   -3.471070e+00
   26659,    7.207751e+00,   -4.400000e+01,   -3.471070e+00
   26660,    7.207751e+00,   -4.000000e+01,   -3.471070e+00
   26661,    7.207751e+00,   -3.600000e+01,   -3.471070e+00
   26662,    7.207751e+00,   -3.200000e+01,   -3.471070e+00
   26663,    7.207751e+00,   -2.800000e+01,   -3.471070e+00
   26664,    7.207751e+00,   -2.400000e+01,   -3.471070e+00
   26665,    7.207751e+00,   -2.000000e+01,   -3.471070e+00
   26666,    7.207751e+00,   -1.600000e+01,   -3.471070e+00
   26667,    7.207751e+00,   -1.200000e+01,   -3.471070e+00
   26668,    7.207751e+00,   -8.000000e+00,   -3.471070e+00
   26669,    7.207751e+00,   -4.000000e+00,   -3.471070e+00
   26670,    4.987918e+00,   -9.600000e+01,   -6.254652e+00
   26671,    4.987918e+00,   -9.200000e+01,   -6.254652e+00
   26672,    4.987918e+00,   -8.800000e+01,   -6.254652e+00
   26673,    4.987918e+00,   -8.400000e+01,   -6.254652e+00
   26674,    4.987918e+00,   -8.000000e+01,   -6.254652e+00
   26675,    4.987918e+00,   -7.600000e+01,   -6.254652e+00
   26676,    4.987918e+00,   -7.200000e+01,   -6.254652e+00
   26677,    4.987918e+00,   -6.800000e+01,   -6.254652e+00
   26678,    4.987918e+00,   -6.400000e+01,   -6.254652e+00
   26679,    4.987918e+00,   -6.000000e+01,   -6.254652e+00
   26680,    4.987918e+00,   -5.600000e+01,   -6.254652e+00
   26681,    4.987918e+00,   -5.200000e+01,   -6.254652e+00
   26682,    4.987918e+00,   -4.800000e+01,   -6.254652e+00
   26683,    4.987918e+00,   -4.400000e+01,   -6.254652e+00
   26684,    4.987918e+00,   -4.000000e+01,   -6.254652e+00
   26685,    4.987918e+00,   -3.600000e+01,   -6.254652e+00
   26686,    4.987918e+00,   -3.200000e+01,   -6.254652e+00
   26687,    4.987918e+00,   -2.800000e+01,   -6.254652e+00
   26688,    4.987918e+00,   -2.400000e+01,   -6.254652e+00
   26689,    4.987918e+00,   -2.000000e+01,   -6.254652e+00
   26690,    4.987918e+00,   -1.600000e+01,   -6.254652e+00
   26691,    4.987918e+00,   -1.200000e+01,   -6.254652e+00
   26692,    4.987918e+00,   -8.000000e+00,   -6.254652e+00
   26693,    4.987918e+00,   -4.000000e+00,   -6.254652e+00
   26694,    1.780167e+00,   -9.600000e+01,   -7.799423e+00
   26695,    1.780167e+00,   -9.200000e+01,   -7.799423e+00
   26696,    1.780167e+00,   -8.800000e+01,   -7.799423e+00
   26697,    1.780167e+00,   -8.400000e+01,   -7.799423e+00
   26698,    1.780167e+00,   -8.000000e+01,   -7.799423e+00
   26699,    1.780167e+00,   -7.600000e+01,   -7.799423e+00
   26700,    1.780167e+00,   -7.200000e+01,   -7.799423e+00
   26701,    1.780167e+00,   -6.800000e+01,   -7.799423e+00
   26702,    1.780167e+00,   -6.400000e+01,   -7.799423e+00
   26703,    1.780167e+00,   -6.000000e+01,   -7.799423e+00
   26704,    1.780167e+00,   -5.600000e+01,   -7.799423e+00
   26705,    1.780167e+00,   -5.200000e+01,   -7.799423e+00
   26706,    1.780167e+00,   -4.800000e+01,   -7.799423e+00
   26707,    1.780167e+00,   -4.400000e+01,   -7.799423e+00
   26708,    1.780167e+00,   -4.000000e+01,   -7.799423e+00
   26709,    1.780167e+00,   -3.600000e+01,   -7.799423e+00
   26710,    1.780167e+00,   -3.200000e+01,   -7.799423e+00
   26711,    1.780167e+00,   -2.800000e+01,   -7.799423e+00
   26712,    1.780167e+00,   -2.400000e+01,   -7.799423e+00
   26713,    1.780167e+00,   -2.000000e+01,   -7.799423e+00
   26714,    1.780167e+00,   -1.600000e+01,   -7.799423e+00
   26715,    1.780167e+00,   -1.200000e+01,   -7.799423e+00
   26716,    1.780167e+00,   -8.000000e+00,   -7.799423e+00
   26717,    1.780167e+00,   -4.000000e+00,   -7.799423e+00
   26718,   -1.780167e+00,   -9.600000e+01,   -7.799423e+00
   26719,   -1.780167e+00,   -9.200000e+01,   -7.799423e+00
   26720,   -1.780167e+00,   -8.800000e+01,   -7.799423e+00
   26721,   -1.780167e+00,   -8.400000e+01,   -7.799423e+00
   26722,   -1.780167e+00,   -8.000000e+01,   -7.799423e+00
   26723,   -1.780167e+00,   -7.600000e+01,   -7.799423e+00
   26724,   -1.780167e+00,   -7.200000e+01,   -7.799423e+00
   26725,   -1.780167e+00,   -6.800000e+01,   -7.799423e+00
   26726,   -1.780167e+00,   -6.400000e+01,   -7.799423e+00
   26727,   -1.780167e+00,   -6.000000e+01,   -7.799423e+00
   26728,   -1.780167e+00,   -5.600000e+01,   -7.799423e+00
   26729,   -1.780167e+00,   -5.200000e+01,   -7.799423e+00
   26730,   -1.780167e+00,   -4.800000e+01,   -7.799423e+00
   26731,   -1.780167e+00,   -4.400000e+01,   -7.799423e+00
   26732,   -1.780167e+00,   -4.000000e+01,   -7.799423e+00
   26733,   -1.780167e+00,   -3.600000e+01,   -7.799423e+00
   26734,   -1.780167e+00,   -3.200000e+01,   -7.799423e+00
   26735,   -1.780167e+00,   -2.800000e+01,   -7.799423e+00
   26736,   -1.780167e+00,   -2.400000e+01,   -7.799423e+00
   26737,   -1.780167e+00,   -2.000000e+01,   -7.799423e+00
   26738,   -1.780167e+00,   -1.600000e+01,   -7.799423e+00
   26739,   -1.780167e+00,   -1.200000e+01,   -7.799423e+00
   26740,   -1.780167e+00,   -8.000000e+00,   -7.799423e+00
   26741,   -1.780167e+00,   -4.000000e+00,   -7.799423e+00
   26742,   -4.987918e+00,   -9.600000e+01,   -6.254652e+00
   26743,   -4.987918e+00,   -9.200000e+01,   -6.254652e+00
   26744,   -4.987918e+00,   -8.800000e+01,   -6.254652e+00
   26745,   -4.987918e+00,   -8.400000e+01,   -6.254652e+00
   26746,   -4.987918e+00,   -8.000000e+01,   -6.254652e+00
   26747,   -4.987918e+00,   -7.600000e+01,   -6.254652e+00
   26748,   -4.987918e+00,   -7.200000e+01,   -6.254652e+00
   26749,   -4.987918e+00,   -6.800000e+01,   -6.254652e+00
   26750,   -4.987918e+00,   -6.400000e+01,   -6.254652e+00
   26751,   -4.987918e+00,   -6.000000e+01,   -6.254652e+00
   26752,   -4.987918e+00,   -5.600000e+01,   -6.254652e+00
   26753,   -4.987918e+00,   -5.200000e+01,   -6.254652e+00
   26754,   -4.987918e+00,   -4.800000e+01,   -6.254652e+00
   26755,   -4.987918e+00,   -4.400000e+01,   -6.254652e+00
   26756,   -4.987918e+00,   -4.000000e+01,   -6.254652e+00
   26757,   -4.987918e+00,   -3.600000e+01,   -6.254652e+00
   26758,   -4.987918e+00,   -3.200000e+01,   -6.254652e+00
   26759,   -4.987918e+00,   -2.800000e+01,   -6.254652e+00
   26760,   -4.987918e+00,   -2.400000e+01,   -6.254652e+00
   26761,   -4.987918e+00,   -2.000000e+01,   -6.254652e+00
   26762,   -4.987918e+00,   -1.600000e+01,   -6.254652e+00
   26763,   -4.987918e+00,   -1.200000e+01,   -6.254652e+00
   26764,   -4.987918e+00,   -8.000000e+00,   -6.254652e+00
   26765,   -4.987918e+00,   -4.000000e+00,   -6.254652e+00
   26766,   -7.207751e+00,   -9.600000e+01,   -3.471070e+00
   26767,   -7.207751e+00,   -9.200000e+01,   -3.471070e+00
   26768,   -7.207751e+00,   -8.800000e+01,   -3.471070e+00
   26769,   -7.207751e+00,   -8.400000e+01,   -3.471070e+00
   26770,   -7.207751e+00,   -8.000000e+01,   -3.471070e+00
   26771,   -7.207751e+00,   -7.600000e+01,   -3.471070e+00
   26772,   -7.207751e+00,   -7.200000e+01,   -3.471070e+00
   26773,   -7.207751e+00,   -6.800000e+01,   -3.471070e+00
   26774,   -7.207751e+00,   -6.400000e+01,   -3.471070e+00
   26775,   -7.207751e+00,   -6.000000e+01,   -3.471070e+00
   26776,   -7.207751e+00,   -5.600000e+01,   -3.471070e+00
   26777,   -7.207751e+00,   -5.200000e+01,   -3.471070e+00
   26778,   -7.207751e+00,   -4.800000e+01,   -3.471070e+00
   26779,   -7.207751e+00,   -4.400000e+01,   -3.471070e+00
   26780,   -7.207751e+00,   -4.000000e+01,   -3.471070e+00
   26781,   -7.207751e+00,   -3.600000e+01,   -3.471070e+00
   26782,   -7.207751e+00,   -3.200000e+01,   -3.471070e+00
   26783,   -7.207751e+00,   -2.800000e+01,   -3.471070e+00
   26784,   -7.207751e+00,   -2.400000e+01,   -3.471070e+00
   26785,   -7.207751e+00,   -2.000000e+01,   -3.471070e+00
   26786,   -7.207751e+00,   -1.600000e+01,   -3.471070e+00
   26787,   -7.207751e+00,   -1.200000e+01,   -3.471070e+00
   26788,   -7.207751e+00,   -8.000000e+00,   -3.471070e+00
   26789,   -7.207751e+00,   -4.000000e+00,   -3.471070e+00
********************************** E L E M E N T S ****************************
*ELEMENT, TYPE=C3D8I, ELSET=steel
       1,   18781,   18782,   18657,   18779,   18475,   18477,   18467,   18476
       2,   18776,   18777,   18782,   18781,   18471,   18472,   18477,   18475
       3,   18777,   18544,   18657,   18782,   18472,   18464,   18467,   18477
       4,   18775,   18779,   18778,   18774,   18470,   18476,   18473,   18469
       5,   18776,   18781,   18779,   18775,   18471,   18475,   18476,   18470
       6,   18773,   18774,   18778,   18780,   18468,   18469,   18473,   18474
       7,   18599,   18543,   18773,   18780,   18465,   18463,   18468,   18474
       8,   18628,   18599,   18780,   18778,   18466,   18465,   18474,   18473
       9,   18657,   18628,   18778,   18779,   18467,   18466,   18473,   18476
      10,   18786,   18787,   18656,   18784,   18781,   18782,   18657,   18779
      11,   18771,   18772,   18787,   18786,   18776,   18777,   18782,   18781
      12,   18772,   18545,   18656,   18787,   18777,   18544,   18657,   18782
      13,   18770,   18784,   18783,   18769,   18775,   18779,   18778,   18774
      14,   18771,   18786,   18784,   18770,   18776,   18781,   18779,   18775
      15,   18768,   18769,   18783,   18785,   18773,   18774,   18778,   18780
      16,   18598,   18542,   18768,   18785,   18599,   18543,   18773,   18780
      17,   18627,   18598,   18785,   18783,   18628,   18599,   18780,   18778
      18,   18656,   18627,   18783,   18784,   18657,   18628,   18778,   18779
      19,   18791,   18792,   18655,   18789,   18786,   18787,   18656,   18784
      20,   18766,   18767,   18792,   18791,   18771,   18772,   18787,   18786
      21,   18767,   18546,   18655,   18792,   18772,   18545,   18656,   18787
      22,   18765,   18789,   18788,   18764,   18770,   18784,   18783,   18769
      23,   18766,   18791,   18789,   18765,   18771,   18786,   18784,   18770
      24,   18763,   18764,   18788,   18790,   18768,   18769,   18783,   18785
      25,   18597,   18541,   18763,   18790,   18598,   18542,   18768,   18785
      26,   18626,   18597,   18790,   18788,   18627,   18598,   18785,   18783
      27,   18655,   18626,   18788,   18789,   18656,   18627,   18783,   18784
      28,   18796,   18797,   18654,   18794,   18791,   18792,   18655,   18789
      29,   18761,   18762,   18797,   18796,   18766,   18767,   18792,   18791
      30,   18762,   18547,   18654,   18797,   18767,   18546,   18655,   18792
      31,   18760,   18794,   18793,   18759,   18765,   18789,   18788,   18764
      32,   18761,   18796,   18794,   18760,   18766,   18791,   18789,   18765
      33,   18758,   18759,   18793,   18795,   18763,   18764,   18788,   18790
      34,   18596,   18540,   18758,   18795,   18597,   18541,   18763,   18790
      35,   18625,   18596,   18795,   18793,   18626,   18597,   18790,   18788
      36,   18654,   18625,   18793,   18794,   18655,   18626,   18788,   18789
      37,   18801,   18802,   18653,   18799,   18796,   18797,   18654,   18794
      38,   18756,   18757,   18802,   18801,   18761,   18762,   18797,   18796
      39,   18757,   18548,   18653,   18802,   18762,   18547,   18654,   18797
      40,   18755,   18799,   18798,   18754,   18760,   18794,   18793,   18759
      41,   18756,   18801,   18799,   18755,   18761,   18796,   18794,   18760
      42,   18753,   18754,   18798,   18800,   18758,   18759,   18793,   18795
      43,   18595,   18539,   18753,   18800,   18596,   18540,   18758,   18795
      44,   18624,   18595,   18800,   18798,   18625,   18596,   18795,   18793
      45,   18653,   18624,   18798,   18799,   18654,   18625,   18793,   18794
      46,   18806,   18807,   18652,   18804,   18801,   18802,   18653,   18799
      47,   18751,   18752,   18807,   18806,   18756,   18757,   18802,   18801
      48,   18752,   18549,   18652,   18807,   18757,   18548,   18653,   18802
      49,   18750,   18804,   18803,   18749,   18755,   18799,   18798,   18754
      50,   18751,   18806,   18804,   18750,   18756,   18801,   18799,   18755
      51,   18748,   18749,   18803,   18805,   18753,   18754,   18798,   18800
      52,   18594,   18538,   18748,   18805,   18595,   18539,   18753,   18800
      53,   18623,   18594,   18805,   18803,   18624,   18595,   18800,   18798
      54,   18652,   18623,   18803,   18804,   18653,   18624,   18798,   18799
      55,   18811,   18812,   18651,   18809,   18806,   18807,   18652,   18804
      56,   18746,   18747,   18812,   18811,   18751,   18752,   18807,   18806
      57,   18747,   18550,   18651,   18812,   18752,   18549,   18652,   18807
      58,   18745,   18809,   18808,   18744,   18750,   18804,   18803,   18749
      59,   18746,   18811,   18809,   18745,   18751,   18806,   18804,   18750
      60,   18743,   18744,   18808,   18810,   18748,   18749,   18803,   18805
      61,   18593,   18537,   18743,   18810,   18594,   18538,   18748,   18805
      62,   18622,   18593,   18810,   18808,   18623,   18594,   18805,   18803
      63,   18651,   18622,   18808,   18809,   18652,   18623,   18803,   18804
      64,   18816,   18817,   18650,   18814,   18811,   18812,   18651,   18809
      65,   18741,   18742,   18817,   18816,   18746,   18747,   18812,   18811
      66,   18742,   18551,   18650,   18817,   18747,   18550,   18651,   18812
      67,   18740,   18814,   18813,   18739,   18745,   18809,   18808,   18744
      68,   18741,   18816,   18814,   18740,   18746,   18811,   18809,   18745
      69,   18738,   18739,   18813,   18815,   18743,   18744,   18808,   18810
      70,   18592,   18536,   18738,   18815,   18593,   18537,   18743,   18810
      71,   18621,   18592,   18815,   18813,   18622,   18593,   18810,   18808
      72,   18650,   18621,   18813,   18814,   18651,   18622,   18808,   18809
      73,   18821,   18822,   18649,   18819,   18816,   18817,   18650,   18814
      74,   18736,   18737,   18822,   18821,   18741,   18742,   18817,   18816
      75,   18737,   18552,   18649,   18822,   18742,   18551,   18650,   18817
      76,   18735,   18819,   18818,   18734,   18740,   18814,   18813,   18739
      77,   18736,   18821,   18819,   18735,   18741,   18816,   18814,   18740
      78,   18733,   18734,   18818,   18820,   18738,   18739,   18813,   18815
      79,   18591,   18535,   18733,   18820,   18592,   18536,   18738,   18815
      80,   18620,   18591,   18820,   18818,   18621,   18592,   18815,   18813
      81,   18649,   18620,   18818,   18819,   18650,   18621,   18813,   18814
      82,   18826,   18827,   18648,   18824,   18821,   18822,   18649,   18819
      83,   18731,   18732,   18827,   18826,   18736,   18737,   18822,   18821
      84,   18732,   18553,   18648,   18827,   18737,   18552,   18649,   18822
      85,   18730,   18824,   18823,   18729,   18735,   18819,   18818,   18734
      86,   18731,   18826,   18824,   18730,   18736,   18821,   18819,   18735
      87,   18728,   18729,   18823,   18825,   18733,   18734,   18818,   18820
      88,   18590,   18534,   18728,   18825,   18591,   18535,   18733,   18820
      89,   18619,   18590,   18825,   18823,   18620,   18591,   18820,   18818
      90,   18648,   18619,   18823,   18824,   18649,   18620,   18818,   18819
      91,   18831,   18832,   18647,   18829,   18826,   18827,   18648,   18824
      92,   18726,   18727,   18832,   18831,   18731,   18732,   18827,   18826
      93,   18727,   18554,   18647,   18832,   18732,   18553,   18648,   18827
      94,   18725,   18829,   18828,   18724,   18730,   18824,   18823,   18729
      95,   18726,   18831,   18829,   18725,   18731,   18826,   18824,   18730
      96,   18723,   18724,   18828,   18830,   18728,   18729,   18823,   18825
      97,   18589,   18533,   18723,   18830,   18590,   18534,   18728,   18825
      98,   18618,   18589,   18830,   18828,   18619,   18590,   18825,   18823
      99,   18647,   18618,   18828,   18829,   18648,   18619,   18823,   18824
     100,   18836,   18837,   18646,   18834,   18831,   18832,   18647,   18829
     101,   18721,   18722,   18837,   18836,   18726,   18727,   18832,   18831
     102,   18722,   18555,   18646,   18837,   18727,   18554,   18647,   18832
     103,   18720,   18834,   18833,   18719,   18725,   18829,   18828,   18724
     104,   18721,   18836,   18834,   18720,   18726,   18831,   18829,   18725
     105,   18718,   18719,   18833,   18835,   18723,   18724,   18828,   18830
     106,   18588,   18532,   18718,   18835,   18589,   18533,   18723,   18830
     107,   18617,   18588,   18835,   18833,   18618,   18589,   18830,   18828
     108,   18646,   18617,   18833,   18834,   18647,   18618,   18828,   18829
     109,   18841,   18842,   18645,   18839,   18836,   18837,   18646,   18834
     110,   18716,   18717,   18842,   18841,   18721,   18722,   18837,   18836
     111,   18717,   18556,   18645,   18842,   18722,   18555,   18646,   18837
     112,   18715,   18839,   18838,   18714,   18720,   18834,   18833,   18719
     113,   18716,   18841,   18839,   18715,   18721,   18836,   18834,   18720
     114,   18713,   18714,   18838,   18840,   18718,   18719,   18833,   18835
     115,   18587,   18531,   18713,   18840,   18588,   18532,   18718,   18835
     116,   18616,   18587,   18840,   18838,   18617,   18588,   18835,   18833
     117,   18645,   18616,   18838,   18839,   18646,   18617,   18833,   18834
     118,   18846,   18847,   18644,   18844,   18841,   18842,   18645,   18839
     119,   18711,   18712,   18847,   18846,   18716,   18717,   18842,   18841
     120,   18712,   18557,   18644,   18847,   18717,   18556,   18645,   18842
     121,   18710,   18844,   18843,   18709,   18715,   18839,   18838,   18714
     122,   18711,   18846,   18844,   18710,   18716,   18841,   18839,   18715
     123,   18708,   18709,   18843,   18845,   18713,   18714,   18838,   18840
     124,   18586,   18530,   18708,   18845,   18587,   18531,   18713,   18840
     125,   18615,   18586,   18845,   18843,   18616,   18587,   18840,   18838
     126,   18644,   18615,   18843,   18844,   18645,   18616,   18838,   18839
     127,   18851,   18852,   18643,   18849,   18846,   18847,   18644,   18844
     128,   18706,   18707,   18852,   18851,   18711,   18712,   18847,   18846
     129,   18707,   18558,   18643,   18852,   18712,   18557,   18644,   18847
     130,   18705,   18849,   18848,   18704,   18710,   18844,   18843,   18709
     131,   18706,   18851,   18849,   18705,   18711,   18846,   18844,   18710
     132,   18703,   18704,   18848,   18850,   18708,   18709,   18843,   18845
     133,   18585,   18529,   18703,   18850,   18586,   18530,   18708,   18845
     134,   18614,   18585,   18850,   18848,   18615,   18586,   18845,   18843
     135,   18643,   18614,   18848,   18849,   18644,   18615,   18843,   18844
     136,   18856,   18857,   18642,   18854,   18851,   18852,   18643,   18849
     137,   18701,   18702,   18857,   18856,   18706,   18707,   18852,   18851
     138,   18702,   18559,   18642,   18857,   18707,   18558,   18643,   18852
     139,   18700,   18854,   18853,   18699,   18705,   18849,   18848,   18704
     140,   18701,   18856,   18854,   18700,   18706,   18851,   18849,   18705
     141,   18698,   18699,   18853,   18855,   18703,   18704,   18848,   18850
     142,   18584,   18528,   18698,   18855,   18585,   18529,   18703,   18850
     143,   18613,   18584,   18855,   18853,   18614,   18585,   18850,   18848
     144,   18642,   18613,   18853,   18854,   18643,   18614,   18848,   18849
     145,   18861,   18862,   18641,   18859,   18856,   18857,   18642,   18854
     146,   18696,   18697,   18862,   18861,   18701,   18702,   18857,   18856
     147,   18697,   18560,   18641,   18862,   18702,   18559,   18642,   18857
     148,   18695,   18859,   18858,   18694,   18700,   18854,   18853,   18699
     149,   18696,   18861,   18859,   18695,   18701,   18856,   18854,   18700
     150,   18693,   18694,   18858,   18860,   18698,   18699,   18853,   18855
     151,   18583,   18527,   18693,   18860,   18584,   18528,   18698,   18855
     152,   18612,   18583,   18860,   18858,   18613,   18584,   18855,   18853
     153,   18641,   18612,   18858,   18859,   18642,   18613,   18853,   18854
     154,   18866,   18867,   18640,   18864,   18861,   18862,   18641,   18859
     155,   18691,   18692,   18867,   18866,   18696,   18697,   18862,   18861
     156,   18692,   18561,   18640,   18867,   18697,   18560,   18641,   18862
     157,   18690,   18864,   18863,   18689,   18695,   18859,   18858,   18694
     158,   18691,   18866,   18864,   18690,   18696,   18861,   18859,   18695
     159,   18688,   18689,   18863,   18865,   18693,   18694,   18858,   18860
     160,   18582,   18526,   18688,   18865,   18583,   18527,   18693,   18860
     161,   18611,   18582,   18865,   18863,   18612,   18583,   18860,   18858
     162,   18640,   18611,   18863,   18864,   18641,   18612,   18858,   18859
     163,   18871,   18872,   18639,   18869,   18866,   18867,   18640,   18864
     164,   18686,   18687,   18872,   18871,   18691,   18692,   18867,   18866
     165,   18687,   18562,   18639,   18872,   18692,   18561,   18640,   18867
     166,   18685,   18869,   18868,   18684,   18690,   18864,   18863,   18689
     167,   18686,   18871,   18869,   18685,   18691,   18866,   18864,   18690
     168,   18683,   18684,   18868,   18870,   18688,   18689,   18863,   18865
     169,   18581,   18525,   18683,   18870,   18582,   18526,   18688,   18865
     170,   18610,   18581,   18870,   18868,   18611,   18582,   18865,   18863
     171,   18639,   18610,   18868,   18869,   18640,   18611,   18863,   18864
     172,   18876,   18877,   18638,   18874,   18871,   18872,   18639,   18869
     173,   18681,   18682,   18877,   18876,   18686,   18687,   18872,   18871
     174,   18682,   18563,   18638,   18877,   18687,   18562,   18639,   18872
     175,   18680,   18874,   18873,   18679,   18685,   18869,   18868,   18684
     176,   18681,   18876,   18874,   18680,   18686,   18871,   18869,   18685
     177,   18678,   18679,   18873,   18875,   18683,   18684,   18868,   18870
     178,   18580,   18524,   18678,   18875,   18581,   18525,   18683,   18870
     179,   18609,   18580,   18875,   18873,   18610,   18581,   18870,   18868
     180,   18638,   18609,   18873,   18874,   18639,   18610,   18868,   18869
     181,   18881,   18882,   18637,   18879,   18876,   18877,   18638,   18874
     182,   18676,   18677,   18882,   18881,   18681,   18682,   18877,   18876
     183,   18677,   18564,   18637,   18882,   18682,   18563,   18638,   18877
     184,   18675,   18879,   18878,   18674,   18680,   18874,   18873,   18679
     185,   18676,   18881,   18879,   18675,   18681,   18876,   18874,   18680
     186,   18673,   18674,   18878,   18880,   18678,   18679,   18873,   18875
     187,   18579,   18523,   18673,   18880,   18580,   18524,   18678,   18875
     188,   18608,   18579,   18880,   18878,   18609,   18580,   18875,   18873
     189,   18637,   18608,   18878,   18879,   18638,   18609,   18873,   18874
     190,   18886,   18887,   18636,   18884,   18881,   18882,   18637,   18879
     191,   18671,   18672,   18887,   18886,   18676,   18677,   18882,   18881
     192,   18672,   18565,   18636,   18887,   18677,   18564,   18637,   18882
     193,   18670,   18884,   18883,   18669,   18675,   18879,   18878,   18674
     194,   18671,   18886,   18884,   18670,   18676,   18881,   18879,   18675
     195,   18668,   18669,   18883,   18885,   18673,   18674,   18878,   18880
     196,   18578,   18522,   18668,   18885,   18579,   18523,   18673,   18880
     197,   18607,   18578,   18885,   18883,   18608,   18579,   18880,   18878
     198,   18636,   18607,   18883,   18884,   18637,   18608,   18878,   18879
     199,   18891,   18892,   18635,   18889,   18886,   18887,   18636,   18884
     200,   18666,   18667,   18892,   18891,   18671,   18672,   18887,   18886
     201,   18667,   18566,   18635,   18892,   18672,   18565,   18636,   18887
     202,   18665,   18889,   18888,   18664,   18670,   18884,   18883,   18669
     203,   18666,   18891,   18889,   18665,   18671,   18886,   18884,   18670
     204,   18663,   18664,   18888,   18890,   18668,   18669,   18883,   18885
     205,   18577,   18521,   18663,   18890,   18578,   18522,   18668,   18885
     206,   18606,   18577,   18890,   18888,   18607,   18578,   18885,   18883
     207,   18635,   18606,   18888,   18889,   18636,   18607,   18883,   18884
     208,   18896,   18897,   18634,   18894,   18891,   18892,   18635,   18889
     209,   18661,   18662,   18897,   18896,   18666,   18667,   18892,   18891
     210,   18662,   18567,   18634,   18897,   18667,   18566,   18635,   18892
     211,   18660,   18894,   18893,   18659,   18665,   18889,   18888,   18664
     212,   18661,   18896,   18894,   18660,   18666,   18891,   18889,   18665
     213,   18658,   18659,   18893,   18895,   18663,   18664,   18888,   18890
     214,   18576,   18520,   18658,   18895,   18577,   18521,   18663,   18890
     215,   18605,   18576,   18895,   18893,   18606,   18577,   18890,   18888
     216,   18634,   18605,   18893,   18894,   18635,   18606,   18888,   18889
     217,   18901,   18902,   18633,   18899,   18896,   18897,   18634,   18894
     218,   18511,   18510,   18902,   18901,   18661,   18662,   18897,   18896
     219,   18510,   18506,   18633,   18902,   18662,   18567,   18634,   18897
     220,   18512,   18899,   18898,   18513,   18660,   18894,   18893,   18659
     221,   18511,   18901,   18899,   18512,   18661,   18896,   18894,   18660
     222,   18514,   18513,   18898,   18900,   18658,   18659,   18893,   18895
     223,   18575,   18508,   18514,   18900,   18576,   18520,   18658,   18895
     224,   18604,   18575,   18900,   18898,   18605,   18576,   18895,   18893
     225,   18633,   18604,   18898,   18899,   18634,   18605,   18893,   18894
     226,   18906,   18907,   18632,   18904,   18901,   18902,   18633,   18899
     227,   18516,   18515,   18907,   18906,   18511,   18510,   18902,   18901
     228,   18515,   18507,   18632,   18907,   18510,   18506,   18633,   18902
     229,   18517,   18904,   18903,   18518,   18512,   18899,   18898,   18513
     230,   18516,   18906,   18904,   18517,   18511,   18901,   18899,   18512
     231,   18519,   18518,   18903,   18905,   18514,   18513,   18898,   18900
     232,   18574,   18509,   18519,   18905,   18575,   18508,   18514,   18900
     233,   18603,   18574,   18905,   18903,   18604,   18575,   18900,   18898
     234,   18632,   18603,   18903,   18904,   18633,   18604,   18898,   18899
     235,   18911,   18912,   18631,   18909,   18906,   18907,   18632,   18904
     236,   18484,   18483,   18912,   18911,   18516,   18515,   18907,   18906
     237,   18483,   18482,   18631,   18912,   18515,   18507,   18632,   18907
     238,   18485,   18909,   18908,   18486,   18517,   18904,   18903,   18518
     239,   18484,   18911,   18909,   18485,   18516,   18906,   18904,   18517
     240,   18487,   18486,   18908,   18910,   18519,   18518,   18903,   18905
     241,   18573,   18478,   18487,   18910,   18574,   18509,   18519,   18905
     242,   18602,   18573,   18910,   18908,   18603,   18574,   18905,   18903
     243,   18631,   18602,   18908,   18909,   18632,   18603,   18903,   18904
     244,   18916,   18917,   18630,   18914,   18911,   18912,   18631,   18909
     245,   18503,   18505,   18917,   18916,   18484,   18483,   18912,   18911
     246,   18505,   18490,   18630,   18917,   18483,   18482,   18631,   18912
     247,   18501,   18914,   18913,   18499,   18485,   18909,   18908,   18486
     248,   18503,   18916,   18914,   18501,   18484,   18911,   18909,   18485
     249,   18497,   18499,   18913,   18915,   18487,   18486,   18908,   18910
     250,   18572,   18480,   18497,   18915,   18573,   18478,   18487,   18910
     251,   18601,   18572,   18915,   18913,   18602,   18573,   18910,   18908
     252,   18630,   18601,   18913,   18914,   18631,   18602,   18908,   18909
     253,   18921,   18922,   18629,   18919,   18916,   18917,   18630,   18914
     254,   18502,   18504,   18922,   18921,   18503,   18505,   18917,   18916
     255,   18504,   18489,   18629,   18922,   18505,   18490,   18630,   18917
     256,   18500,   18919,   18918,   18498,   18501,   18914,   18913,   18499
     257,   18502,   18921,   18919,   18500,   18503,   18916,   18914,   18501
     258,   18496,   18498,   18918,   18920,   18497,   18499,   18913,   18915
     259,   18571,   18481,   18496,   18920,   18572,   18480,   18497,   18915
     260,   18600,   18571,   18920,   18918,   18601,   18572,   18915,   18913
     261,   18629,   18600,   18918,   18919,   18630,   18601,   18913,   18914
     262,   18926,   18927,   18568,   18924,   18921,   18922,   18629,   18919
     263,   18492,   18491,   18927,   18926,   18502,   18504,   18922,   18921
     264,   18491,   18488,   18568,   18927,   18504,   18489,   18629,   18922
     265,   18493,   18924,   18923,   18494,   18500,   18919,   18918,   18498
     266,   18492,   18926,   18924,   18493,   18502,   18921,   18919,   18500
     267,   18495,   18494,   18923,   18925,   18496,   18498,   18918,   18920
     268,   18570,   18479,   18495,   18925,   18571,   18481,   18496,   18920
     269,   18569,   18570,   18925,   18923,   18600,   18571,   18920,   18918
     270,   18568,   18569,   18923,   18924,   18629,   18600,   18918,   18919
     271,   20052,   20031,   20033,   20051,   19141,   19120,   19121,   19140
     272,   20051,   20047,   20048,   20052,   19140,   19133,   19134,   19141
     273,   20044,   20030,   20031,   20052,   19130,   19119,   19120,   19141
     274,   20043,   20044,   20052,   20048,   19129,   19130,   19141,   19134
     275,   20028,   20029,   20047,   20051,   19117,   19118,   19133,   19140
     276,   20027,   20028,   20051,   20033,   19116,   19117,   19140,   19121
     277,   20026,   20027,   20033,   20032,   19115,   19116,   19121,   19122
     278,   20025,   20026,   20032,   20034,   19114,   19115,   19122,   19123
     279,   20024,   20025,   20034,   20035,   19113,   19114,   19123,   19124
     280,   20023,   20024,   20035,   20036,   19112,   19113,   19124,   19125
     281,   20022,   20023,   20036,   20037,   19111,   19112,   19125,   19126
     282,   20040,   20041,   20050,   20049,   19136,   19127,   19139,   19135
     283,   20046,   20049,   20050,   20045,   19132,   19135,   19139,   19131
     284,   20042,   20045,   20050,   20041,   19128,   19131,   19139,   19127
     285,   20021,   20022,   20037,   20038,   19110,   19111,   19126,   19138
     286,   20020,   20021,   20038,   20039,   19109,   19110,   19138,   19137
     287,   20019,   20020,   20039,   20040,   19108,   19109,   19137,   19136
     288,   20018,   20019,   20040,   20049,   19107,   19108,   19136,   19135
     289,   20017,   20018,   20049,   20046,   19106,   19107,   19135,   19132
     290,   20011,   20012,   20043,   20048,   19100,   19101,   19129,   19134
     291,   20010,   20011,   20048,   20047,   19099,   19100,   19134,   19133
     292,   20009,   20010,   20047,   20029,   19098,   19099,   19133,   19118
     293,   20015,   20016,   20017,   20046,   19104,   19105,   19106,   19132
     294,   20014,   20015,   20046,   20045,   19103,   19104,   19132,   19131
     295,   20013,   20014,   20045,   20042,   19102,   19103,   19131,   19128
     296,   19994,   19995,   20030,   20044,   19083,   19084,   19119,   19130
     297,   19993,   19994,   20044,   20043,   19082,   19083,   19130,   19129
     298,   19992,   19993,   20043,   20012,   19081,   19082,   19129,   19101
     299,   20007,   20008,   20013,   20042,   19096,   19097,   19102,   19128
     300,   20006,   20007,   20042,   20041,   19095,   19096,   19128,   19127
     301,   20005,   20006,   20041,   20040,   19094,   19095,   19127,   19136
     302,   20004,   20005,   20040,   20039,   19093,   19094,   19136,   19137
     303,   20003,   20004,   20039,   20038,   19092,   19093,   19137,   19138
     304,   20002,   20003,   20038,   20037,   19091,   19092,   19138,   19126
     305,   20001,   20002,   20037,   20036,   19090,   19091,   19126,   19125
     306,   20000,   20001,   20036,   20035,   19089,   19090,   19125,   19124
     307,   19998,   20000,   20035,   20034,   19088,   19089,   19124,   19123
     308,   19999,   19998,   20034,   20032,   19087,   19088,   19123,   19122
     309,   19999,   20032,   20033,   20031,   19087,   19122,   19121,   19120
     310,   19997,   19999,   20031,   20030,   19086,   19087,   19120,   19119
     311,   19996,   19997,   20030,   19995,   19085,   19086,   19119,   19084
     312,   19990,   19991,   20009,   20029,   19079,   19080,   19098,   19118
     313,   19989,   19990,   20029,   20028,   19078,   19079,   19118,   19117
     314,   19988,   19989,   20028,   20027,   19077,   19078,   19117,   19116
     315,   19987,   19988,   20027,   20026,   19076,   19077,   19116,   19115
     316,   19986,   19987,   20026,   20025,   19075,   19076,   19115,   19114
     317,   19985,   19986,   20025,   20024,   19074,   19075,   19114,   19113
     318,   19984,   19985,   20024,   20023,   19073,   19074,   19113,   19112
     319,   19983,   19984,   20023,   20022,   19072,   19073,   19112,   19111
     320,   19982,   19983,   20022,   20021,   19071,   19072,   19111,   19110
     321,   19981,   19982,   20021,   20020,   19070,   19071,   19110,   19109
     322,   19980,   19981,   20020,   20019,   19069,   19070,   19109,   19108
     323,   19979,   19980,   20019,   20018,   19068,   19069,   19108,   19107
     324,   19978,   19979,   20018,   20017,   19067,   19068,   19107,   19106
     325,   19977,   19978,   20017,   20016,   19066,   19067,   19106,   19105
     326,   19975,   19976,   19977,   20016,   19064,   19065,   19066,   19105
     327,   19974,   19975,   20016,   20015,   19063,   19064,   19105,   19104
     328,   19973,   19974,   20015,   20014,   19062,   19063,   19104,   19103
     329,   19972,   19973,   20014,   20013,   19061,   19062,   19103,   19102
     330,   19971,   19972,   20013,   20008,   19060,   19061,   19102,   19097
     331,   19969,   19970,   19992,   20012,   19058,   19059,   19081,   19101
     332,   19968,   19969,   20012,   20011,   19057,   19058,   19101,   19100
     333,   19967,   19968,   20011,   20010,   19056,   19057,   19100,   19099
     334,   19966,   19967,   20010,   20009,   19055,   19056,   19099,   19098
     335,   19965,   19966,   20009,   19991,   19054,   19055,   19098,   19080
     336,   19963,   19964,   19971,   20008,   19052,   19053,   19060,   19097
     337,   19962,   19963,   20008,   20007,   19051,   19052,   19097,   19096
     338,   19961,   19962,   20007,   20006,   19050,   19051,   19096,   19095
     339,   19960,   19961,   20006,   20005,   19049,   19050,   19095,   19094
     340,   19959,   19960,   20005,   20004,   19048,   19049,   19094,   19093
     341,   19958,   19959,   20004,   20003,   19047,   19048,   19093,   19092
     342,   19957,   19958,   20003,   20002,   19046,   19047,   19092,   19091
     343,   19956,   19957,   20002,   20001,   19045,   19046,   19091,   19090
     344,   19954,   19956,   20001,   20000,   19044,   19045,   19090,   19089
     345,   19955,   19954,   20000,   19998,   19043,   19044,   19089,   19088
     346,   19955,   19998,   19999,   19997,   19043,   19088,   19087,   19086
     347,   19953,   19955,   19997,   19996,   19042,   19043,   19086,   19085
     348,   19951,   19952,   19953,   19996,   19040,   19041,   19042,   19085
     349,   19950,   19951,   19996,   19995,   19039,   19040,   19085,   19084
     350,   19949,   19950,   19995,   19994,   19038,   19039,   19084,   19083
     351,   19948,   19949,   19994,   19993,   19037,   19038,   19083,   19082
     352,   19947,   19948,   19993,   19992,   19036,   19037,   19082,   19081
     353,   19946,   19947,   19992,   19970,   19035,   19036,   19081,   19059
     354,   19917,   19918,   19965,   19991,   19006,   19007,   19054,   19080
     355,   19916,   19917,   19991,   19990,   19005,   19006,   19080,   19079
     356,   19915,   19916,   19990,   19989,   19004,   19005,   19079,   19078
     357,   19914,   19915,   19989,   19988,   19003,   19004,   19078,   19077
     358,   19913,   19914,   19988,   19987,   19002,   19003,   19077,   19076
     359,   19912,   19913,   19987,   19986,   19001,   19002,   19076,   19075
     360,   19911,   19912,   19986,   19985,   19000,   19001,   19075,   19074
     361,   19910,   19911,   19985,   19984,   18999,   19000,   19074,   19073
     362,   19909,   19910,   19984,   19983,   18998,   18999,   19073,   19072
     363,   19908,   19909,   19983,   19982,   18997,   18998,   19072,   19071
     364,   19907,   19908,   19982,   19981,   18996,   18997,   19071,   19070
     365,   19906,   19907,   19981,   19980,   18995,   18996,   19070,   19069
     366,   19905,   19906,   19980,   19979,   18994,   18995,   19069,   19068
     367,   19904,   19905,   19979,   19978,   18993,   18994,   19068,   19067
     368,   19903,   19904,   19978,   19977,   18992,   18993,   19067,   19066
     369,   19902,   19903,   19977,   19976,   18991,   18992,   19066,   19065
     370,   19933,   19901,   19902,   19976,   19022,   18990,   18991,   19065
     371,   19932,   19933,   19976,   19975,   19021,   19022,   19065,   19064
     372,   19931,   19932,   19975,   19974,   19020,   19021,   19064,   19063
     373,   19930,   19931,   19974,   19973,   19019,   19020,   19063,   19062
     374,   19929,   19930,   19973,   19972,   19018,   19019,   19062,   19061
     375,   19928,   19929,   19972,   19971,   19017,   19018,   19061,   19060
     376,   19927,   19928,   19971,   19964,   19016,   19017,   19060,   19053
     377,   19939,   19940,   19946,   19970,   19028,   19029,   19035,   19059
     378,   19938,   19939,   19970,   19969,   19027,   19028,   19059,   19058
     379,   19937,   19938,   19969,   19968,   19026,   19027,   19058,   19057
     380,   19936,   19937,   19968,   19967,   19025,   19026,   19057,   19056
     381,   19935,   19936,   19967,   19966,   19024,   19025,   19056,   19055
     382,   19934,   19935,   19966,   19965,   19023,   19024,   19055,   19054
     383,   19919,   19934,   19965,   19918,   19008,   19023,   19054,   19007
     384,   19899,   19900,   19927,   19964,   18988,   18989,   19016,   19053
     385,   19898,   19899,   19964,   19963,   18987,   18988,   19053,   19052
     386,   19897,   19898,   19963,   19962,   18986,   18987,   19052,   19051
     387,   19896,   19897,   19962,   19961,   18985,   18986,   19051,   19050
     388,   19895,   19896,   19961,   19960,   18984,   18985,   19050,   19049
     389,   19894,   19895,   19960,   19959,   18983,   18984,   19049,   19048
     390,   19945,   19894,   19959,   19958,   19034,   18983,   19048,   19047
     391,   19944,   19945,   19958,   19957,   19033,   19034,   19047,   19046
     392,   19942,   19944,   19957,   19956,   19032,   19033,   19046,   19045
     393,   19943,   19942,   19956,   19954,   19031,   19032,   19045,   19044
     394,   19943,   19954,   19955,   19953,   19031,   19044,   19043,   19042
     395,   19941,   19943,   19953,   19952,   19030,   19031,   19042,   19041
     396,   19926,   19941,   19952,   19951,   19015,   19030,   19041,   19040
     397,   19925,   19926,   19951,   19950,   19014,   19015,   19040,   19039
     398,   19924,   19925,   19950,   19949,   19013,   19014,   19039,   19038
     399,   19923,   19924,   19949,   19948,   19012,   19013,   19038,   19037
     400,   19922,   19923,   19948,   19947,   19011,   19012,   19037,   19036
     401,   19921,   19922,   19947,   19946,   19010,   19011,   19036,   19035
     402,   19920,   19921,   19946,   19940,   19009,   19010,   19035,   19029
     403,   18516,   18515,   19894,   19945,   18484,   18483,   18983,   19034
     404,   18517,   18516,   19945,   19944,   18485,   18484,   19034,   19033
     405,   18518,   18517,   19944,   19942,   18486,   18485,   19033,   19032
     406,   18518,   19942,   19943,   19941,   18486,   19032,   19031,   19030
     407,   18519,   18518,   19941,   19926,   18487,   18486,   19030,   19015
     408,   19828,   19827,   19920,   19940,   18968,   18967,   19009,   19029
     409,   19829,   19828,   19940,   19939,   18969,   18968,   19029,   19028
     410,   19830,   19829,   19939,   19938,   18970,   18969,   19028,   19027
     411,   19831,   19830,   19938,   19937,   18971,   18970,   19027,   19026
     412,   19832,   19831,   19937,   19936,   18972,   18971,   19026,   19025
     413,   19833,   19832,   19936,   19935,   18973,   18972,   19025,   19024
     414,   19834,   19833,   19935,   19934,   18974,   18973,   19024,   19023
     415,   19835,   19834,   19934,   19919,   18975,   18974,   19023,   19008
     416,   19892,   19893,   19901,   19933,   18938,   18937,   18990,   19022
     417,   19891,   19892,   19933,   19932,   18939,   18938,   19022,   19021
     418,   19890,   19891,   19932,   19931,   18940,   18939,   19021,   19020
     419,   19889,   19890,   19931,   19930,   18941,   18940,   19020,   19019
     420,   19888,   19889,   19930,   19929,   18942,   18941,   19019,   19018
     421,   19887,   19888,   19929,   19928,   18943,   18942,   19018,   19017
     422,   19886,   19887,   19928,   19927,   18944,   18943,   19017,   19016
     423,   19885,   19886,   19927,   19900,   18945,   18944,   19016,   18989
     424,   19793,   18509,   18519,   19926,   18976,   18478,   18487,   19015
     425,   19794,   19793,   19926,   19925,   18977,   18976,   19015,   19014
     426,   19795,   19794,   19925,   19924,   18978,   18977,   19014,   19013
     427,   19796,   19795,   19924,   19923,   18979,   18978,   19013,   19012
     428,   19797,   19796,   19923,   19922,   18980,   18979,   19012,   19011
     429,   19798,   19797,   19922,   19921,   18981,   18980,   19011,   19010
     430,   19799,   19798,   19921,   19920,   18982,   18981,   19010,   19009
     431,   19785,   19799,   19920,   19827,   18966,   18982,   19009,   18967
     432,   19857,   19817,   19835,   19919,   18947,   18946,   18975,   19008
     433,   19858,   19857,   19919,   19918,   18948,   18947,   19008,   19007
     434,   19859,   19858,   19918,   19917,   18949,   18948,   19007,   19006
     435,   19860,   19859,   19917,   19916,   18950,   18949,   19006,   19005
     436,   19861,   19860,   19916,   19915,   18951,   18950,   19005,   19004
     437,   19862,   19861,   19915,   19914,   18952,   18951,   19004,   19003
     438,   19863,   19862,   19914,   19913,   18953,   18952,   19003,   19002
     439,   19864,   19863,   19913,   19912,   18954,   18953,   19002,   19001
     440,   19865,   19864,   19912,   19911,   18955,   18954,   19001,   19000
     441,   19866,   19865,   19911,   19910,   18956,   18955,   19000,   18999
     442,   19867,   19866,   19910,   19909,   18957,   18956,   18999,   18998
     443,   19868,   19867,   19909,   19908,   18958,   18957,   18998,   18997
     444,   19869,   19868,   19908,   19907,   18959,   18958,   18997,   18996
     445,   19870,   19869,   19907,   19906,   18960,   18959,   18996,   18995
     446,   19871,   19870,   19906,   19905,   18961,   18960,   18995,   18994
     447,   19872,   19871,   19905,   19904,   18962,   18961,   18994,   18993
     448,   19873,   19872,   19904,   19903,   18963,   18962,   18993,   18992
     449,   19874,   19873,   19903,   19902,   18964,   18963,   18992,   18991
     450,   19875,   19874,   19902,   19901,   18965,   18964,   18991,   18990
     451,   19837,   19875,   19901,   19893,   18936,   18965,   18990,   18937
     452,   19809,   19808,   19885,   19900,   18929,   18928,   18945,   18989
     453,   19810,   19809,   19900,   19899,   18930,   18929,   18989,   18988
     454,   19811,   19810,   19899,   19898,   18931,   18930,   18988,   18987
     455,   19812,   19811,   19898,   19897,   18932,   18931,   18987,   18986
     456,   19813,   19812,   19897,   19896,   18933,   18932,   18986,   18985
     457,   19814,   19813,   19896,   19895,   18934,   18933,   18985,   18984
     458,   19815,   19814,   19895,   19894,   18935,   18934,   18984,   18983
     459,   18507,   19815,   19894,   18515,   18482,   18935,   18983,   18483
     460,   20211,   20190,   20192,   20210,   20052,   20031,   20033,   20051
     461,   20210,   20206,   20207,   20211,   20051,   20047,   20048,   20052
     462,   20203,   20189,   20190,   20211,   20044,   20030,   20031,   20052
     463,   20202,   20203,   20211,   20207,   20043,   20044,   20052,   20048
     464,   20187,   20188,   20206,   20210,   20028,   20029,   20047,   20051
     465,   20186,   20187,   20210,   20192,   20027,   20028,   20051,   20033
     466,   20185,   20186,   20192,   20191,   20026,   20027,   20033,   20032
     467,   20184,   20185,   20191,   20193,   20025,   20026,   20032,   20034
     468,   20183,   20184,   20193,   20194,   20024,   20025,   20034,   20035
     469,   20182,   20183,   20194,   20195,   20023,   20024,   20035,   20036
     470,   20181,   20182,   20195,   20196,   20022,   20023,   20036,   20037
     471,   20199,   20200,   20209,   20208,   20040,   20041,   20050,   20049
     472,   20205,   20208,   20209,   20204,   20046,   20049,   20050,   20045
     473,   20201,   20204,   20209,   20200,   20042,   20045,   20050,   20041
     474,   20180,   20181,   20196,   20197,   20021,   20022,   20037,   20038
     475,   20179,   20180,   20197,   20198,   20020,   20021,   20038,   20039
     476,   20178,   20179,   20198,   20199,   20019,   20020,   20039,   20040
     477,   20177,   20178,   20199,   20208,   20018,   20019,   20040,   20049
     478,   20176,   20177,   20208,   20205,   20017,   20018,   20049,   20046
     479,   20170,   20171,   20202,   20207,   20011,   20012,   20043,   20048
     480,   20169,   20170,   20207,   20206,   20010,   20011,   20048,   20047
     481,   20168,   20169,   20206,   20188,   20009,   20010,   20047,   20029
     482,   20174,   20175,   20176,   20205,   20015,   20016,   20017,   20046
     483,   20173,   20174,   20205,   20204,   20014,   20015,   20046,   20045
     484,   20172,   20173,   20204,   20201,   20013,   20014,   20045,   20042
     485,   20153,   20154,   20189,   20203,   19994,   19995,   20030,   20044
     486,   20152,   20153,   20203,   20202,   19993,   19994,   20044,   20043
     487,   20151,   20152,   20202,   20171,   19992,   19993,   20043,   20012
     488,   20166,   20167,   20172,   20201,   20007,   20008,   20013,   20042
     489,   20165,   20166,   20201,   20200,   20006,   20007,   20042,   20041
     490,   20164,   20165,   20200,   20199,   20005,   20006,   20041,   20040
     491,   20163,   20164,   20199,   20198,   20004,   20005,   20040,   20039
     492,   20162,   20163,   20198,   20197,   20003,   20004,   20039,   20038
     493,   20161,   20162,   20197,   20196,   20002,   20003,   20038,   20037
     494,   20160,   20161,   20196,   20195,   20001,   20002,   20037,   20036
     495,   20159,   20160,   20195,   20194,   20000,   20001,   20036,   20035
     496,   20157,   20159,   20194,   20193,   19998,   20000,   20035,   20034
     497,   20158,   20157,   20193,   20191,   19999,   19998,   20034,   20032
     498,   20158,   20191,   20192,   20190,   19999,   20032,   20033,   20031
     499,   20156,   20158,   20190,   20189,   19997,   19999,   20031,   20030
     500,   20155,   20156,   20189,   20154,   19996,   19997,   20030,   19995
     501,   20149,   20150,   20168,   20188,   19990,   19991,   20009,   20029
     502,   20148,   20149,   20188,   20187,   19989,   19990,   20029,   20028
     503,   20147,   20148,   20187,   20186,   19988,   19989,   20028,   20027
     504,   20146,   20147,   20186,   20185,   19987,   19988,   20027,   20026
     505,   20145,   20146,   20185,   20184,   19986,   19987,   20026,   20025
     506,   20144,   20145,   20184,   20183,   19985,   19986,   20025,   20024
     507,   20143,   20144,   20183,   20182,   19984,   19985,   20024,   20023
     508,   20142,   20143,   20182,   20181,   19983,   19984,   20023,   20022
     509,   20141,   20142,   20181,   20180,   19982,   19983,   20022,   20021
     510,   20140,   20141,   20180,   20179,   19981,   19982,   20021,   20020
     511,   20139,   20140,   20179,   20178,   19980,   19981,   20020,   20019
     512,   20138,   20139,   20178,   20177,   19979,   19980,   20019,   20018
     513,   20137,   20138,   20177,   20176,   19978,   19979,   20018,   20017
     514,   20136,   20137,   20176,   20175,   19977,   19978,   20017,   20016
     515,   20134,   20135,   20136,   20175,   19975,   19976,   19977,   20016
     516,   20133,   20134,   20175,   20174,   19974,   19975,   20016,   20015
     517,   20132,   20133,   20174,   20173,   19973,   19974,   20015,   20014
     518,   20131,   20132,   20173,   20172,   19972,   19973,   20014,   20013
     519,   20130,   20131,   20172,   20167,   19971,   19972,   20013,   20008
     520,   20128,   20129,   20151,   20171,   19969,   19970,   19992,   20012
     521,   20127,   20128,   20171,   20170,   19968,   19969,   20012,   20011
     522,   20126,   20127,   20170,   20169,   19967,   19968,   20011,   20010
     523,   20125,   20126,   20169,   20168,   19966,   19967,   20010,   20009
     524,   20124,   20125,   20168,   20150,   19965,   19966,   20009,   19991
     525,   20122,   20123,   20130,   20167,   19963,   19964,   19971,   20008
     526,   20121,   20122,   20167,   20166,   19962,   19963,   20008,   20007
     527,   20120,   20121,   20166,   20165,   19961,   19962,   20007,   20006
     528,   20119,   20120,   20165,   20164,   19960,   19961,   20006,   20005
     529,   20118,   20119,   20164,   20163,   19959,   19960,   20005,   20004
     530,   20117,   20118,   20163,   20162,   19958,   19959,   20004,   20003
     531,   20116,   20117,   20162,   20161,   19957,   19958,   20003,   20002
     532,   20115,   20116,   20161,   20160,   19956,   19957,   20002,   20001
     533,   20113,   20115,   20160,   20159,   19954,   19956,   20001,   20000
     534,   20114,   20113,   20159,   20157,   19955,   19954,   20000,   19998
     535,   20114,   20157,   20158,   20156,   19955,   19998,   19999,   19997
     536,   20112,   20114,   20156,   20155,   19953,   19955,   19997,   19996
     537,   20110,   20111,   20112,   20155,   19951,   19952,   19953,   19996
     538,   20109,   20110,   20155,   20154,   19950,   19951,   19996,   19995
     539,   20108,   20109,   20154,   20153,   19949,   19950,   19995,   19994
     540,   20107,   20108,   20153,   20152,   19948,   19949,   19994,   19993
     541,   20106,   20107,   20152,   20151,   19947,   19948,   19993,   19992
     542,   20105,   20106,   20151,   20129,   19946,   19947,   19992,   19970
     543,   20076,   20077,   20124,   20150,   19917,   19918,   19965,   19991
     544,   20075,   20076,   20150,   20149,   19916,   19917,   19991,   19990
     545,   20074,   20075,   20149,   20148,   19915,   19916,   19990,   19989
     546,   20073,   20074,   20148,   20147,   19914,   19915,   19989,   19988
     547,   20072,   20073,   20147,   20146,   19913,   19914,   19988,   19987
     548,   20071,   20072,   20146,   20145,   19912,   19913,   19987,   19986
     549,   20070,   20071,   20145,   20144,   19911,   19912,   19986,   19985
     550,   20069,   20070,   20144,   20143,   19910,   19911,   19985,   19984
     551,   20068,   20069,   20143,   20142,   19909,   19910,   19984,   19983
     552,   20067,   20068,   20142,   20141,   19908,   19909,   19983,   19982
     553,   20066,   20067,   20141,   20140,   19907,   19908,   19982,   19981
     554,   20065,   20066,   20140,   20139,   19906,   19907,   19981,   19980
     555,   20064,   20065,   20139,   20138,   19905,   19906,   19980,   19979
     556,   20063,   20064,   20138,   20137,   19904,   19905,   19979,   19978
     557,   20062,   20063,   20137,   20136,   19903,   19904,   19978,   19977
     558,   20061,   20062,   20136,   20135,   19902,   19903,   19977,   19976
     559,   20092,   20060,   20061,   20135,   19933,   19901,   19902,   19976
     560,   20091,   20092,   20135,   20134,   19932,   19933,   19976,   19975
     561,   20090,   20091,   20134,   20133,   19931,   19932,   19975,   19974
     562,   20089,   20090,   20133,   20132,   19930,   19931,   19974,   19973
     563,   20088,   20089,   20132,   20131,   19929,   19930,   19973,   19972
     564,   20087,   20088,   20131,   20130,   19928,   19929,   19972,   19971
     565,   20086,   20087,   20130,   20123,   19927,   19928,   19971,   19964
     566,   20098,   20099,   20105,   20129,   19939,   19940,   19946,   19970
     567,   20097,   20098,   20129,   20128,   19938,   19939,   19970,   19969
     568,   20096,   20097,   20128,   20127,   19937,   19938,   19969,   19968
     569,   20095,   20096,   20127,   20126,   19936,   19937,   19968,   19967
     570,   20094,   20095,   20126,   20125,   19935,   19936,   19967,   19966
     571,   20093,   20094,   20125,   20124,   19934,   19935,   19966,   19965
     572,   20078,   20093,   20124,   20077,   19919,   19934,   19965,   19918
     573,   20058,   20059,   20086,   20123,   19899,   19900,   19927,   19964
     574,   20057,   20058,   20123,   20122,   19898,   19899,   19964,   19963
     575,   20056,   20057,   20122,   20121,   19897,   19898,   19963,   19962
     576,   20055,   20056,   20121,   20120,   19896,   19897,   19962,   19961
     577,   20054,   20055,   20120,   20119,   19895,   19896,   19961,   19960
     578,   20053,   20054,   20119,   20118,   19894,   19895,   19960,   19959
     579,   20104,   20053,   20118,   20117,   19945,   19894,   19959,   19958
     580,   20103,   20104,   20117,   20116,   19944,   19945,   19958,   19957
     581,   20101,   20103,   20116,   20115,   19942,   19944,   19957,   19956
     582,   20102,   20101,   20115,   20113,   19943,   19942,   19956,   19954
     583,   20102,   20113,   20114,   20112,   19943,   19954,   19955,   19953
     584,   20100,   20102,   20112,   20111,   19941,   19943,   19953,   19952
     585,   20085,   20100,   20111,   20110,   19926,   19941,   19952,   19951
     586,   20084,   20085,   20110,   20109,   19925,   19926,   19951,   19950
     587,   20083,   20084,   20109,   20108,   19924,   19925,   19950,   19949
     588,   20082,   20083,   20108,   20107,   19923,   19924,   19949,   19948
     589,   20081,   20082,   20107,   20106,   19922,   19923,   19948,   19947
     590,   20080,   20081,   20106,   20105,   19921,   19922,   19947,   19946
     591,   20079,   20080,   20105,   20099,   19920,   19921,   19946,   19940
     592,   18511,   18510,   20053,   20104,   18516,   18515,   19894,   19945
     593,   18512,   18511,   20104,   20103,   18517,   18516,   19945,   19944
     594,   18513,   18512,   20103,   20101,   18518,   18517,   19944,   19942
     595,   18513,   20101,   20102,   20100,   18518,   19942,   19943,   19941
     596,   18514,   18513,   20100,   20085,   18519,   18518,   19941,   19926
     597,   19819,   19818,   20079,   20099,   19828,   19827,   19920,   19940
     598,   19820,   19819,   20099,   20098,   19829,   19828,   19940,   19939
     599,   19821,   19820,   20098,   20097,   19830,   19829,   19939,   19938
     600,   19822,   19821,   20097,   20096,   19831,   19830,   19938,   19937
     601,   19823,   19822,   20096,   20095,   19832,   19831,   19937,   19936
     602,   19824,   19823,   20095,   20094,   19833,   19832,   19936,   19935
     603,   19825,   19824,   20094,   20093,   19834,   19833,   19935,   19934
     604,   19826,   19825,   20093,   20078,   19835,   19834,   19934,   19919
     605,   19883,   19884,   20060,   20092,   19892,   19893,   19901,   19933
     606,   19882,   19883,   20092,   20091,   19891,   19892,   19933,   19932
     607,   19881,   19882,   20091,   20090,   19890,   19891,   19932,   19931
     608,   19880,   19881,   20090,   20089,   19889,   19890,   19931,   19930
     609,   19879,   19880,   20089,   20088,   19888,   19889,   19930,   19929
     610,   19878,   19879,   20088,   20087,   19887,   19888,   19929,   19928
     611,   19877,   19878,   20087,   20086,   19886,   19887,   19928,   19927
     612,   19876,   19877,   20086,   20059,   19885,   19886,   19927,   19900
     613,   19792,   18508,   18514,   20085,   19793,   18509,   18519,   19926
     614,   19791,   19792,   20085,   20084,   19794,   19793,   19926,   19925
     615,   19790,   19791,   20084,   20083,   19795,   19794,   19925,   19924
     616,   19789,   19790,   20083,   20082,   19796,   19795,   19924,   19923
     617,   19788,   19789,   20082,   20081,   19797,   19796,   19923,   19922
     618,   19787,   19788,   20081,   20080,   19798,   19797,   19922,   19921
     619,   19786,   19787,   20080,   20079,   19799,   19798,   19921,   19920
     620,   19784,   19786,   20079,   19818,   19785,   19799,   19920,   19827
     621,   19856,   19816,   19826,   20078,   19857,   19817,   19835,   19919
     622,   19855,   19856,   20078,   20077,   19858,   19857,   19919,   19918
     623,   19854,   19855,   20077,   20076,   19859,   19858,   19918,   19917
     624,   19853,   19854,   20076,   20075,   19860,   19859,   19917,   19916
     625,   19852,   19853,   20075,   20074,   19861,   19860,   19916,   19915
     626,   19851,   19852,   20074,   20073,   19862,   19861,   19915,   19914
     627,   19850,   19851,   20073,   20072,   19863,   19862,   19914,   19913
     628,   19849,   19850,   20072,   20071,   19864,   19863,   19913,   19912
     629,   19848,   19849,   20071,   20070,   19865,   19864,   19912,   19911
     630,   19847,   19848,   20070,   20069,   19866,   19865,   19911,   19910
     631,   19846,   19847,   20069,   20068,   19867,   19866,   19910,   19909
     632,   19845,   19846,   20068,   20067,   19868,   19867,   19909,   19908
     633,   19844,   19845,   20067,   20066,   19869,   19868,   19908,   19907
     634,   19843,   19844,   20066,   20065,   19870,   19869,   19907,   19906
     635,   19842,   19843,   20065,   20064,   19871,   19870,   19906,   19905
     636,   19841,   19842,   20064,   20063,   19872,   19871,   19905,   19904
     637,   19840,   19841,   20063,   20062,   19873,   19872,   19904,   19903
     638,   19839,   19840,   20062,   20061,   19874,   19873,   19903,   19902
     639,   19838,   19839,   20061,   20060,   19875,   19874,   19902,   19901
     640,   19836,   19838,   20060,   19884,   19837,   19875,   19901,   19893
     641,   19807,   19800,   19876,   20059,   19809,   19808,   19885,   19900
     642,   19806,   19807,   20059,   20058,   19810,   19809,   19900,   19899
     643,   19805,   19806,   20058,   20057,   19811,   19810,   19899,   19898
     644,   19804,   19805,   20057,   20056,   19812,   19811,   19898,   19897
     645,   19803,   19804,   20056,   20055,   19813,   19812,   19897,   19896
     646,   19802,   19803,   20055,   20054,   19814,   19813,   19896,   19895
     647,   19801,   19802,   20054,   20053,   19815,   19814,   19895,   19894
     648,   18506,   19801,   20053,   18510,   18507,   19815,   19894,   18515
     649,   19141,   19120,   19121,   19140,   19465,   19444,   19445,   19464
     650,   19140,   19133,   19134,   19141,   19464,   19460,   19461,   19465
     651,   19130,   19119,   19120,   19141,   19457,   19443,   19444,   19465
     652,   19129,   19130,   19141,   19134,   19456,   19457,   19465,   19461
     653,   19117,   19118,   19133,   19140,   19441,   19442,   19460,   19464
     654,   19116,   19117,   19140,   19121,   19440,   19441,   19464,   19445
     655,   19115,   19116,   19121,   19122,   19439,   19440,   19445,   19446
     656,   19114,   19115,   19122,   19123,   19438,   19439,   19446,   19447
     657,   19113,   19114,   19123,   19124,   19437,   19438,   19447,   19448
     658,   19112,   19113,   19124,   19125,   19436,   19437,   19448,   19449
     659,   19111,   19112,   19125,   19126,   19435,   19436,   19449,   19450
     660,   19136,   19127,   19139,   19135,   19453,   19454,   19463,   19462
     661,   19132,   19135,   19139,   19131,   19459,   19462,   19463,   19458
     662,   19128,   19131,   19139,   19127,   19455,   19458,   19463,   19454
     663,   19110,   19111,   19126,   19138,   19434,   19435,   19450,   19451
     664,   19109,   19110,   19138,   19137,   19433,   19434,   19451,   19452
     665,   19108,   19109,   19137,   19136,   19432,   19433,   19452,   19453
     666,   19107,   19108,   19136,   19135,   19431,   19432,   19453,   19462
     667,   19106,   19107,   19135,   19132,   19430,   19431,   19462,   19459
     668,   19100,   19101,   19129,   19134,   19424,   19425,   19456,   19461
     669,   19099,   19100,   19134,   19133,   19423,   19424,   19461,   19460
     670,   19098,   19099,   19133,   19118,   19422,   19423,   19460,   19442
     671,   19104,   19105,   19106,   19132,   19428,   19429,   19430,   19459
     672,   19103,   19104,   19132,   19131,   19427,   19428,   19459,   19458
     673,   19102,   19103,   19131,   19128,   19426,   19427,   19458,   19455
     674,   19083,   19084,   19119,   19130,   19407,   19408,   19443,   19457
     675,   19082,   19083,   19130,   19129,   19406,   19407,   19457,   19456
     676,   19081,   19082,   19129,   19101,   19405,   19406,   19456,   19425
     677,   19096,   19097,   19102,   19128,   19420,   19421,   19426,   19455
     678,   19095,   19096,   19128,   19127,   19419,   19420,   19455,   19454
     679,   19094,   19095,   19127,   19136,   19418,   19419,   19454,   19453
     680,   19093,   19094,   19136,   19137,   19417,   19418,   19453,   19452
     681,   19092,   19093,   19137,   19138,   19416,   19417,   19452,   19451
     682,   19091,   19092,   19138,   19126,   19415,   19416,   19451,   19450
     683,   19090,   19091,   19126,   19125,   19414,   19415,   19450,   19449
     684,   19089,   19090,   19125,   19124,   19413,   19414,   19449,   19448
     685,   19088,   19089,   19124,   19123,   19412,   19413,   19448,   19447
     686,   19087,   19088,   19123,   19122,   19411,   19412,   19447,   19446
     687,   19087,   19122,   19121,   19120,   19411,   19446,   19445,   19444
     688,   19086,   19087,   19120,   19119,   19410,   19411,   19444,   19443
     689,   19085,   19086,   19119,   19084,   19409,   19410,   19443,   19408
     690,   19079,   19080,   19098,   19118,   19403,   19404,   19422,   19442
     691,   19078,   19079,   19118,   19117,   19402,   19403,   19442,   19441
     692,   19077,   19078,   19117,   19116,   19401,   19402,   19441,   19440
     693,   19076,   19077,   19116,   19115,   19400,   19401,   19440,   19439
     694,   19075,   19076,   19115,   19114,   19399,   19400,   19439,   19438
     695,   19074,   19075,   19114,   19113,   19398,   19399,   19438,   19437
     696,   19073,   19074,   19113,   19112,   19397,   19398,   19437,   19436
     697,   19072,   19073,   19112,   19111,   19396,   19397,   19436,   19435
     698,   19071,   19072,   19111,   19110,   19395,   19396,   19435,   19434
     699,   19070,   19071,   19110,   19109,   19394,   19395,   19434,   19433
     700,   19069,   19070,   19109,   19108,   19393,   19394,   19433,   19432
     701,   19068,   19069,   19108,   19107,   19392,   19393,   19432,   19431
     702,   19067,   19068,   19107,   19106,   19391,   19392,   19431,   19430
     703,   19066,   19067,   19106,   19105,   19390,   19391,   19430,   19429
     704,   19064,   19065,   19066,   19105,   19388,   19389,   19390,   19429
     705,   19063,   19064,   19105,   19104,   19387,   19388,   19429,   19428
     706,   19062,   19063,   19104,   19103,   19386,   19387,   19428,   19427
     707,   19061,   19062,   19103,   19102,   19385,   19386,   19427,   19426
     708,   19060,   19061,   19102,   19097,   19384,   19385,   19426,   19421
     709,   19058,   19059,   19081,   19101,   19382,   19383,   19405,   19425
     710,   19057,   19058,   19101,   19100,   19381,   19382,   19425,   19424
     711,   19056,   19057,   19100,   19099,   19380,   19381,   19424,   19423
     712,   19055,   19056,   19099,   19098,   19379,   19380,   19423,   19422
     713,   19054,   19055,   19098,   19080,   19378,   19379,   19422,   19404
     714,   19052,   19053,   19060,   19097,   19376,   19377,   19384,   19421
     715,   19051,   19052,   19097,   19096,   19375,   19376,   19421,   19420
     716,   19050,   19051,   19096,   19095,   19374,   19375,   19420,   19419
     717,   19049,   19050,   19095,   19094,   19373,   19374,   19419,   19418
     718,   19048,   19049,   19094,   19093,   19372,   19373,   19418,   19417
     719,   19047,   19048,   19093,   19092,   19371,   19372,   19417,   19416
     720,   19046,   19047,   19092,   19091,   19370,   19371,   19416,   19415
     721,   19045,   19046,   19091,   19090,   19369,   19370,   19415,   19414
     722,   19044,   19045,   19090,   19089,   19368,   19369,   19414,   19413
     723,   19043,   19044,   19089,   19088,   19367,   19368,   19413,   19412
     724,   19043,   19088,   19087,   19086,   19367,   19412,   19411,   19410
     725,   19042,   19043,   19086,   19085,   19366,   19367,   19410,   19409
     726,   19040,   19041,   19042,   19085,   19364,   19365,   19366,   19409
     727,   19039,   19040,   19085,   19084,   19363,   19364,   19409,   19408
     728,   19038,   19039,   19084,   19083,   19362,   19363,   19408,   19407
     729,   19037,   19038,   19083,   19082,   19361,   19362,   19407,   19406
     730,   19036,   19037,   19082,   19081,   19360,   19361,   19406,   19405
     731,   19035,   19036,   19081,   19059,   19359,   19360,   19405,   19383
     732,   19006,   19007,   19054,   19080,   19330,   19331,   19378,   19404
     733,   19005,   19006,   19080,   19079,   19329,   19330,   19404,   19403
     734,   19004,   19005,   19079,   19078,   19328,   19329,   19403,   19402
     735,   19003,   19004,   19078,   19077,   19327,   19328,   19402,   19401
     736,   19002,   19003,   19077,   19076,   19326,   19327,   19401,   19400
     737,   19001,   19002,   19076,   19075,   19325,   19326,   19400,   19399
     738,   19000,   19001,   19075,   19074,   19324,   19325,   19399,   19398
     739,   18999,   19000,   19074,   19073,   19323,   19324,   19398,   19397
     740,   18998,   18999,   19073,   19072,   19322,   19323,   19397,   19396
     741,   18997,   18998,   19072,   19071,   19321,   19322,   19396,   19395
     742,   18996,   18997,   19071,   19070,   19320,   19321,   19395,   19394
     743,   18995,   18996,   19070,   19069,   19319,   19320,   19394,   19393
     744,   18994,   18995,   19069,   19068,   19318,   19319,   19393,   19392
     745,   18993,   18994,   19068,   19067,   19317,   19318,   19392,   19391
     746,   18992,   18993,   19067,   19066,   19316,   19317,   19391,   19390
     747,   18991,   18992,   19066,   19065,   19315,   19316,   19390,   19389
     748,   19022,   18990,   18991,   19065,   19346,   19314,   19315,   19389
     749,   19021,   19022,   19065,   19064,   19345,   19346,   19389,   19388
     750,   19020,   19021,   19064,   19063,   19344,   19345,   19388,   19387
     751,   19019,   19020,   19063,   19062,   19343,   19344,   19387,   19386
     752,   19018,   19019,   19062,   19061,   19342,   19343,   19386,   19385
     753,   19017,   19018,   19061,   19060,   19341,   19342,   19385,   19384
     754,   19016,   19017,   19060,   19053,   19340,   19341,   19384,   19377
     755,   19028,   19029,   19035,   19059,   19352,   19353,   19359,   19383
     756,   19027,   19028,   19059,   19058,   19351,   19352,   19383,   19382
     757,   19026,   19027,   19058,   19057,   19350,   19351,   19382,   19381
     758,   19025,   19026,   19057,   19056,   19349,   19350,   19381,   19380
     759,   19024,   19025,   19056,   19055,   19348,   19349,   19380,   19379
     760,   19023,   19024,   19055,   19054,   19347,   19348,   19379,   19378
     761,   19008,   19023,   19054,   19007,   19332,   19347,   19378,   19331
     762,   18988,   18989,   19016,   19053,   19312,   19313,   19340,   19377
     763,   18987,   18988,   19053,   19052,   19311,   19312,   19377,   19376
     764,   18986,   18987,   19052,   19051,   19310,   19311,   19376,   19375
     765,   18985,   18986,   19051,   19050,   19309,   19310,   19375,   19374
     766,   18984,   18985,   19050,   19049,   19308,   19309,   19374,   19373
     767,   18983,   18984,   19049,   19048,   19307,   19308,   19373,   19372
     768,   19034,   18983,   19048,   19047,   19358,   19307,   19372,   19371
     769,   19033,   19034,   19047,   19046,   19357,   19358,   19371,   19370
     770,   19032,   19033,   19046,   19045,   19356,   19357,   19370,   19369
     771,   19031,   19032,   19045,   19044,   19355,   19356,   19369,   19368
     772,   19031,   19044,   19043,   19042,   19355,   19368,   19367,   19366
     773,   19030,   19031,   19042,   19041,   19354,   19355,   19366,   19365
     774,   19015,   19030,   19041,   19040,   19339,   19354,   19365,   19364
     775,   19014,   19015,   19040,   19039,   19338,   19339,   19364,   19363
     776,   19013,   19014,   19039,   19038,   19337,   19338,   19363,   19362
     777,   19012,   19013,   19038,   19037,   19336,   19337,   19362,   19361
     778,   19011,   19012,   19037,   19036,   19335,   19336,   19361,   19360
     779,   19010,   19011,   19036,   19035,   19334,   19335,   19360,   19359
     780,   19009,   19010,   19035,   19029,   19333,   19334,   19359,   19353
     781,   18484,   18483,   18983,   19034,   18503,   18505,   19307,   19358
     782,   18485,   18484,   19034,   19033,   18501,   18503,   19358,   19357
     783,   18486,   18485,   19033,   19032,   18499,   18501,   19357,   19356
     784,   18486,   19032,   19031,   19030,   18499,   19356,   19355,   19354
     785,   18487,   18486,   19030,   19015,   18497,   18499,   19354,   19339
     786,   18968,   18967,   19009,   19029,   19291,   19289,   19333,   19353
     787,   18969,   18968,   19029,   19028,   19293,   19291,   19353,   19352
     788,   18970,   18969,   19028,   19027,   19295,   19293,   19352,   19351
     789,   18971,   18970,   19027,   19026,   19297,   19295,   19351,   19350
     790,   18972,   18971,   19026,   19025,   19299,   19297,   19350,   19349
     791,   18973,   18972,   19025,   19024,   19301,   19299,   19349,   19348
     792,   18974,   18973,   19024,   19023,   19303,   19301,   19348,   19347
     793,   18975,   18974,   19023,   19008,   19305,   19303,   19347,   19332
     794,   18938,   18937,   18990,   19022,   19217,   19219,   19314,   19346
     795,   18939,   18938,   19022,   19021,   19215,   19217,   19346,   19345
     796,   18940,   18939,   19021,   19020,   19213,   19215,   19345,   19344
     797,   18941,   18940,   19020,   19019,   19211,   19213,   19344,   19343
     798,   18942,   18941,   19019,   19018,   19209,   19211,   19343,   19342
     799,   18943,   18942,   19018,   19017,   19207,   19209,   19342,   19341
     800,   18944,   18943,   19017,   19016,   19205,   19207,   19341,   19340
     801,   18945,   18944,   19016,   18989,   19203,   19205,   19340,   19313
     802,   18976,   18478,   18487,   19015,   19182,   18480,   18497,   19339
     803,   18977,   18976,   19015,   19014,   19181,   19182,   19339,   19338
     804,   18978,   18977,   19014,   19013,   19180,   19181,   19338,   19337
     805,   18979,   18978,   19013,   19012,   19179,   19180,   19337,   19336
     806,   18980,   18979,   19012,   19011,   19178,   19179,   19336,   19335
     807,   18981,   18980,   19011,   19010,   19177,   19178,   19335,   19334
     808,   18982,   18981,   19010,   19009,   19176,   19177,   19334,   19333
     809,   18966,   18982,   19009,   18967,   19175,   19176,   19333,   19289
     810,   18947,   18946,   18975,   19008,   19260,   19221,   19305,   19332
     811,   18948,   18947,   19008,   19007,   19259,   19260,   19332,   19331
     812,   18949,   18948,   19007,   19006,   19258,   19259,   19331,   19330
     813,   18950,   18949,   19006,   19005,   19257,   19258,   19330,   19329
     814,   18951,   18950,   19005,   19004,   19256,   19257,   19329,   19328
     815,   18952,   18951,   19004,   19003,   19255,   19256,   19328,   19327
     816,   18953,   18952,   19003,   19002,   19254,   19255,   19327,   19326
     817,   18954,   18953,   19002,   19001,   19253,   19254,   19326,   19325
     818,   18955,   18954,   19001,   19000,   19252,   19253,   19325,   19324
     819,   18956,   18955,   19000,   18999,   19251,   19252,   19324,   19323
     820,   18957,   18956,   18999,   18998,   19250,   19251,   19323,   19322
     821,   18958,   18957,   18998,   18997,   19249,   19250,   19322,   19321
     822,   18959,   18958,   18997,   18996,   19248,   19249,   19321,   19320
     823,   18960,   18959,   18996,   18995,   19247,   19248,   19320,   19319
     824,   18961,   18960,   18995,   18994,   19246,   19247,   19319,   19318
     825,   18962,   18961,   18994,   18993,   19245,   19246,   19318,   19317
     826,   18963,   18962,   18993,   18992,   19244,   19245,   19317,   19316
     827,   18964,   18963,   18992,   18991,   19243,   19244,   19316,   19315
     828,   18965,   18964,   18991,   18990,   19242,   19243,   19315,   19314
     829,   18936,   18965,   18990,   18937,   19192,   19242,   19314,   19219
     830,   18929,   18928,   18945,   18989,   19158,   19143,   19203,   19313
     831,   18930,   18929,   18989,   18988,   19157,   19158,   19313,   19312
     832,   18931,   18930,   18988,   18987,   19156,   19157,   19312,   19311
     833,   18932,   18931,   18987,   18986,   19155,   19156,   19311,   19310
     834,   18933,   18932,   18986,   18985,   19154,   19155,   19310,   19309
     835,   18934,   18933,   18985,   18984,   19153,   19154,   19309,   19308
     836,   18935,   18934,   18984,   18983,   19152,   19153,   19308,   19307
     837,   18482,   18935,   18983,   18483,   18490,   19152,   19307,   18505
     838,   19465,   19444,   19445,   19464,   19624,   19603,   19604,   19623
     839,   19464,   19460,   19461,   19465,   19623,   19619,   19620,   19624
     840,   19457,   19443,   19444,   19465,   19616,   19602,   19603,   19624
     841,   19456,   19457,   19465,   19461,   19615,   19616,   19624,   19620
     842,   19441,   19442,   19460,   19464,   19600,   19601,   19619,   19623
     843,   19440,   19441,   19464,   19445,   19599,   19600,   19623,   19604
     844,   19439,   19440,   19445,   19446,   19598,   19599,   19604,   19605
     845,   19438,   19439,   19446,   19447,   19597,   19598,   19605,   19606
     846,   19437,   19438,   19447,   19448,   19596,   19597,   19606,   19607
     847,   19436,   19437,   19448,   19449,   19595,   19596,   19607,   19608
     848,   19435,   19436,   19449,   19450,   19594,   19595,   19608,   19609
     849,   19453,   19454,   19463,   19462,   19612,   19613,   19622,   19621
     850,   19459,   19462,   19463,   19458,   19618,   19621,   19622,   19617
     851,   19455,   19458,   19463,   19454,   19614,   19617,   19622,   19613
     852,   19434,   19435,   19450,   19451,   19593,   19594,   19609,   19610
     853,   19433,   19434,   19451,   19452,   19592,   19593,   19610,   19611
     854,   19432,   19433,   19452,   19453,   19591,   19592,   19611,   19612
     855,   19431,   19432,   19453,   19462,   19590,   19591,   19612,   19621
     856,   19430,   19431,   19462,   19459,   19589,   19590,   19621,   19618
     857,   19424,   19425,   19456,   19461,   19583,   19584,   19615,   19620
     858,   19423,   19424,   19461,   19460,   19582,   19583,   19620,   19619
     859,   19422,   19423,   19460,   19442,   19581,   19582,   19619,   19601
     860,   19428,   19429,   19430,   19459,   19587,   19588,   19589,   19618
     861,   19427,   19428,   19459,   19458,   19586,   19587,   19618,   19617
     862,   19426,   19427,   19458,   19455,   19585,   19586,   19617,   19614
     863,   19407,   19408,   19443,   19457,   19566,   19567,   19602,   19616
     864,   19406,   19407,   19457,   19456,   19565,   19566,   19616,   19615
     865,   19405,   19406,   19456,   19425,   19564,   19565,   19615,   19584
     866,   19420,   19421,   19426,   19455,   19579,   19580,   19585,   19614
     867,   19419,   19420,   19455,   19454,   19578,   19579,   19614,   19613
     868,   19418,   19419,   19454,   19453,   19577,   19578,   19613,   19612
     869,   19417,   19418,   19453,   19452,   19576,   19577,   19612,   19611
     870,   19416,   19417,   19452,   19451,   19575,   19576,   19611,   19610
     871,   19415,   19416,   19451,   19450,   19574,   19575,   19610,   19609
     872,   19414,   19415,   19450,   19449,   19573,   19574,   19609,   19608
     873,   19413,   19414,   19449,   19448,   19572,   19573,   19608,   19607
     874,   19412,   19413,   19448,   19447,   19571,   19572,   19607,   19606
     875,   19411,   19412,   19447,   19446,   19570,   19571,   19606,   19605
     876,   19411,   19446,   19445,   19444,   19570,   19605,   19604,   19603
     877,   19410,   19411,   19444,   19443,   19569,   19570,   19603,   19602
     878,   19409,   19410,   19443,   19408,   19568,   19569,   19602,   19567
     879,   19403,   19404,   19422,   19442,   19562,   19563,   19581,   19601
     880,   19402,   19403,   19442,   19441,   19561,   19562,   19601,   19600
     881,   19401,   19402,   19441,   19440,   19560,   19561,   19600,   19599
     882,   19400,   19401,   19440,   19439,   19559,   19560,   19599,   19598
     883,   19399,   19400,   19439,   19438,   19558,   19559,   19598,   19597
     884,   19398,   19399,   19438,   19437,   19557,   19558,   19597,   19596
     885,   19397,   19398,   19437,   19436,   19556,   19557,   19596,   19595
     886,   19396,   19397,   19436,   19435,   19555,   19556,   19595,   19594
     887,   19395,   19396,   19435,   19434,   19554,   19555,   19594,   19593
     888,   19394,   19395,   19434,   19433,   19553,   19554,   19593,   19592
     889,   19393,   19394,   19433,   19432,   19552,   19553,   19592,   19591
     890,   19392,   19393,   19432,   19431,   19551,   19552,   19591,   19590
     891,   19391,   19392,   19431,   19430,   19550,   19551,   19590,   19589
     892,   19390,   19391,   19430,   19429,   19549,   19550,   19589,   19588
     893,   19388,   19389,   19390,   19429,   19547,   19548,   19549,   19588
     894,   19387,   19388,   19429,   19428,   19546,   19547,   19588,   19587
     895,   19386,   19387,   19428,   19427,   19545,   19546,   19587,   19586
     896,   19385,   19386,   19427,   19426,   19544,   19545,   19586,   19585
     897,   19384,   19385,   19426,   19421,   19543,   19544,   19585,   19580
     898,   19382,   19383,   19405,   19425,   19541,   19542,   19564,   19584
     899,   19381,   19382,   19425,   19424,   19540,   19541,   19584,   19583
     900,   19380,   19381,   19424,   19423,   19539,   19540,   19583,   19582
     901,   19379,   19380,   19423,   19422,   19538,   19539,   19582,   19581
     902,   19378,   19379,   19422,   19404,   19537,   19538,   19581,   19563
     903,   19376,   19377,   19384,   19421,   19535,   19536,   19543,   19580
     904,   19375,   19376,   19421,   19420,   19534,   19535,   19580,   19579
     905,   19374,   19375,   19420,   19419,   19533,   19534,   19579,   19578
     906,   19373,   19374,   19419,   19418,   19532,   19533,   19578,   19577
     907,   19372,   19373,   19418,   19417,   19531,   19532,   19577,   19576
     908,   19371,   19372,   19417,   19416,   19530,   19531,   19576,   19575
     909,   19370,   19371,   19416,   19415,   19529,   19530,   19575,   19574
     910,   19369,   19370,   19415,   19414,   19528,   19529,   19574,   19573
     911,   19368,   19369,   19414,   19413,   19527,   19528,   19573,   19572
     912,   19367,   19368,   19413,   19412,   19526,   19527,   19572,   19571
     913,   19367,   19412,   19411,   19410,   19526,   19571,   19570,   19569
     914,   19366,   19367,   19410,   19409,   19525,   19526,   19569,   19568
     915,   19364,   19365,   19366,   19409,   19523,   19524,   19525,   19568
     916,   19363,   19364,   19409,   19408,   19522,   19523,   19568,   19567
     917,   19362,   19363,   19408,   19407,   19521,   19522,   19567,   19566
     918,   19361,   19362,   19407,   19406,   19520,   19521,   19566,   19565
     919,   19360,   19361,   19406,   19405,   19519,   19520,   19565,   19564
     920,   19359,   19360,   19405,   19383,   19518,   19519,   19564,   19542
     921,   19330,   19331,   19378,   19404,   19489,   19490,   19537,   19563
     922,   19329,   19330,   19404,   19403,   19488,   19489,   19563,   19562
     923,   19328,   19329,   19403,   19402,   19487,   19488,   19562,   19561
     924,   19327,   19328,   19402,   19401,   19486,   19487,   19561,   19560
     925,   19326,   19327,   19401,   19400,   19485,   19486,   19560,   19559
     926,   19325,   19326,   19400,   19399,   19484,   19485,   19559,   19558
     927,   19324,   19325,   19399,   19398,   19483,   19484,   19558,   19557
     928,   19323,   19324,   19398,   19397,   19482,   19483,   19557,   19556
     929,   19322,   19323,   19397,   19396,   19481,   19482,   19556,   19555
     930,   19321,   19322,   19396,   19395,   19480,   19481,   19555,   19554
     931,   19320,   19321,   19395,   19394,   19479,   19480,   19554,   19553
     932,   19319,   19320,   19394,   19393,   19478,   19479,   19553,   19552
     933,   19318,   19319,   19393,   19392,   19477,   19478,   19552,   19551
     934,   19317,   19318,   19392,   19391,   19476,   19477,   19551,   19550
     935,   19316,   19317,   19391,   19390,   19475,   19476,   19550,   19549
     936,   19315,   19316,   19390,   19389,   19474,   19475,   19549,   19548
     937,   19346,   19314,   19315,   19389,   19505,   19473,   19474,   19548
     938,   19345,   19346,   19389,   19388,   19504,   19505,   19548,   19547
     939,   19344,   19345,   19388,   19387,   19503,   19504,   19547,   19546
     940,   19343,   19344,   19387,   19386,   19502,   19503,   19546,   19545
     941,   19342,   19343,   19386,   19385,   19501,   19502,   19545,   19544
     942,   19341,   19342,   19385,   19384,   19500,   19501,   19544,   19543
     943,   19340,   19341,   19384,   19377,   19499,   19500,   19543,   19536
     944,   19352,   19353,   19359,   19383,   19511,   19512,   19518,   19542
     945,   19351,   19352,   19383,   19382,   19510,   19511,   19542,   19541
     946,   19350,   19351,   19382,   19381,   19509,   19510,   19541,   19540
     947,   19349,   19350,   19381,   19380,   19508,   19509,   19540,   19539
     948,   19348,   19349,   19380,   19379,   19507,   19508,   19539,   19538
     949,   19347,   19348,   19379,   19378,   19506,   19507,   19538,   19537
     950,   19332,   19347,   19378,   19331,   19491,   19506,   19537,   19490
     951,   19312,   19313,   19340,   19377,   19471,   19472,   19499,   19536
     952,   19311,   19312,   19377,   19376,   19470,   19471,   19536,   19535
     953,   19310,   19311,   19376,   19375,   19469,   19470,   19535,   19534
     954,   19309,   19310,   19375,   19374,   19468,   19469,   19534,   19533
     955,   19308,   19309,   19374,   19373,   19467,   19468,   19533,   19532
     956,   19307,   19308,   19373,   19372,   19466,   19467,   19532,   19531
     957,   19358,   19307,   19372,   19371,   19517,   19466,   19531,   19530
     958,   19357,   19358,   19371,   19370,   19516,   19517,   19530,   19529
     959,   19356,   19357,   19370,   19369,   19515,   19516,   19529,   19528
     960,   19355,   19356,   19369,   19368,   19514,   19515,   19528,   19527
     961,   19355,   19368,   19367,   19366,   19514,   19527,   19526,   19525
     962,   19354,   19355,   19366,   19365,   19513,   19514,   19525,   19524
     963,   19339,   19354,   19365,   19364,   19498,   19513,   19524,   19523
     964,   19338,   19339,   19364,   19363,   19497,   19498,   19523,   19522
     965,   19337,   19338,   19363,   19362,   19496,   19497,   19522,   19521
     966,   19336,   19337,   19362,   19361,   19495,   19496,   19521,   19520
     967,   19335,   19336,   19361,   19360,   19494,   19495,   19520,   19519
     968,   19334,   19335,   19360,   19359,   19493,   19494,   19519,   19518
     969,   19333,   19334,   19359,   19353,   19492,   19493,   19518,   19512
     970,   18503,   18505,   19307,   19358,   18502,   18504,   19466,   19517
     971,   18501,   18503,   19358,   19357,   18500,   18502,   19517,   19516
     972,   18499,   18501,   19357,   19356,   18498,   18500,   19516,   19515
     973,   18499,   19356,   19355,   19354,   18498,   19515,   19514,   19513
     974,   18497,   18499,   19354,   19339,   18496,   18498,   19513,   19498
     975,   19291,   19289,   19333,   19353,   19292,   19290,   19492,   19512
     976,   19293,   19291,   19353,   19352,   19294,   19292,   19512,   19511
     977,   19295,   19293,   19352,   19351,   19296,   19294,   19511,   19510
     978,   19297,   19295,   19351,   19350,   19298,   19296,   19510,   19509
     979,   19299,   19297,   19350,   19349,   19300,   19298,   19509,   19508
     980,   19301,   19299,   19349,   19348,   19302,   19300,   19508,   19507
     981,   19303,   19301,   19348,   19347,   19304,   19302,   19507,   19506
     982,   19305,   19303,   19347,   19332,   19306,   19304,   19506,   19491
     983,   19217,   19219,   19314,   19346,   19216,   19218,   19473,   19505
     984,   19215,   19217,   19346,   19345,   19214,   19216,   19505,   19504
     985,   19213,   19215,   19345,   19344,   19212,   19214,   19504,   19503
     986,   19211,   19213,   19344,   19343,   19210,   19212,   19503,   19502
     987,   19209,   19211,   19343,   19342,   19208,   19210,   19502,   19501
     988,   19207,   19209,   19342,   19341,   19206,   19208,   19501,   19500
     989,   19205,   19207,   19341,   19340,   19204,   19206,   19500,   19499
     990,   19203,   19205,   19340,   19313,   19202,   19204,   19499,   19472
     991,   19182,   18480,   18497,   19339,   19189,   18481,   18496,   19498
     992,   19181,   19182,   19339,   19338,   19188,   19189,   19498,   19497
     993,   19180,   19181,   19338,   19337,   19187,   19188,   19497,   19496
     994,   19179,   19180,   19337,   19336,   19186,   19187,   19496,   19495
     995,   19178,   19179,   19336,   19335,   19185,   19186,   19495,   19494
     996,   19177,   19178,   19335,   19334,   19184,   19185,   19494,   19493
     997,   19176,   19177,   19334,   19333,   19183,   19184,   19493,   19492
     998,   19175,   19176,   19333,   19289,   19174,   19183,   19492,   19290
     999,   19260,   19221,   19305,   19332,   19279,   19222,   19306,   19491
    1000,   19259,   19260,   19332,   19331,   19278,   19279,   19491,   19490
    1001,   19258,   19259,   19331,   19330,   19277,   19278,   19490,   19489
    1002,   19257,   19258,   19330,   19329,   19276,   19277,   19489,   19488
    1003,   19256,   19257,   19329,   19328,   19275,   19276,   19488,   19487
    1004,   19255,   19256,   19328,   19327,   19274,   19275,   19487,   19486
    1005,   19254,   19255,   19327,   19326,   19273,   19274,   19486,   19485
    1006,   19253,   19254,   19326,   19325,   19272,   19273,   19485,   19484
    1007,   19252,   19253,   19325,   19324,   19271,   19272,   19484,   19483
    1008,   19251,   19252,   19324,   19323,   19270,   19271,   19483,   19482
    1009,   19250,   19251,   19323,   19322,   19269,   19270,   19482,   19481
    1010,   19249,   19250,   19322,   19321,   19268,   19269,   19481,   19480
    1011,   19248,   19249,   19321,   19320,   19267,   19268,   19480,   19479
    1012,   19247,   19248,   19320,   19319,   19266,   19267,   19479,   19478
    1013,   19246,   19247,   19319,   19318,   19265,   19266,   19478,   19477
    1014,   19245,   19246,   19318,   19317,   19264,   19265,   19477,   19476
    1015,   19244,   19245,   19317,   19316,   19263,   19264,   19476,   19475
    1016,   19243,   19244,   19316,   19315,   19262,   19263,   19475,   19474
    1017,   19242,   19243,   19315,   19314,   19261,   19262,   19474,   19473
    1018,   19192,   19242,   19314,   19219,   19191,   19261,   19473,   19218
    1019,   19158,   19143,   19203,   19313,   19165,   19144,   19202,   19472
    1020,   19157,   19158,   19313,   19312,   19164,   19165,   19472,   19471
    1021,   19156,   19157,   19312,   19311,   19163,   19164,   19471,   19470
    1022,   19155,   19156,   19311,   19310,   19162,   19163,   19470,   19469
    1023,   19154,   19155,   19310,   19309,   19161,   19162,   19469,   19468
    1024,   19153,   19154,   19309,   19308,   19160,   19161,   19468,   19467
    1025,   19152,   19153,   19308,   19307,   19159,   19160,   19467,   19466
    1026,   18490,   19152,   19307,   18505,   18489,   19159,   19466,   18504
    1027,   19624,   19603,   19604,   19623,   19783,   19762,   19763,   19782
    1028,   19623,   19619,   19620,   19624,   19782,   19778,   19779,   19783
    1029,   19616,   19602,   19603,   19624,   19775,   19761,   19762,   19783
    1030,   19615,   19616,   19624,   19620,   19774,   19775,   19783,   19779
    1031,   19600,   19601,   19619,   19623,   19759,   19760,   19778,   19782
    1032,   19599,   19600,   19623,   19604,   19758,   19759,   19782,   19763
    1033,   19598,   19599,   19604,   19605,   19757,   19758,   19763,   19764
    1034,   19597,   19598,   19605,   19606,   19756,   19757,   19764,   19765
    1035,   19596,   19597,   19606,   19607,   19755,   19756,   19765,   19766
    1036,   19595,   19596,   19607,   19608,   19754,   19755,   19766,   19767
    1037,   19594,   19595,   19608,   19609,   19753,   19754,   19767,   19768
    1038,   19612,   19613,   19622,   19621,   19771,   19772,   19781,   19780
    1039,   19618,   19621,   19622,   19617,   19777,   19780,   19781,   19776
    1040,   19614,   19617,   19622,   19613,   19773,   19776,   19781,   19772
    1041,   19593,   19594,   19609,   19610,   19752,   19753,   19768,   19769
    1042,   19592,   19593,   19610,   19611,   19751,   19752,   19769,   19770
    1043,   19591,   19592,   19611,   19612,   19750,   19751,   19770,   19771
    1044,   19590,   19591,   19612,   19621,   19749,   19750,   19771,   19780
    1045,   19589,   19590,   19621,   19618,   19748,   19749,   19780,   19777
    1046,   19583,   19584,   19615,   19620,   19742,   19743,   19774,   19779
    1047,   19582,   19583,   19620,   19619,   19741,   19742,   19779,   19778
    1048,   19581,   19582,   19619,   19601,   19740,   19741,   19778,   19760
    1049,   19587,   19588,   19589,   19618,   19746,   19747,   19748,   19777
    1050,   19586,   19587,   19618,   19617,   19745,   19746,   19777,   19776
    1051,   19585,   19586,   19617,   19614,   19744,   19745,   19776,   19773
    1052,   19566,   19567,   19602,   19616,   19725,   19726,   19761,   19775
    1053,   19565,   19566,   19616,   19615,   19724,   19725,   19775,   19774
    1054,   19564,   19565,   19615,   19584,   19723,   19724,   19774,   19743
    1055,   19579,   19580,   19585,   19614,   19738,   19739,   19744,   19773
    1056,   19578,   19579,   19614,   19613,   19737,   19738,   19773,   19772
    1057,   19577,   19578,   19613,   19612,   19736,   19737,   19772,   19771
    1058,   19576,   19577,   19612,   19611,   19735,   19736,   19771,   19770
    1059,   19575,   19576,   19611,   19610,   19734,   19735,   19770,   19769
    1060,   19574,   19575,   19610,   19609,   19733,   19734,   19769,   19768
    1061,   19573,   19574,   19609,   19608,   19732,   19733,   19768,   19767
    1062,   19572,   19573,   19608,   19607,   19731,   19732,   19767,   19766
    1063,   19571,   19572,   19607,   19606,   19730,   19731,   19766,   19765
    1064,   19570,   19571,   19606,   19605,   19729,   19730,   19765,   19764
    1065,   19570,   19605,   19604,   19603,   19729,   19764,   19763,   19762
    1066,   19569,   19570,   19603,   19602,   19728,   19729,   19762,   19761
    1067,   19568,   19569,   19602,   19567,   19727,   19728,   19761,   19726
    1068,   19562,   19563,   19581,   19601,   19721,   19722,   19740,   19760
    1069,   19561,   19562,   19601,   19600,   19720,   19721,   19760,   19759
    1070,   19560,   19561,   19600,   19599,   19719,   19720,   19759,   19758
    1071,   19559,   19560,   19599,   19598,   19718,   19719,   19758,   19757
    1072,   19558,   19559,   19598,   19597,   19717,   19718,   19757,   19756
    1073,   19557,   19558,   19597,   19596,   19716,   19717,   19756,   19755
    1074,   19556,   19557,   19596,   19595,   19715,   19716,   19755,   19754
    1075,   19555,   19556,   19595,   19594,   19714,   19715,   19754,   19753
    1076,   19554,   19555,   19594,   19593,   19713,   19714,   19753,   19752
    1077,   19553,   19554,   19593,   19592,   19712,   19713,   19752,   19751
    1078,   19552,   19553,   19592,   19591,   19711,   19712,   19751,   19750
    1079,   19551,   19552,   19591,   19590,   19710,   19711,   19750,   19749
    1080,   19550,   19551,   19590,   19589,   19709,   19710,   19749,   19748
    1081,   19549,   19550,   19589,   19588,   19708,   19709,   19748,   19747
    1082,   19547,   19548,   19549,   19588,   19706,   19707,   19708,   19747
    1083,   19546,   19547,   19588,   19587,   19705,   19706,   19747,   19746
    1084,   19545,   19546,   19587,   19586,   19704,   19705,   19746,   19745
    1085,   19544,   19545,   19586,   19585,   19703,   19704,   19745,   19744
    1086,   19543,   19544,   19585,   19580,   19702,   19703,   19744,   19739
    1087,   19541,   19542,   19564,   19584,   19700,   19701,   19723,   19743
    1088,   19540,   19541,   19584,   19583,   19699,   19700,   19743,   19742
    1089,   19539,   19540,   19583,   19582,   19698,   19699,   19742,   19741
    1090,   19538,   19539,   19582,   19581,   19697,   19698,   19741,   19740
    1091,   19537,   19538,   19581,   19563,   19696,   19697,   19740,   19722
    1092,   19535,   19536,   19543,   19580,   19694,   19695,   19702,   19739
    1093,   19534,   19535,   19580,   19579,   19693,   19694,   19739,   19738
    1094,   19533,   19534,   19579,   19578,   19692,   19693,   19738,   19737
    1095,   19532,   19533,   19578,   19577,   19691,   19692,   19737,   19736
    1096,   19531,   19532,   19577,   19576,   19690,   19691,   19736,   19735
    1097,   19530,   19531,   19576,   19575,   19689,   19690,   19735,   19734
    1098,   19529,   19530,   19575,   19574,   19688,   19689,   19734,   19733
    1099,   19528,   19529,   19574,   19573,   19687,   19688,   19733,   19732
    1100,   19527,   19528,   19573,   19572,   19686,   19687,   19732,   19731
    1101,   19526,   19527,   19572,   19571,   19685,   19686,   19731,   19730
    1102,   19526,   19571,   19570,   19569,   19685,   19730,   19729,   19728
    1103,   19525,   19526,   19569,   19568,   19684,   19685,   19728,   19727
    1104,   19523,   19524,   19525,   19568,   19682,   19683,   19684,   19727
    1105,   19522,   19523,   19568,   19567,   19681,   19682,   19727,   19726
    1106,   19521,   19522,   19567,   19566,   19680,   19681,   19726,   19725
    1107,   19520,   19521,   19566,   19565,   19679,   19680,   19725,   19724
    1108,   19519,   19520,   19565,   19564,   19678,   19679,   19724,   19723
    1109,   19518,   19519,   19564,   19542,   19677,   19678,   19723,   19701
    1110,   19489,   19490,   19537,   19563,   19648,   19649,   19696,   19722
    1111,   19488,   19489,   19563,   19562,   19647,   19648,   19722,   19721
    1112,   19487,   19488,   19562,   19561,   19646,   19647,   19721,   19720
    1113,   19486,   19487,   19561,   19560,   19645,   19646,   19720,   19719
    1114,   19485,   19486,   19560,   19559,   19644,   19645,   19719,   19718
    1115,   19484,   19485,   19559,   19558,   19643,   19644,   19718,   19717
    1116,   19483,   19484,   19558,   19557,   19642,   19643,   19717,   19716
    1117,   19482,   19483,   19557,   19556,   19641,   19642,   19716,   19715
    1118,   19481,   19482,   19556,   19555,   19640,   19641,   19715,   19714
    1119,   19480,   19481,   19555,   19554,   19639,   19640,   19714,   19713
    1120,   19479,   19480,   19554,   19553,   19638,   19639,   19713,   19712
    1121,   19478,   19479,   19553,   19552,   19637,   19638,   19712,   19711
    1122,   19477,   19478,   19552,   19551,   19636,   19637,   19711,   19710
    1123,   19476,   19477,   19551,   19550,   19635,   19636,   19710,   19709
    1124,   19475,   19476,   19550,   19549,   19634,   19635,   19709,   19708
    1125,   19474,   19475,   19549,   19548,   19633,   19634,   19708,   19707
    1126,   19505,   19473,   19474,   19548,   19664,   19632,   19633,   19707
    1127,   19504,   19505,   19548,   19547,   19663,   19664,   19707,   19706
    1128,   19503,   19504,   19547,   19546,   19662,   19663,   19706,   19705
    1129,   19502,   19503,   19546,   19545,   19661,   19662,   19705,   19704
    1130,   19501,   19502,   19545,   19544,   19660,   19661,   19704,   19703
    1131,   19500,   19501,   19544,   19543,   19659,   19660,   19703,   19702
    1132,   19499,   19500,   19543,   19536,   19658,   19659,   19702,   19695
    1133,   19511,   19512,   19518,   19542,   19670,   19671,   19677,   19701
    1134,   19510,   19511,   19542,   19541,   19669,   19670,   19701,   19700
    1135,   19509,   19510,   19541,   19540,   19668,   19669,   19700,   19699
    1136,   19508,   19509,   19540,   19539,   19667,   19668,   19699,   19698
    1137,   19507,   19508,   19539,   19538,   19666,   19667,   19698,   19697
    1138,   19506,   19507,   19538,   19537,   19665,   19666,   19697,   19696
    1139,   19491,   19506,   19537,   19490,   19650,   19665,   19696,   19649
    1140,   19471,   19472,   19499,   19536,   19630,   19631,   19658,   19695
    1141,   19470,   19471,   19536,   19535,   19629,   19630,   19695,   19694
    1142,   19469,   19470,   19535,   19534,   19628,   19629,   19694,   19693
    1143,   19468,   19469,   19534,   19533,   19627,   19628,   19693,   19692
    1144,   19467,   19468,   19533,   19532,   19626,   19627,   19692,   19691
    1145,   19466,   19467,   19532,   19531,   19625,   19626,   19691,   19690
    1146,   19517,   19466,   19531,   19530,   19676,   19625,   19690,   19689
    1147,   19516,   19517,   19530,   19529,   19675,   19676,   19689,   19688
    1148,   19515,   19516,   19529,   19528,   19674,   19675,   19688,   19687
    1149,   19514,   19515,   19528,   19527,   19673,   19674,   19687,   19686
    1150,   19514,   19527,   19526,   19525,   19673,   19686,   19685,   19684
    1151,   19513,   19514,   19525,   19524,   19672,   19673,   19684,   19683
    1152,   19498,   19513,   19524,   19523,   19657,   19672,   19683,   19682
    1153,   19497,   19498,   19523,   19522,   19656,   19657,   19682,   19681
    1154,   19496,   19497,   19522,   19521,   19655,   19656,   19681,   19680
    1155,   19495,   19496,   19521,   19520,   19654,   19655,   19680,   19679
    1156,   19494,   19495,   19520,   19519,   19653,   19654,   19679,   19678
    1157,   19493,   19494,   19519,   19518,   19652,   19653,   19678,   19677
    1158,   19492,   19493,   19518,   19512,   19651,   19652,   19677,   19671
    1159,   18502,   18504,   19466,   19517,   18492,   18491,   19625,   19676
    1160,   18500,   18502,   19517,   19516,   18493,   18492,   19676,   19675
    1161,   18498,   18500,   19516,   19515,   18494,   18493,   19675,   19674
    1162,   18498,   19515,   19514,   19513,   18494,   19674,   19673,   19672
    1163,   18496,   18498,   19513,   19498,   18495,   18494,   19672,   19657
    1164,   19292,   19290,   19492,   19512,   19281,   19280,   19651,   19671
    1165,   19294,   19292,   19512,   19511,   19282,   19281,   19671,   19670
    1166,   19296,   19294,   19511,   19510,   19283,   19282,   19670,   19669
    1167,   19298,   19296,   19510,   19509,   19284,   19283,   19669,   19668
    1168,   19300,   19298,   19509,   19508,   19285,   19284,   19668,   19667
    1169,   19302,   19300,   19508,   19507,   19286,   19285,   19667,   19666
    1170,   19304,   19302,   19507,   19506,   19287,   19286,   19666,   19665
    1171,   19306,   19304,   19506,   19491,   19288,   19287,   19665,   19650
    1172,   19216,   19218,   19473,   19505,   19200,   19201,   19632,   19664
    1173,   19214,   19216,   19505,   19504,   19199,   19200,   19664,   19663
    1174,   19212,   19214,   19504,   19503,   19198,   19199,   19663,   19662
    1175,   19210,   19212,   19503,   19502,   19197,   19198,   19662,   19661
    1176,   19208,   19210,   19502,   19501,   19196,   19197,   19661,   19660
    1177,   19206,   19208,   19501,   19500,   19195,   19196,   19660,   19659
    1178,   19204,   19206,   19500,   19499,   19194,   19195,   19659,   19658
    1179,   19202,   19204,   19499,   19472,   19193,   19194,   19658,   19631
    1180,   19189,   18481,   18496,   19498,   19167,   18479,   18495,   19657
    1181,   19188,   19189,   19498,   19497,   19168,   19167,   19657,   19656
    1182,   19187,   19188,   19497,   19496,   19169,   19168,   19656,   19655
    1183,   19186,   19187,   19496,   19495,   19170,   19169,   19655,   19654
    1184,   19185,   19186,   19495,   19494,   19171,   19170,   19654,   19653
    1185,   19184,   19185,   19494,   19493,   19172,   19171,   19653,   19652
    1186,   19183,   19184,   19493,   19492,   19173,   19172,   19652,   19651
    1187,   19174,   19183,   19492,   19290,   19166,   19173,   19651,   19280
    1188,   19279,   19222,   19306,   19491,   19223,   19220,   19288,   19650
    1189,   19278,   19279,   19491,   19490,   19224,   19223,   19650,   19649
    1190,   19277,   19278,   19490,   19489,   19225,   19224,   19649,   19648
    1191,   19276,   19277,   19489,   19488,   19226,   19225,   19648,   19647
    1192,   19275,   19276,   19488,   19487,   19227,   19226,   19647,   19646
    1193,   19274,   19275,   19487,   19486,   19228,   19227,   19646,   19645
    1194,   19273,   19274,   19486,   19485,   19229,   19228,   19645,   19644
    1195,   19272,   19273,   19485,   19484,   19230,   19229,   19644,   19643
    1196,   19271,   19272,   19484,   19483,   19231,   19230,   19643,   19642
    1197,   19270,   19271,   19483,   19482,   19232,   19231,   19642,   19641
    1198,   19269,   19270,   19482,   19481,   19233,   19232,   19641,   19640
    1199,   19268,   19269,   19481,   19480,   19234,   19233,   19640,   19639
    1200,   19267,   19268,   19480,   19479,   19235,   19234,   19639,   19638
    1201,   19266,   19267,   19479,   19478,   19236,   19235,   19638,   19637
    1202,   19265,   19266,   19478,   19477,   19237,   19236,   19637,   19636
    1203,   19264,   19265,   19477,   19476,   19238,   19237,   19636,   19635
    1204,   19263,   19264,   19476,   19475,   19239,   19238,   19635,   19634
    1205,   19262,   19263,   19475,   19474,   19240,   19239,   19634,   19633
    1206,   19261,   19262,   19474,   19473,   19241,   19240,   19633,   19632
    1207,   19191,   19261,   19473,   19218,   19190,   19241,   19632,   19201
    1208,   19165,   19144,   19202,   19472,   19145,   19142,   19193,   19631
    1209,   19164,   19165,   19472,   19471,   19146,   19145,   19631,   19630
    1210,   19163,   19164,   19471,   19470,   19147,   19146,   19630,   19629
    1211,   19162,   19163,   19470,   19469,   19148,   19147,   19629,   19628
    1212,   19161,   19162,   19469,   19468,   19149,   19148,   19628,   19627
    1213,   19160,   19161,   19468,   19467,   19150,   19149,   19627,   19626
    1214,   19159,   19160,   19467,   19466,   19151,   19150,   19626,   19625
    1215,   18489,   19159,   19466,   18504,   18488,   19151,   19625,   18491
*ELEMENT, TYPE=COH3D8, ELSET=mortar
    1216,   26401,   26484,   26789,   26425,   26374,   26483,   26616,   26376
    1217,   26484,   26485,   26765,   26789,   26483,   26482,   26592,   26616
    1218,   26485,   26486,   26741,   26765,   26482,   26481,   26568,   26592
    1219,   26486,   26487,   26717,   26741,   26481,   26480,   26544,   26568
    1220,   26487,   26488,   26693,   26717,   26480,   26479,   26520,   26544
    1221,   26488,   26489,   26669,   26693,   26479,   26478,   26496,   26520
    1222,   26489,   26452,   26454,   26669,   26478,   26427,   26451,   26496
    1223,   26425,   26789,   26788,   26424,   26376,   26616,   26617,   26377
    1224,   26789,   26765,   26764,   26788,   26616,   26592,   26593,   26617
    1225,   26765,   26741,   26740,   26764,   26592,   26568,   26569,   26593
    1226,   26741,   26717,   26716,   26740,   26568,   26544,   26545,   26569
    1227,   26717,   26693,   26692,   26716,   26544,   26520,   26521,   26545
    1228,   26693,   26669,   26668,   26692,   26520,   26496,   26497,   26521
    1229,   26669,   26454,   26455,   26668,   26496,   26451,   26450,   26497
    1230,   26424,   26788,   26787,   26423,   26377,   26617,   26618,   26378
    1231,   26788,   26764,   26763,   26787,   26617,   26593,   26594,   26618
    1232,   26764,   26740,   26739,   26763,   26593,   26569,   26570,   26594
    1233,   26740,   26716,   26715,   26739,   26569,   26545,   26546,   26570
    1234,   26716,   26692,   26691,   26715,   26545,   26521,   26522,   26546
    1235,   26692,   26668,   26667,   26691,   26521,   26497,   26498,   26522
    1236,   26668,   26455,   26456,   26667,   26497,   26450,   26449,   26498
    1237,   26423,   26787,   26786,   26422,   26378,   26618,   26619,   26379
    1238,   26787,   26763,   26762,   26786,   26618,   26594,   26595,   26619
    1239,   26763,   26739,   26738,   26762,   26594,   26570,   26571,   26595
    1240,   26739,   26715,   26714,   26738,   26570,   26546,   26547,   26571
    1241,   26715,   26691,   26690,   26714,   26546,   26522,   26523,   26547
    1242,   26691,   26667,   26666,   26690,   26522,   26498,   26499,   26523
    1243,   26667,   26456,   26457,   26666,   26498,   26449,   26448,   26499
    1244,   26422,   26786,   26785,   26421,   26379,   26619,   26620,   26380
    1245,   26786,   26762,   26761,   26785,   26619,   26595,   26596,   26620
    1246,   26762,   26738,   26737,   26761,   26595,   26571,   26572,   26596
    1247,   26738,   26714,   26713,   26737,   26571,   26547,   26548,   26572
    1248,   26714,   26690,   26689,   26713,   26547,   26523,   26524,   26548
    1249,   26690,   26666,   26665,   26689,   26523,   26499,   26500,   26524
    1250,   26666,   26457,   26458,   26665,   26499,   26448,   26447,   26500
    1251,   26421,   26785,   26784,   26420,   26380,   26620,   26621,   26381
    1252,   26785,   26761,   26760,   26784,   26620,   26596,   26597,   26621
    1253,   26761,   26737,   26736,   26760,   26596,   26572,   26573,   26597
    1254,   26737,   26713,   26712,   26736,   26572,   26548,   26549,   26573
    1255,   26713,   26689,   26688,   26712,   26548,   26524,   26525,   26549
    1256,   26689,   26665,   26664,   26688,   26524,   26500,   26501,   26525
    1257,   26665,   26458,   26459,   26664,   26500,   26447,   26446,   26501
    1258,   26420,   26784,   26783,   26419,   26381,   26621,   26622,   26382
    1259,   26784,   26760,   26759,   26783,   26621,   26597,   26598,   26622
    1260,   26760,   26736,   26735,   26759,   26597,   26573,   26574,   26598
    1261,   26736,   26712,   26711,   26735,   26573,   26549,   26550,   26574
    1262,   26712,   26688,   26687,   26711,   26549,   26525,   26526,   26550
    1263,   26688,   26664,   26663,   26687,   26525,   26501,   26502,   26526
    1264,   26664,   26459,   26460,   26663,   26501,   26446,   26445,   26502
    1265,   26419,   26783,   26782,   26418,   26382,   26622,   26623,   26383
    1266,   26783,   26759,   26758,   26782,   26622,   26598,   26599,   26623
    1267,   26759,   26735,   26734,   26758,   26598,   26574,   26575,   26599
    1268,   26735,   26711,   26710,   26734,   26574,   26550,   26551,   26575
    1269,   26711,   26687,   26686,   26710,   26550,   26526,   26527,   26551
    1270,   26687,   26663,   26662,   26686,   26526,   26502,   26503,   26527
    1271,   26663,   26460,   26461,   26662,   26502,   26445,   26444,   26503
    1272,   26418,   26782,   26781,   26417,   26383,   26623,   26624,   26384
    1273,   26782,   26758,   26757,   26781,   26623,   26599,   26600,   26624
    1274,   26758,   26734,   26733,   26757,   26599,   26575,   26576,   26600
    1275,   26734,   26710,   26709,   26733,   26575,   26551,   26552,   26576
    1276,   26710,   26686,   26685,   26709,   26551,   26527,   26528,   26552
    1277,   26686,   26662,   26661,   26685,   26527,   26503,   26504,   26528
    1278,   26662,   26461,   26462,   26661,   26503,   26444,   26443,   26504
    1279,   26417,   26781,   26780,   26416,   26384,   26624,   26625,   26385
    1280,   26781,   26757,   26756,   26780,   26624,   26600,   26601,   26625
    1281,   26757,   26733,   26732,   26756,   26600,   26576,   26577,   26601
    1282,   26733,   26709,   26708,   26732,   26576,   26552,   26553,   26577
    1283,   26709,   26685,   26684,   26708,   26552,   26528,   26529,   26553
    1284,   26685,   26661,   26660,   26684,   26528,   26504,   26505,   26529
    1285,   26661,   26462,   26463,   26660,   26504,   26443,   26442,   26505
    1286,   26416,   26780,   26779,   26415,   26385,   26625,   26626,   26386
    1287,   26780,   26756,   26755,   26779,   26625,   26601,   26602,   26626
    1288,   26756,   26732,   26731,   26755,   26601,   26577,   26578,   26602
    1289,   26732,   26708,   26707,   26731,   26577,   26553,   26554,   26578
    1290,   26708,   26684,   26683,   26707,   26553,   26529,   26530,   26554
    1291,   26684,   26660,   26659,   26683,   26529,   26505,   26506,   26530
    1292,   26660,   26463,   26464,   26659,   26505,   26442,   26441,   26506
    1293,   26415,   26779,   26778,   26414,   26386,   26626,   26627,   26387
    1294,   26779,   26755,   26754,   26778,   26626,   26602,   26603,   26627
    1295,   26755,   26731,   26730,   26754,   26602,   26578,   26579,   26603
    1296,   26731,   26707,   26706,   26730,   26578,   26554,   26555,   26579
    1297,   26707,   26683,   26682,   26706,   26554,   26530,   26531,   26555
    1298,   26683,   26659,   26658,   26682,   26530,   26506,   26507,   26531
    1299,   26659,   26464,   26465,   26658,   26506,   26441,   26440,   26507
    1300,   26414,   26778,   26777,   26413,   26387,   26627,   26628,   26388
    1301,   26778,   26754,   26753,   26777,   26627,   26603,   26604,   26628
    1302,   26754,   26730,   26729,   26753,   26603,   26579,   26580,   26604
    1303,   26730,   26706,   26705,   26729,   26579,   26555,   26556,   26580
    1304,   26706,   26682,   26681,   26705,   26555,   26531,   26532,   26556
    1305,   26682,   26658,   26657,   26681,   26531,   26507,   26508,   26532
    1306,   26658,   26465,   26466,   26657,   26507,   26440,   26439,   26508
    1307,   26413,   26777,   26776,   26412,   26388,   26628,   26629,   26389
    1308,   26777,   26753,   26752,   26776,   26628,   26604,   26605,   26629
    1309,   26753,   26729,   26728,   26752,   26604,   26580,   26581,   26605
    1310,   26729,   26705,   26704,   26728,   26580,   26556,   26557,   26581
    1311,   26705,   26681,   26680,   26704,   26556,   26532,   26533,   26557
    1312,   26681,   26657,   26656,   26680,   26532,   26508,   26509,   26533
    1313,   26657,   26466,   26467,   26656,   26508,   26439,   26438,   26509
    1314,   26412,   26776,   26775,   26411,   26389,   26629,   26630,   26390
    1315,   26776,   26752,   26751,   26775,   26629,   26605,   26606,   26630
    1316,   26752,   26728,   26727,   26751,   26605,   26581,   26582,   26606
    1317,   26728,   26704,   26703,   26727,   26581,   26557,   26558,   26582
    1318,   26704,   26680,   26679,   26703,   26557,   26533,   26534,   26558
    1319,   26680,   26656,   26655,   26679,   26533,   26509,   26510,   26534
    1320,   26656,   26467,   26468,   26655,   26509,   26438,   26437,   26510
    1321,   26411,   26775,   26774,   26410,   26390,   26630,   26631,   26391
    1322,   26775,   26751,   26750,   26774,   26630,   26606,   26607,   26631
    1323,   26751,   26727,   26726,   26750,   26606,   26582,   26583,   26607
    1324,   26727,   26703,   26702,   26726,   26582,   26558,   26559,   26583
    1325,   26703,   26679,   26678,   26702,   26558,   26534,   26535,   26559
    1326,   26679,   26655,   26654,   26678,   26534,   26510,   26511,   26535
    1327,   26655,   26468,   26469,   26654,   26510,   26437,   26436,   26511
    1328,   26410,   26774,   26773,   26409,   26391,   26631,   26632,   26392
    1329,   26774,   26750,   26749,   26773,   26631,   26607,   26608,   26632
    1330,   26750,   26726,   26725,   26749,   26607,   26583,   26584,   26608
    1331,   26726,   26702,   26701,   26725,   26583,   26559,   26560,   26584
    1332,   26702,   26678,   26677,   26701,   26559,   26535,   26536,   26560
    1333,   26678,   26654,   26653,   26677,   26535,   26511,   26512,   26536
    1334,   26654,   26469,   26470,   26653,   26511,   26436,   26435,   26512
    1335,   26409,   26773,   26772,   26408,   26392,   26632,   26633,   26393
    1336,   26773,   26749,   26748,   26772,   26632,   26608,   26609,   26633
    1337,   26749,   26725,   26724,   26748,   26608,   26584,   26585,   26609
    1338,   26725,   26701,   26700,   26724,   26584,   26560,   26561,   26585
    1339,   26701,   26677,   26676,   26700,   26560,   26536,   26537,   26561
    1340,   26677,   26653,   26652,   26676,   26536,   26512,   26513,   26537
    1341,   26653,   26470,   26471,   26652,   26512,   26435,   26434,   26513
    1342,   26408,   26772,   26771,   26407,   26393,   26633,   26634,   26394
    1343,   26772,   26748,   26747,   26771,   26633,   26609,   26610,   26634
    1344,   26748,   26724,   26723,   26747,   26609,   26585,   26586,   26610
    1345,   26724,   26700,   26699,   26723,   26585,   26561,   26562,   26586
    1346,   26700,   26676,   26675,   26699,   26561,   26537,   26538,   26562
    1347,   26676,   26652,   26651,   26675,   26537,   26513,   26514,   26538
    1348,   26652,   26471,   26472,   26651,   26513,   26434,   26433,   26514
    1349,   26407,   26771,   26770,   26406,   26394,   26634,   26635,   26395
    1350,   26771,   26747,   26746,   26770,   26634,   26610,   26611,   26635
    1351,   26747,   26723,   26722,   26746,   26610,   26586,   26587,   26611
    1352,   26723,   26699,   26698,   26722,   26586,   26562,   26563,   26587
    1353,   26699,   26675,   26674,   26698,   26562,   26538,   26539,   26563
    1354,   26675,   26651,   26650,   26674,   26538,   26514,   26515,   26539
    1355,   26651,   26472,   26473,   26650,   26514,   26433,   26432,   26515
    1356,   26406,   26770,   26769,   26405,   26395,   26635,   26636,   26396
    1357,   26770,   26746,   26745,   26769,   26635,   26611,   26612,   26636
    1358,   26746,   26722,   26721,   26745,   26611,   26587,   26588,   26612
    1359,   26722,   26698,   26697,   26721,   26587,   26563,   26564,   26588
    1360,   26698,   26674,   26673,   26697,   26563,   26539,   26540,   26564
    1361,   26674,   26650,   26649,   26673,   26539,   26515,   26516,   26540
    1362,   26650,   26473,   26474,   26649,   26515,   26432,   26431,   26516
    1363,   26405,   26769,   26768,   26404,   26396,   26636,   26637,   26397
    1364,   26769,   26745,   26744,   26768,   26636,   26612,   26613,   26637
    1365,   26745,   26721,   26720,   26744,   26612,   26588,   26589,   26613
    1366,   26721,   26697,   26696,   26720,   26588,   26564,   26565,   26589
    1367,   26697,   26673,   26672,   26696,   26564,   26540,   26541,   26565
    1368,   26673,   26649,   26648,   26672,   26540,   26516,   26517,   26541
    1369,   26649,   26474,   26475,   26648,   26516,   26431,   26430,   26517
    1370,   26404,   26768,   26767,   26403,   26397,   26637,   26638,   26398
    1371,   26768,   26744,   26743,   26767,   26637,   26613,   26614,   26638
    1372,   26744,   26720,   26719,   26743,   26613,   26589,   26590,   26614
    1373,   26720,   26696,   26695,   26719,   26589,   26565,   26566,   26590
    1374,   26696,   26672,   26671,   26695,   26565,   26541,   26542,   26566
    1375,   26672,   26648,   26647,   26671,   26541,   26517,   26518,   26542
    1376,   26648,   26475,   26476,   26647,   26517,   26430,   26429,   26518
    1377,   26403,   26767,   26766,   26402,   26398,   26638,   26639,   26399
    1378,   26767,   26743,   26742,   26766,   26638,   26614,   26615,   26639
    1379,   26743,   26719,   26718,   26742,   26614,   26590,   26591,   26615
    1380,   26719,   26695,   26694,   26718,   26590,   26566,   26567,   26591
    1381,   26695,   26671,   26670,   26694,   26566,   26542,   26543,   26567
    1382,   26671,   26647,   26646,   26670,   26542,   26518,   26519,   26543
    1383,   26647,   26476,   26477,   26646,   26518,   26429,   26428,   26519
    1384,   26402,   26766,   26645,   26400,   26399,   26639,   26490,   26375
    1385,   26766,   26742,   26644,   26645,   26639,   26615,   26491,   26490
    1386,   26742,   26718,   26643,   26644,   26615,   26591,   26492,   26491
    1387,   26718,   26694,   26642,   26643,   26591,   26567,   26493,   26492
    1388,   26694,   26670,   26641,   26642,   26567,   26543,   26494,   26493
    1389,   26670,   26646,   26640,   26641,   26543,   26519,   26495,   26494
    1390,   26646,   26477,   26453,   26640,   26519,   26428,   26426,   26495
********************************** N O D E S E T S **********************************
*NSET, NSET=shear_loading
   18946,   18966,   18967,   18968,   18969,   18970,
   18971,   18972,   18973,   18974,   18975,   19166,
   19174,   19175,   19220,   19221,   19222,   19280,
   19281,   19282,   19283,   19284,   19285,   19286,
   19287,   19288,   19289,   19290,   19291,   19292,
   19293,   19294,   19295,   19296,   19297,   19298,
   19299,   19300,   19301,   19302,   19303,   19304,
   19305,   19306,   19784,   19785,   19816,   19817,
   19818,   19819,   19820,   19821,   19822,   19823,
   19824,   19825,   19826,   19827,   19828,   19829,
   19830,   19831,   19832,   19833,   19834,   19835,
*NSET, NSET=z_symm
   18463,   18465,   18466,   18467,   18479,   18482,
   18508,   18529,   18558,   18568,   18569,   18570,
   18571,   18572,   18573,   18574,   18575,   18576,
   18577,   18578,   18579,   18580,   18581,   18582,
   18583,   18584,   18585,   18586,   18587,   18588,
   18589,   18590,   18591,   18592,   18593,   18594,
   18595,   18596,   18597,   18598,   18599,   18600,
   18601,   18602,   18603,   18604,   18605,   18606,
   18607,   18608,   18609,   18610,   18611,   18612,
   18613,   18614,   18615,   18616,   18617,   18618,
   18619,   18620,   18621,   18622,   18623,   18624,
   18625,   18626,   18627,   18628,   18629,   18630,
   18631,   18632,   18633,   18634,   18635,   18636,
   18637,   18638,   18639,   18640,   18641,   18642,
   18643,   18644,   18645,   18646,   18647,   18648,
   18649,   18650,   18651,   18652,   18653,   18654,
   18655,   18656,   18657,   18928,   18929,   18930,
   18931,   18932,   18933,   18934,   18935,   18966,
   18976,   18977,   18978,   18979,   18980,   18981,
   18982,   19142,   19143,   19144,   19145,   19146,
   19147,   19148,   19149,   19150,   19151,   19152,
   19153,   19154,   19155,   19156,   19157,   19158,
   19159,   19160,   19161,   19162,   19163,   19164,
   19165,   19166,   19167,   19168,   19169,   19170,
   19171,   19172,   19173,   19174,   19175,   19176,
   19177,   19178,   19179,   19180,   19181,   19182,
   19183,   19184,   19185,   19186,   19187,   19188,
   19189,   19784,   19785,   19786,   19787,   19788,
   19789,   19790,   19791,   19792,   19793,   19794,
   19795,   19796,   19797,   19798,   19799,   19800,
   19801,   19802,   19803,   19804,   19805,   19806,
   19807,   19808,   19809,   19810,   19811,   19812,
   19813,   19814,   19815,   26374,   26375,   26400,
   26401,
********************************** S I D E S E T S **********************************
*ELSET, ELSET=plate_bottom_S1
     460,     461,     462,     463,     464,     465,     466,     467,     468,     469,
     470,     471,     472,     473,     474,     475,     476,     477,     478,     479,
     480,     481,     482,     483,     484,     485,     486,     487,     488,     489,
     490,     491,     492,     493,     494,     495,     496,     497,     498,     499,
     500,     501,     502,     503,     504,     505,     506,     507,     508,     509,
     510,     511,     512,     513,     514,     515,     516,     517,     518,     519,
     520,     521,     522,     523,     524,     525,     526,     527,     528,     529,
     530,     531,     532,     533,     534,     535,     536,     537,     538,     539,
     540,     541,     542,     543,     544,     545,     546,     547,     548,     549,
     550,     551,     552,     553,     554,     555,     556,     557,     558,     559,
     560,     561,     562,     563,     564,     565,     566,     567,     568,     569,
     570,     571,     572,     573,     574,     575,     576,     577,     578,     579,
     580,     581,     582,     583,     584,     585,     586,     587,     588,     589,
     590,     591,     592,     593,     594,     595,     596,     597,     598,     599,
     600,     601,     602,     603,     604,     605,     606,     607,     608,     609,
     610,     611,     612,     613,     614,     615,     616,     617,     618,     619,
     620,     621,     622,     623,     624,     625,     626,     627,     628,     629,
     630,     631,     632,     633,     634,     635,     636,     637,     638,     639,
     640,     641,     642,     643,     644,     645,     646,     647,     648
*SURFACE, NAME=plate_bottom
plate_bottom_S1, S1
*ELSET, ELSET=mortar_to_anchor_S1
    1216,    1217,    1218,    1219,    1220,    1221,    1222,    1223,    1224,    1225,
    1226,    1227,    1228,    1229,    1230,    1231,    1232,    1233,    1234,    1235,
    1236,    1237,    1238,    1239,    1240,    1241,    1242,    1243,    1244,    1245,
    1246,    1247,    1248,    1249,    1250,    1251,    1252,    1253,    1254,    1255,
    1256,    1257,    1258,    1259,    1260,    1261,    1262,    1263,    1264,    1265,
    1266,    1267,    1268,    1269,    1270,    1271,    1272,    1273,    1274,    1275,
    1276,    1277,    1278,    1279,    1280,    1281,    1282,    1283,    1284,    1285,
    1286,    1287,    1288,    1289,    1290,    1291,    1292,    1293,    1294,    1295,
    1296,    1297,    1298,    1299,    1300,    1301,    1302,    1303,    1304,    1305,
    1306,    1307,    1308,    1309,    1310,    1311,    1312,    1313,    1314,    1315,
    1316,    1317,    1318,    1319,    1320,    1321,    1322,    1323,    1324,    1325,
    1326,    1327,    1328,    1329,    1330,    1331,    1332,    1333,    1334,    1335,
    1336,    1337,    1338,    1339,    1340,    1341,    1342,    1343,    1344,    1345,
    1346,    1347,    1348,    1349,    1350,    1351,    1352,    1353,    1354,    1355,
    1356,    1357,    1358,    1359,    1360,    1361,    1362,    1363,    1364,    1365,
    1366,    1367,    1368,    1369,    1370,    1371,    1372,    1373,    1374,    1375,
    1376,    1377,    1378,    1379,    1380,    1381,    1382,    1383,    1384,    1385,
    1386,    1387,    1388,    1389,    1390
*SURFACE, NAME=mortar_to_anchor
mortar_to_anchor_S1, S1
*ELSET, ELSET=anchor_to_mortar_S3
       2,       3,       6,      11,      12,      15,      20,      21,      24,      29,
      30,      33,      38,      39,      42,      47,      48,      51,      56,      57,
      60,      65,      66,      69,      74,      75,      78,      83,      84,      87,
      92,      93,      96,     101,     102,     105,     110,     111,     114,     119,
     120,     123,     128,     129,     132,     137,     138,     141,     146,     147,
     150,     155,     156,     159,     164,     165,     168,     173,     174,     177,
     182,     183,     186,     191,     192,     195,     200,     201,     204,     209,
     210,     213,     218,     219,     222,     403,     404,     405,     407,     592,
     593,     594,     596,     781,     782,     783,     785,     970,     971,     972,
     974,    1159,    1160,    1161,    1163
*ELSET, ELSET=anchor_to_mortar_S4
       7,      16,      25,      34,      43,      52,      61,      70,      79,      88,
      97,     106,     115,     124,     133,     142,     151,     160,     169,     178,
     187,     196,     205,     214,     223,     424,     613,     802,     991,    1180
*ELSET, ELSET=anchor_to_mortar_S6
       4,       5,      13,      14,      22,      23,      31,      32,      40,      41,
      49,      50,      58,      59,      67,      68,      76,      77,      85,      86,
      94,      95,     103,     104,     112,     113,     121,     122,     130,     131,
     139,     140,     148,     149,     157,     158,     166,     167,     175,     176,
     184,     185,     193,     194,     202,     203,     211,     212,     220,     221,
     459,     648,     837,    1026,    1215
*SURFACE, NAME=anchor_to_mortar
anchor_to_mortar_S3, S3
anchor_to_mortar_S4, S4
anchor_to_mortar_S6, S6
*ELSET, ELSET=mortar_to_concrete_S2
    1216,    1217,    1218,    1219,    1220,    1221,    1222,    1223,    1224,    1225,
    1226,    1227,    1228,    1229,    1230,    1231,    1232,    1233,    1234,    1235,
    1236,    1237,    1238,    1239,    1240,    1241,    1242,    1243,    1244,    1245,
    1246,    1247,    1248,    1249,    1250,    1251,    1252,    1253,    1254,    1255,
    1256,    1257,    1258,    1259,    1260,    1261,    1262,    1263,    1264,    1265,
    1266,    1267,    1268,    1269,    1270,    1271,    1272,    1273,    1274,    1275,
    1276,    1277,    1278,    1279,    1280,    1281,    1282,    1283,    1284,    1285,
    1286,    1287,    1288,    1289,    1290,    1291,    1292,    1293,    1294,    1295,
    1296,    1297,    1298,    1299,    1300,    1301,    1302,    1303,    1304,    1305,
    1306,    1307,    1308,    1309,    1310,    1311,    1312,    1313,    1314,    1315,
    1316,    1317,    1318,    1319,    1320,    1321,    1322,    1323,    1324,    1325,
    1326,    1327,    1328,    1329,    1330,    1331,    1332,    1333,    1334,    1335,
    1336,    1337,    1338,    1339,    1340,    1341,    1342,    1343,    1344,    1345,
    1346,    1347,    1348,    1349,    1350,    1351,    1352,    1353,    1354,    1355,
    1356,    1357,    1358,    1359,    1360,    1361,    1362,    1363,    1364,    1365,
    1366,    1367,    1368,    1369,    1370,    1371,    1372,    1373,    1374,    1375,
    1376,    1377,    1378,    1379,    1380,    1381,    1382,    1383,    1384,    1385,
    1386,    1387,    1388,    1389,    1390
*SURFACE, NAME=mortar_to_concrete
mortar_to_concrete_S2, S2
