*Heading
** Job name: headedStud Model name: Model-1
** Generated by: Abaqus/CAE 2019
*Preprint, echo=NO, model=NO, history=NO, contact=NO
**
** UEL
**
*Include, input="./incfiles/ueldef.inc"
**
** PARTS
**
*Part, name=concrete
*Include, input="./mesh/modified/concrete.inp"
*Solid Section, elset=dummy, material=dummy
*End Part
**  
*Part, name=steel
*Include, input="./mesh/modified/steel.inp"
*Solid Section, elset=STEEL, material=STEEL_PLATE
*ORIENTATION, name=MORTAR_CYL, SYSTEM=CYLINDRICAL
0, 0, 0, 0, 1, 0
1
**
** Cohesive Section
*COHESIVE SECTION, elset=MORTAR, material=stick_slip, response=TRACTION SEPARATION, ORIENTATION=MORTAR_CYL, STACK DIRECTION=ORIENTATION
*End Part
** ----------------------------------------------------------------
** DISCRETE RIGID PLATES
** ----------------------------------------------------------------
*Part, name=BOTTOM_PLATE
*Node
** Define a 2000x2000 plate at y = -250
  1, -360.0, -300.00, -350.0
  2, -360.0, -300.00, -300.0
  3,  110.0, -300.00, -300.0
  4,  110.0, -300.00, -350.0
** Reference Point
  999999, 0.0, -300.0, 0.0
*Element, type=R3D4
** Node order 1-2-3-4 yields normal in +Y (Upwards)
  1, 1, 2, 3, 4
*Nset, nset=RP_BOTTOM
  999999,
*Elset, elset=PLATE_ELEM
  1,
*Surface, type=ELEMENT, name=SURF_BOTTOM_PLATE
  PLATE_ELEM, SPOS
*Rigid Body, ref node=RP_BOTTOM, elset=PLATE_ELEM
*End Part
** ----------------------------------------------------------------
** DISCRETE RIGID PLATE (Normal in -X)
** ----------------------------------------------------------------
*Part, name=PLATE_NEG_X
*Node
** Reference Point at Center (150, 0, -475)
  999999, 150.0, 0.0, -475.0
** Corner Nodes (Lying in the Y-Z plane at X = 150)
  1, 100.00, -50.0, -350.0
  2, 100.00,   0.0, -350.0
  3, 100.00,   0.0, -300.0
  4, 100.00, -50.0, -300.0
*Element, type=R3D4
** Node order 1-4-3-2 yields normal in -X
  1, 1, 4, 3, 2
*Nset, nset=RP_NEG_X
  999999,
*Elset, elset=PLATE_ELEM
  1,
*Surface, type=ELEMENT, name=SURF_PLATE_NEG_X
  PLATE_ELEM, SPOS
*Rigid Body, ref node=RP_NEG_X, elset=PLATE_ELEM
*End Part
** ----------------------------------------------------------------
** DISCRETE RIGID PLATE (Normal in -Y)
** ----------------------------------------------------------------
*Part, name=PLATE_NEG_Y
*Node
** Reference Point at Center (125, 0, -475)
  999999, 125.0, 0.0, -475.0
** Corner Nodes (Lying in the X-Z plane at Y = 0)
  1, 50.0, 0.00, -350.0
  2, 100.0, 0.00, -350.0
  3, 100.0, 0.00, -300.0
  4, 50.0, 0.00, -300.0
*Element, type=R3D4
** Node order 1-2-3-4 yields normal in -Y
  1, 1, 2, 3, 4
*Nset, nset=RP_NEG_Y
  999999,
*Elset, elset=PLATE_ELEM
  1,
*Surface, type=ELEMENT, name=SURF_PLATE_NEG_Y
  PLATE_ELEM, SPOS
*Rigid Body, ref node=RP_NEG_Y, elset=PLATE_ELEM
*End Part
** ----------------------------------------------------------------
**
** UEL Props
**
*Include, input="./incfiles/uelprops_GCDP_RWW_batch_E1_l4_As1.inc"
**
** ASSEMBLY
**
*Assembly, name=Assembly
**  
*Instance, name=concrete-1, part=concrete
*End Instance
**  
*Instance, name=steel-1, part=steel
,0.1
*End Instance
**  
** *Instance, name=TOP_PLATE-1, part=TOP_PLATE
** *End Instance
**
*Instance, name=BOTTOM_PLATE-1, part=BOTTOM_PLATE
*End Instance
*Instance, name=PLATE_NEG_X-1, part=PLATE_NEG_X
*End Instance
*Instance, name=PLATE_NEG_Y-1, part=PLATE_NEG_Y
*End Instance
*TIE, NAME=ANCHOR_TO_MORTAR,TYPE=SURFACE TO SURFACE, ADJUST=YES
steel-1.mortar_to_anchor, steel-1.anchor_to_mortar
*TIE, NAME=MORTAR_TO_CONCRETE,TYPE=SURFACE TO SURFACE, ADJUST=YES
concrete-1.concrete_to_mortar, steel-1.mortar_to_concrete
*End Assembly
*Material, name=STEEL_ANCHOR
*Elastic
200000., 0.3
*DENSITY
7.85e-8
*Material, name=STEEL_PLATE
*Elastic
200000., 0.3
*DENSITY
7.85e-8
*Material, name=dummy
*Elastic
1e-6, 0.3
*DENSITY
2.4e-8
**
*Material, name=stick_slip
*Elastic, type=TRACTION
5400, 2700, 2700
*DENSITY
2e-8
** INTERACTION PROPERTIES
*Surface Interaction, name="steel concrete"
*Surface Behavior, pressure-overclosure=linear
1e6
**
*Surface Interaction, name="plate_friction"
*Surface Behavior, pressure-overclosure=linear
1e6
*Contact
*Contact Inclusions
steel-1.PLATE_BOTTOM, concrete-1.CONCRETE_TOP
concrete-1.bottom                ,BOTTOM_PLATE-1.SURF_BOTTOM_PLATE  
concrete-1.concrete_front        ,PLATE_NEG_X-1.SURF_PLATE_NEG_X    
concrete-1.concrete_top          ,PLATE_NEG_Y-1.SURF_PLATE_NEG_Y    
*Contact Property Assignment
steel-1.PLATE_BOTTOM, concrete-1.CONCRETE_TOP, "steel concrete"
concrete-1.bottom                ,BOTTOM_PLATE-1.SURF_BOTTOM_PLATE  , "plate_friction"
concrete-1.concrete_front        ,PLATE_NEG_X-1.SURF_PLATE_NEG_X    , "plate_friction"
concrete-1.concrete_top          ,PLATE_NEG_Y-1.SURF_PLATE_NEG_Y    , "plate_friction"
*Contact Formulation, type=SLIDING FORMULATION
concrete-1.bottom                ,BOTTOM_PLATE-1.SURF_BOTTOM_PLATE  , SMALL SLIDING
concrete-1.concrete_front        ,PLATE_NEG_X-1.SURF_PLATE_NEG_X    , SMALL SLIDING
concrete-1.concrete_top          ,PLATE_NEG_Y-1.SURF_PLATE_NEG_Y    , SMALL SLIDING
*Boundary
** concrete-1.front_support, 1, 1
**
** Lock the rigid plates in all 6 degrees of freedom
BOTTOM_PLATE-1.RP_BOTTOM, ENCASTRE
PLATE_NEG_X-1.RP_NEG_X, ENCASTRE
PLATE_NEG_Y-1.RP_NEG_Y, ENCASTRE
**
*Boundary
** concrete-1.back_support, 2, 2
** concrete-1.back_support, 3, 3
steel-1.z_symm, zSYMM
concrete-1.z_symm, zSYMM
steel-1.shear_loading, 1, 1
steel-1.shear_loading, 2, 2
steel-1.shear_loading, 3, 3
steel-1.plate_back, 2, 2
steel-1.plate_back, 3, 3
** smooth step amplitude:
*Amplitude, name=step_amplitude, definition=SMOOTH STEP
0, 0
1, 1
** STEP: loading
*Step, name=zero, nlgeom=no, inc=100000
*Static
0,0,0,0
*Restart, write, frequency=1, overlay
*Include, input="./incfiles/output.inc"
*Include, input="./incfiles/fileOutput.inc"
*end step
*Step, name=loading, nlgeom=no, inc=100000
*Dynamic
** *Static
5e-3, 1, 1e-08, 5e-3
**
*Boundary, type=displacement, amplitude=step_amplitude
steel-1.shear_loading, 1, 1, 5.0
*End Step
