*Heading
** Job name: headedStud Model name: Model-1
** Generated by: Abaqus/CAE 2019
*Preprint, echo=NO, model=NO, history=NO, contact=NO
**
** UEL
**
*Include, input="./incfiles/ueldef.inc"
**
** PARTS
**
*Part, name=concrete
*Include, input="./mesh/modified/concrete.inp"
*Solid Section, elset=dummy, material=dummy
*End Part
**  
*Part, name=steel
*Include, input="./mesh/modified/steel.inp"
*Solid Section, elset=STEEL, material=STEEL_PLATE
*ORIENTATION, name=MORTAR_CYL, SYSTEM=CYLINDRICAL
0, 0, 0, 0, 1, 0
1
**
** Cohesive Section
*COHESIVE SECTION, elset=MORTAR, material=stick_slip, response=TRACTION SEPARATION, ORIENTATION=MORTAR_CYL, STACK DIRECTION=ORIENTATION
*End Part
**
** UEL Props
**
*Include, input="./incfiles/uelprops_GCDP.inc"
**
** ASSEMBLY
**
*Assembly, name=Assembly
**  
*Instance, name=concrete-1, part=concrete
*End Instance
**  
*Instance, name=steel-1, part=steel
*End Instance
**  
*TIE, NAME=ANCHOR_TO_MORTAR,TYPE=SURFACE TO SURFACE
steel-1.mortar_to_anchor, steel-1.anchor_to_mortar
*TIE, NAME=MORTAR_TO_CONCRETE,TYPE=SURFACE TO SURFACE
concrete-1.concrete_to_mortar, steel-1.mortar_to_concrete
*End Assembly
**  
** MATERIALS
** 
*Material, name=STEEL_ANCHOR
*Elastic
200000., 0.3
*DENSITY
7.85e-8
*Material, name=STEEL_PLATE
*Elastic
200000., 0.3
*Plastic
800.0, 0.0
*DENSITY
7.85e-8
*Material, name=dummy
*Elastic
1e-12, 0.3
*DENSITY
2.4e-8
**
*Material, name=stick_slip
*Elastic, type=TRACTION
5400, 2700, 2700
*DENSITY
2e-8
** INTERACTION PROPERTIES
** 
*Surface Interaction, name="steel concrete"
*Surface Behavior, pressure-overclosure=LINEAR
1e6
*CONTACT INITIALIZATION DATA, NAME=Anchor_Clearance, INITIAL CLEARANCE=0.05
*Contact
*Contact Inclusions
steel-1.PLATE_BOTTOM, concrete-1.CONCRETE_TOP
*Contact Property Assignment
steel-1.PLATE_BOTTOM, concrete-1.CONCRETE_TOP, "steel concrete"
*CONTACT INITIALIZATION ASSIGNMENT
steel-1.PLATE_BOTTOM, concrete-1.CONCRETE_TOP, Anchor_Clearance
** 
** Name: concrete_xzSymm Type: Symmetry/Antisymmetry/Encastre
*Boundary
concrete-1.left, 1, 1
concrete-1.left, 2, 2
concrete-1.left, 3, 3
concrete-1.right, 1, 1
concrete-1.right, 2, 2
concrete-1.right, 3, 3
concrete-1.back, 1, 1
concrete-1.back, 2, 2
concrete-1.back, 3, 3
concrete-1.bottom, 1, 1
concrete-1.bottom, 2, 2
concrete-1.bottom, 3, 3
*Boundary
steel-1.z_symm, zSYMM
concrete-1.z_symm, zSYMM
steel-1.plate_left_loading, 1, 1
** 
** STEP: loading
** 
*Step, name=loading, nlgeom=no, inc=100000
** *Dynamic, APPLICATION= QUASI-STATIC
*Static
5e-4, 1, 1e-08, 5e-3
**
*NODE PRINT, NSET=STEEL-1.PLATE_LEFT_LOADING, FREQUENCY=1
RF
**
** Name: load Type: Displacement
*Boundary, type=displacement
steel-1.plate_left_loading, 1, 1, 5.0
** OUTPUT REQUESTS
** 
*Print, contact=yes
*Restart, write, frequency=1, overlay
*Include, input="./incfiles/output.inc"
*Include, input="./incfiles/fileOutput.inc"
*End Step
