********************************** N O D E S **********************************
*NODE, NSET=ALLNODES
    2576,   -8.000000e+00,   -1.000000e+02,    0.000000e+00
    2577,    8.000000e+00,   -1.000000e+02,    3.673940e-15
    2578,   -4.000000e+00,   -1.000000e+02,    0.000000e+00
    2579,    0.000000e+00,   -1.000000e+02,    0.000000e+00
    2580,    4.000000e+00,   -1.000000e+02,    0.000000e+00
    2581,   -6.928203e+00,   -1.000000e+02,   -4.000000e+00
    2582,   -4.000000e+00,   -1.000000e+02,   -6.928203e+00
    2583,   -1.469576e-15,   -1.000000e+02,   -8.000000e+00
    2584,    4.000000e+00,   -1.000000e+02,   -6.928203e+00
    2585,    6.928203e+00,   -1.000000e+02,   -4.000000e+00
    2586,   -1.654799e+00,   -1.000000e+02,   -3.423652e+00
    2587,   -4.166067e+00,   -1.000000e+02,   -2.494552e+00
    2588,    3.366241e+00,   -1.000000e+02,   -4.575300e+00
    2589,    1.222426e+00,   -1.000000e+02,   -3.926771e+00
    2590,    4.764815e+00,   -1.000000e+02,   -2.858433e+00
    2591,   -8.000000e+00,    6.666667e+00,    1.183825e-15
    2592,   -8.000000e+00,    2.000000e+01,    0.000000e+00
    2593,   -8.000000e+00,    1.111111e+01,   -6.803593e-17
    2594,   -8.000000e+00,    1.555556e+01,   -3.401797e-16
    2595,    8.000000e+00,    6.666667e+00,    0.000000e+00
    2596,    6.928203e+00,    6.666667e+00,   -4.000000e+00
    2597,    4.000000e+00,    6.666667e+00,   -6.928203e+00
    2598,    4.898587e-16,    6.666667e+00,   -8.000000e+00
    2599,   -4.000000e+00,    6.666667e+00,   -6.928203e+00
    2600,   -6.928203e+00,    6.666667e+00,   -4.000000e+00
    2601,    8.000000e+00,    2.000000e+01,   -3.673940e-15
    2602,    8.000000e+00,    1.555556e+01,   -3.401797e-16
    2603,    8.000000e+00,    1.111111e+01,   -6.803593e-17
    2604,    6.928203e+00,    2.000000e+01,   -4.000000e+00
    2605,    4.000000e+00,    2.000000e+01,   -6.928203e+00
    2606,   -3.062855e-15,    2.000000e+01,   -8.000000e+00
    2607,   -4.000000e+00,    2.000000e+01,   -6.928203e+00
    2608,   -6.928203e+00,    2.000000e+01,   -4.000000e+00
    2609,   -6.928203e+00,    1.555556e+01,   -4.000000e+00
    2610,   -6.928203e+00,    1.111111e+01,   -4.000000e+00
    2611,   -4.000000e+00,    1.555556e+01,   -6.928203e+00
    2612,   -4.000000e+00,    1.111111e+01,   -6.928203e+00
    2613,   -3.062855e-15,    1.555556e+01,   -8.000000e+00
    2614,   -3.062855e-15,    1.111111e+01,   -8.000000e+00
    2615,    4.000000e+00,    1.555556e+01,   -6.928203e+00
    2616,    4.000000e+00,    1.111111e+01,   -6.928203e+00
    2617,    6.928203e+00,    1.555556e+01,   -4.000000e+00
    2618,    6.928203e+00,    1.111111e+01,   -4.000000e+00
    2619,    8.000000e+00,    0.000000e+00,    6.123234e-16
    2620,    8.000000e+00,    3.333333e+00,    2.719262e-32
    2621,   -8.000000e+00,    0.000000e+00,    0.000000e+00
    2622,   -8.000000e+00,    3.333333e+00,    2.719262e-32
    2623,    6.928203e+00,    0.000000e+00,   -4.000000e+00
    2624,    4.000000e+00,    0.000000e+00,   -6.928203e+00
    2625,    4.898587e-16,    0.000000e+00,   -8.000000e+00
    2626,   -4.000000e+00,    0.000000e+00,   -6.928203e+00
    2627,   -6.928203e+00,    0.000000e+00,   -4.000000e+00
    2628,    6.928203e+00,    3.333333e+00,   -4.000000e+00
    2629,    4.000000e+00,    3.333333e+00,   -6.928203e+00
    2630,    2.266216e-15,    3.333333e+00,   -8.000000e+00
    2631,   -4.000000e+00,    3.333333e+00,   -6.928203e+00
    2632,   -6.928203e+00,    3.333333e+00,   -4.000000e+00
    2633,   -8.000000e+00,   -4.000000e+00,   -2.204364e-15
    2634,   -8.000000e+00,   -8.000000e+00,   -1.959435e-15
    2635,   -8.000000e+00,   -1.200000e+01,   -1.714506e-15
    2636,   -8.000000e+00,   -1.600000e+01,   -1.469576e-15
    2637,   -8.000000e+00,   -2.000000e+01,   -1.224647e-15
    2638,   -8.000000e+00,   -2.400000e+01,   -9.797174e-16
    2639,   -8.000000e+00,   -2.800000e+01,   -7.347881e-16
    2640,   -8.000000e+00,   -3.200000e+01,   -4.898587e-16
    2641,   -8.000000e+00,   -3.600000e+01,   -2.449294e-16
    2642,   -8.000000e+00,   -4.000000e+01,    0.000000e+00
    2643,   -8.000000e+00,   -4.400000e+01,    2.449294e-16
    2644,   -8.000000e+00,   -4.800000e+01,    4.898587e-16
    2645,   -8.000000e+00,   -5.200000e+01,    7.347881e-16
    2646,   -8.000000e+00,   -5.600000e+01,    9.797174e-16
    2647,   -8.000000e+00,   -6.000000e+01,    1.224647e-15
    2648,   -8.000000e+00,   -6.400000e+01,    1.469576e-15
    2649,   -8.000000e+00,   -6.800000e+01,    1.714506e-15
    2650,   -8.000000e+00,   -7.200000e+01,    1.959435e-15
    2651,   -8.000000e+00,   -7.600000e+01,    2.204364e-15
    2652,   -8.000000e+00,   -8.000000e+01,    2.449294e-15
    2653,   -8.000000e+00,   -8.400000e+01,    2.694223e-15
    2654,   -8.000000e+00,   -8.800000e+01,    2.939152e-15
    2655,   -8.000000e+00,   -9.200000e+01,    3.184082e-15
    2656,   -8.000000e+00,   -9.600000e+01,    3.429011e-15
    2657,    8.000000e+00,   -9.600000e+01,    3.429011e-15
    2658,    8.000000e+00,   -9.200000e+01,    3.184082e-15
    2659,    8.000000e+00,   -8.800000e+01,    2.939152e-15
    2660,    8.000000e+00,   -8.400000e+01,    2.694223e-15
    2661,    8.000000e+00,   -8.000000e+01,    2.449294e-15
    2662,    8.000000e+00,   -7.600000e+01,    2.204364e-15
    2663,    8.000000e+00,   -7.200000e+01,    1.959435e-15
    2664,    8.000000e+00,   -6.800000e+01,    1.714506e-15
    2665,    8.000000e+00,   -6.400000e+01,    1.469576e-15
    2666,    8.000000e+00,   -6.000000e+01,    1.224647e-15
    2667,    8.000000e+00,   -5.600000e+01,    9.797174e-16
    2668,    8.000000e+00,   -5.200000e+01,    7.347881e-16
    2669,    8.000000e+00,   -4.800000e+01,    4.898587e-16
    2670,    8.000000e+00,   -4.400000e+01,    2.449294e-16
    2671,    8.000000e+00,   -4.000000e+01,    0.000000e+00
    2672,    8.000000e+00,   -3.600000e+01,   -2.449294e-16
    2673,    8.000000e+00,   -3.200000e+01,   -4.898587e-16
    2674,    8.000000e+00,   -2.800000e+01,   -7.347881e-16
    2675,    8.000000e+00,   -2.400000e+01,   -9.797174e-16
    2676,    8.000000e+00,   -2.000000e+01,   -1.224647e-15
    2677,    8.000000e+00,   -1.600000e+01,   -1.469576e-15
    2678,    8.000000e+00,   -1.200000e+01,   -1.714506e-15
    2679,    8.000000e+00,   -8.000000e+00,   -1.959435e-15
    2680,    8.000000e+00,   -4.000000e+00,   -2.204364e-15
    2681,    4.000000e+00,    2.000000e+01,    0.000000e+00
    2682,    0.000000e+00,    2.000000e+01,    0.000000e+00
    2683,   -4.000000e+00,    2.000000e+01,    0.000000e+00
    2684,   -4.000000e+00,    1.555556e+01,    0.000000e+00
    2685,   -4.000000e+00,    1.111111e+01,    0.000000e+00
    2686,   -4.000000e+00,    6.666667e+00,    0.000000e+00
    2687,   -4.000000e+00,    3.333333e+00,    0.000000e+00
    2688,   -4.000000e+00,   -1.776357e-15,    0.000000e+00
    2689,   -4.000000e+00,   -4.000000e+00,    0.000000e+00
    2690,   -4.000000e+00,   -8.000000e+00,    0.000000e+00
    2691,   -4.000000e+00,   -1.200000e+01,    0.000000e+00
    2692,   -4.000000e+00,   -1.600000e+01,    0.000000e+00
    2693,   -4.000000e+00,   -2.000000e+01,    0.000000e+00
    2694,   -4.000000e+00,   -2.400000e+01,    0.000000e+00
    2695,   -4.000000e+00,   -2.800000e+01,    0.000000e+00
    2696,   -4.000000e+00,   -3.200000e+01,    0.000000e+00
    2697,   -4.000000e+00,   -3.600000e+01,    0.000000e+00
    2698,   -4.000000e+00,   -4.000000e+01,    0.000000e+00
    2699,   -4.000000e+00,   -4.400000e+01,    0.000000e+00
    2700,   -4.000000e+00,   -4.800000e+01,    0.000000e+00
    2701,   -4.000000e+00,   -5.200000e+01,    0.000000e+00
    2702,   -4.000000e+00,   -5.600000e+01,    0.000000e+00
    2703,   -4.000000e+00,   -6.000000e+01,    0.000000e+00
    2704,   -4.000000e+00,   -6.400000e+01,    0.000000e+00
    2705,   -4.000000e+00,   -6.800000e+01,    0.000000e+00
    2706,   -4.000000e+00,   -7.200000e+01,    0.000000e+00
    2707,   -4.000000e+00,   -7.600000e+01,    0.000000e+00
    2708,   -4.000000e+00,   -8.000000e+01,    0.000000e+00
    2709,   -4.000000e+00,   -8.400000e+01,    0.000000e+00
    2710,   -4.000000e+00,   -8.800000e+01,    0.000000e+00
    2711,   -4.000000e+00,   -9.200000e+01,    0.000000e+00
    2712,   -4.000000e+00,   -9.600000e+01,    0.000000e+00
    2713,    2.220446e-16,    1.555556e+01,    0.000000e+00
    2714,   -4.440892e-16,    1.111111e+01,    0.000000e+00
    2715,   -4.440892e-16,    6.666667e+00,    0.000000e+00
    2716,    4.440892e-16,    3.333333e+00,    0.000000e+00
    2717,    4.440892e-16,    0.000000e+00,    0.000000e+00
    2718,    6.661338e-16,   -4.000000e+00,    0.000000e+00
    2719,    6.661338e-16,   -8.000000e+00,    0.000000e+00
    2720,   -6.661338e-16,   -1.200000e+01,    0.000000e+00
    2721,   -4.440892e-16,   -1.600000e+01,    0.000000e+00
    2722,   -2.220446e-16,   -2.000000e+01,    0.000000e+00
    2723,    2.220446e-16,   -2.400000e+01,    0.000000e+00
    2724,   -2.220446e-16,   -2.800000e+01,    0.000000e+00
    2725,    0.000000e+00,   -3.200000e+01,    0.000000e+00
    2726,    0.000000e+00,   -3.600000e+01,    0.000000e+00
    2727,    0.000000e+00,   -4.000000e+01,    0.000000e+00
    2728,    0.000000e+00,   -4.400000e+01,    0.000000e+00
    2729,    0.000000e+00,   -4.800000e+01,    0.000000e+00
    2730,    0.000000e+00,   -5.200000e+01,    0.000000e+00
    2731,    0.000000e+00,   -5.600000e+01,    0.000000e+00
    2732,   -4.440892e-16,   -6.000000e+01,    0.000000e+00
    2733,    4.440892e-16,   -6.400000e+01,    0.000000e+00
    2734,    4.440892e-16,   -6.800000e+01,    0.000000e+00
    2735,    0.000000e+00,   -7.200000e+01,    0.000000e+00
    2736,   -4.440892e-16,   -7.600000e+01,    0.000000e+00
    2737,    0.000000e+00,   -8.000000e+01,    0.000000e+00
    2738,    0.000000e+00,   -8.400000e+01,    0.000000e+00
    2739,    0.000000e+00,   -8.800000e+01,    0.000000e+00
    2740,    0.000000e+00,   -9.200000e+01,    0.000000e+00
    2741,    0.000000e+00,   -9.600000e+01,    0.000000e+00
    2742,    4.000000e+00,    1.555556e+01,    0.000000e+00
    2743,    4.000000e+00,    1.111111e+01,    0.000000e+00
    2744,    4.000000e+00,    6.666667e+00,    0.000000e+00
    2745,    4.000000e+00,    3.333333e+00,    0.000000e+00
    2746,    4.000000e+00,    1.776357e-15,    0.000000e+00
    2747,    4.000000e+00,   -4.000000e+00,    0.000000e+00
    2748,    4.000000e+00,   -8.000000e+00,    0.000000e+00
    2749,    4.000000e+00,   -1.200000e+01,    0.000000e+00
    2750,    4.000000e+00,   -1.600000e+01,    0.000000e+00
    2751,    4.000000e+00,   -2.000000e+01,    0.000000e+00
    2752,    4.000000e+00,   -2.400000e+01,    0.000000e+00
    2753,    4.000000e+00,   -2.800000e+01,    0.000000e+00
    2754,    4.000000e+00,   -3.200000e+01,    0.000000e+00
    2755,    4.000000e+00,   -3.600000e+01,    0.000000e+00
    2756,    4.000000e+00,   -4.000000e+01,    0.000000e+00
    2757,    4.000000e+00,   -4.400000e+01,    0.000000e+00
    2758,    4.000000e+00,   -4.800000e+01,    0.000000e+00
    2759,    4.000000e+00,   -5.200000e+01,    0.000000e+00
    2760,    4.000000e+00,   -5.600000e+01,    0.000000e+00
    2761,    4.000000e+00,   -6.000000e+01,    0.000000e+00
    2762,    4.000000e+00,   -6.400000e+01,    0.000000e+00
    2763,    4.000000e+00,   -6.800000e+01,    0.000000e+00
    2764,    4.000000e+00,   -7.200000e+01,    0.000000e+00
    2765,    4.000000e+00,   -7.600000e+01,    0.000000e+00
    2766,    4.000000e+00,   -8.000000e+01,    0.000000e+00
    2767,    4.000000e+00,   -8.400000e+01,    0.000000e+00
    2768,    4.000000e+00,   -8.800000e+01,    0.000000e+00
    2769,    4.000000e+00,   -9.200000e+01,    0.000000e+00
    2770,    4.000000e+00,   -9.600000e+01,    0.000000e+00
    2771,   -6.928203e+00,   -4.000000e+00,   -4.000000e+00
    2772,   -4.000000e+00,   -4.000000e+00,   -6.928203e+00
    2773,   -1.286498e-15,   -4.000000e+00,   -8.000000e+00
    2774,    4.000000e+00,   -4.000000e+00,   -6.928203e+00
    2775,    6.928203e+00,   -4.000000e+00,   -4.000000e+00
    2776,   -6.928203e+00,   -8.000000e+00,   -4.000000e+00
    2777,   -4.000000e+00,   -8.000000e+00,   -6.928203e+00
    2778,   -1.286498e-15,   -8.000000e+00,   -8.000000e+00
    2779,    4.000000e+00,   -8.000000e+00,   -6.928203e+00
    2780,    6.928203e+00,   -8.000000e+00,   -4.000000e+00
    2781,   -6.928203e+00,   -1.200000e+01,   -4.000000e+00
    2782,   -4.000000e+00,   -1.200000e+01,   -6.928203e+00
    2783,   -1.286498e-15,   -1.200000e+01,   -8.000000e+00
    2784,    4.000000e+00,   -1.200000e+01,   -6.928203e+00
    2785,    6.928203e+00,   -1.200000e+01,   -4.000000e+00
    2786,   -6.928203e+00,   -1.600000e+01,   -4.000000e+00
    2787,   -4.000000e+00,   -1.600000e+01,   -6.928203e+00
    2788,   -3.062855e-15,   -1.600000e+01,   -8.000000e+00
    2789,    4.000000e+00,   -1.600000e+01,   -6.928203e+00
    2790,    6.928203e+00,   -1.600000e+01,   -4.000000e+00
    2791,   -6.928203e+00,   -2.000000e+01,   -4.000000e+00
    2792,   -4.000000e+00,   -2.000000e+01,   -6.928203e+00
    2793,   -1.286498e-15,   -2.000000e+01,   -8.000000e+00
    2794,    4.000000e+00,   -2.000000e+01,   -6.928203e+00
    2795,    6.928203e+00,   -2.000000e+01,   -4.000000e+00
    2796,   -6.928203e+00,   -2.400000e+01,   -4.000000e+00
    2797,   -4.000000e+00,   -2.400000e+01,   -6.928203e+00
    2798,   -3.062855e-15,   -2.400000e+01,   -8.000000e+00
    2799,    4.000000e+00,   -2.400000e+01,   -6.928203e+00
    2800,    6.928203e+00,   -2.400000e+01,   -4.000000e+00
    2801,   -6.928203e+00,   -2.800000e+01,   -4.000000e+00
    2802,   -4.000000e+00,   -2.800000e+01,   -6.928203e+00
    2803,   -3.062855e-15,   -2.800000e+01,   -8.000000e+00
    2804,    4.000000e+00,   -2.800000e+01,   -6.928203e+00
    2805,    6.928203e+00,   -2.800000e+01,   -4.000000e+00
    2806,   -6.928203e+00,   -3.200000e+01,   -4.000000e+00
    2807,   -4.000000e+00,   -3.200000e+01,   -6.928203e+00
    2808,   -4.839212e-15,   -3.200000e+01,   -8.000000e+00
    2809,    4.000000e+00,   -3.200000e+01,   -6.928203e+00
    2810,    6.928203e+00,   -3.200000e+01,   -4.000000e+00
    2811,   -6.928203e+00,   -3.600000e+01,   -4.000000e+00
    2812,   -4.000000e+00,   -3.600000e+01,   -6.928203e+00
    2813,   -4.839212e-15,   -3.600000e+01,   -8.000000e+00
    2814,    4.000000e+00,   -3.600000e+01,   -6.928203e+00
    2815,    6.928203e+00,   -3.600000e+01,   -4.000000e+00
    2816,   -6.928203e+00,   -4.000000e+01,   -4.000000e+00
    2817,   -4.000000e+00,   -4.000000e+01,   -6.928203e+00
    2818,   -4.839212e-15,   -4.000000e+01,   -8.000000e+00
    2819,    4.000000e+00,   -4.000000e+01,   -6.928203e+00
    2820,    6.928203e+00,   -4.000000e+01,   -4.000000e+00
    2821,   -6.928203e+00,   -4.400000e+01,   -4.000000e+00
    2822,   -4.000000e+00,   -4.400000e+01,   -6.928203e+00
    2823,    4.898587e-16,   -4.400000e+01,   -8.000000e+00
    2824,    4.000000e+00,   -4.400000e+01,   -6.928203e+00
    2825,    6.928203e+00,   -4.400000e+01,   -4.000000e+00
    2826,   -6.928203e+00,   -4.800000e+01,   -4.000000e+00
    2827,   -4.000000e+00,   -4.800000e+01,   -6.928203e+00
    2828,   -1.286498e-15,   -4.800000e+01,   -8.000000e+00
    2829,    4.000000e+00,   -4.800000e+01,   -6.928203e+00
    2830,    6.928203e+00,   -4.800000e+01,   -4.000000e+00
    2831,   -6.928203e+00,   -5.200000e+01,   -4.000000e+00
    2832,   -4.000000e+00,   -5.200000e+01,   -6.928203e+00
    2833,   -3.062855e-15,   -5.200000e+01,   -8.000000e+00
    2834,    4.000000e+00,   -5.200000e+01,   -6.928203e+00
    2835,    6.928203e+00,   -5.200000e+01,   -4.000000e+00
    2836,   -6.928203e+00,   -5.600000e+01,   -4.000000e+00
    2837,   -4.000000e+00,   -5.600000e+01,   -6.928203e+00
    2838,   -3.062855e-15,   -5.600000e+01,   -8.000000e+00
    2839,    4.000000e+00,   -5.600000e+01,   -6.928203e+00
    2840,    6.928203e+00,   -5.600000e+01,   -4.000000e+00
    2841,   -6.928203e+00,   -6.000000e+01,   -4.000000e+00
    2842,   -4.000000e+00,   -6.000000e+01,   -6.928203e+00
    2843,    4.898587e-16,   -6.000000e+01,   -8.000000e+00
    2844,    4.000000e+00,   -6.000000e+01,   -6.928203e+00
    2845,    6.928203e+00,   -6.000000e+01,   -4.000000e+00
    2846,   -6.928203e+00,   -6.400000e+01,   -4.000000e+00
    2847,   -4.000000e+00,   -6.400000e+01,   -6.928203e+00
    2848,   -4.839212e-15,   -6.400000e+01,   -8.000000e+00
    2849,    4.000000e+00,   -6.400000e+01,   -6.928203e+00
    2850,    6.928203e+00,   -6.400000e+01,   -4.000000e+00
    2851,   -6.928203e+00,   -6.800000e+01,   -4.000000e+00
    2852,   -4.000000e+00,   -6.800000e+01,   -6.928203e+00
    2853,   -1.286498e-15,   -6.800000e+01,   -8.000000e+00
    2854,    4.000000e+00,   -6.800000e+01,   -6.928203e+00
    2855,    6.928203e+00,   -6.800000e+01,   -4.000000e+00
    2856,   -6.928203e+00,   -7.200000e+01,   -4.000000e+00
    2857,   -4.000000e+00,   -7.200000e+01,   -6.928203e+00
    2858,   -3.062855e-15,   -7.200000e+01,   -8.000000e+00
    2859,    4.000000e+00,   -7.200000e+01,   -6.928203e+00
    2860,    6.928203e+00,   -7.200000e+01,   -4.000000e+00
    2861,   -6.928203e+00,   -7.600000e+01,   -4.000000e+00
    2862,   -4.000000e+00,   -7.600000e+01,   -6.928203e+00
    2863,   -4.839212e-15,   -7.600000e+01,   -8.000000e+00
    2864,    4.000000e+00,   -7.600000e+01,   -6.928203e+00
    2865,    6.928203e+00,   -7.600000e+01,   -4.000000e+00
    2866,   -6.928203e+00,   -8.000000e+01,   -4.000000e+00
    2867,   -4.000000e+00,   -8.000000e+01,   -6.928203e+00
    2868,   -4.839212e-15,   -8.000000e+01,   -8.000000e+00
    2869,    4.000000e+00,   -8.000000e+01,   -6.928203e+00
    2870,    6.928203e+00,   -8.000000e+01,   -4.000000e+00
    2871,   -6.928203e+00,   -8.400000e+01,   -4.000000e+00
    2872,   -4.000000e+00,   -8.400000e+01,   -6.928203e+00
    2873,   -3.062855e-15,   -8.400000e+01,   -8.000000e+00
    2874,    4.000000e+00,   -8.400000e+01,   -6.928203e+00
    2875,    6.928203e+00,   -8.400000e+01,   -4.000000e+00
    2876,   -6.928203e+00,   -8.800000e+01,   -4.000000e+00
    2877,   -4.000000e+00,   -8.800000e+01,   -6.928203e+00
    2878,   -1.286498e-15,   -8.800000e+01,   -8.000000e+00
    2879,    4.000000e+00,   -8.800000e+01,   -6.928203e+00
    2880,    6.928203e+00,   -8.800000e+01,   -4.000000e+00
    2881,   -6.928203e+00,   -9.200000e+01,   -4.000000e+00
    2882,   -4.000000e+00,   -9.200000e+01,   -6.928203e+00
    2883,   -3.062855e-15,   -9.200000e+01,   -8.000000e+00
    2884,    4.000000e+00,   -9.200000e+01,   -6.928203e+00
    2885,    6.928203e+00,   -9.200000e+01,   -4.000000e+00
    2886,   -6.928203e+00,   -9.600000e+01,   -4.000000e+00
    2887,   -4.000000e+00,   -9.600000e+01,   -6.928203e+00
    2888,   -4.839212e-15,   -9.600000e+01,   -8.000000e+00
    2889,    4.000000e+00,   -9.600000e+01,   -6.928203e+00
    2890,    6.928203e+00,   -9.600000e+01,   -4.000000e+00
    2891,   -1.654799e+00,   -9.600000e+01,   -3.423652e+00
    2892,    1.222426e+00,   -9.600000e+01,   -3.926771e+00
    2893,   -4.166067e+00,   -9.600000e+01,   -2.494552e+00
    2894,    3.366241e+00,   -9.600000e+01,   -4.575300e+00
    2895,    4.764815e+00,   -9.600000e+01,   -2.858433e+00
    2896,   -1.654799e+00,   -9.200000e+01,   -3.423652e+00
    2897,    1.222426e+00,   -9.200000e+01,   -3.926771e+00
    2898,   -4.166067e+00,   -9.200000e+01,   -2.494552e+00
    2899,    3.366241e+00,   -9.200000e+01,   -4.575300e+00
    2900,    4.764815e+00,   -9.200000e+01,   -2.858433e+00
    2901,   -1.654799e+00,   -8.800000e+01,   -3.423652e+00
    2902,    1.222426e+00,   -8.800000e+01,   -3.926771e+00
    2903,   -4.166067e+00,   -8.800000e+01,   -2.494552e+00
    2904,    3.366241e+00,   -8.800000e+01,   -4.575300e+00
    2905,    4.764815e+00,   -8.800000e+01,   -2.858433e+00
    2906,   -1.654799e+00,   -8.400000e+01,   -3.423652e+00
    2907,    1.222426e+00,   -8.400000e+01,   -3.926771e+00
    2908,   -4.166067e+00,   -8.400000e+01,   -2.494552e+00
    2909,    3.366241e+00,   -8.400000e+01,   -4.575300e+00
    2910,    4.764815e+00,   -8.400000e+01,   -2.858433e+00
    2911,   -1.654799e+00,   -8.000000e+01,   -3.423652e+00
    2912,    1.222426e+00,   -8.000000e+01,   -3.926771e+00
    2913,   -4.166067e+00,   -8.000000e+01,   -2.494552e+00
    2914,    3.366241e+00,   -8.000000e+01,   -4.575300e+00
    2915,    4.764815e+00,   -8.000000e+01,   -2.858433e+00
    2916,   -1.654799e+00,   -7.600000e+01,   -3.423652e+00
    2917,    1.222426e+00,   -7.600000e+01,   -3.926771e+00
    2918,   -4.166067e+00,   -7.600000e+01,   -2.494552e+00
    2919,    3.366241e+00,   -7.600000e+01,   -4.575300e+00
    2920,    4.764815e+00,   -7.600000e+01,   -2.858433e+00
    2921,   -1.654799e+00,   -7.200000e+01,   -3.423652e+00
    2922,    1.222426e+00,   -7.200000e+01,   -3.926771e+00
    2923,   -4.166067e+00,   -7.200000e+01,   -2.494552e+00
    2924,    3.366241e+00,   -7.200000e+01,   -4.575300e+00
    2925,    4.764815e+00,   -7.200000e+01,   -2.858433e+00
    2926,   -1.654799e+00,   -6.800000e+01,   -3.423652e+00
    2927,    1.222426e+00,   -6.800000e+01,   -3.926771e+00
    2928,   -4.166067e+00,   -6.800000e+01,   -2.494552e+00
    2929,    3.366241e+00,   -6.800000e+01,   -4.575300e+00
    2930,    4.764815e+00,   -6.800000e+01,   -2.858433e+00
    2931,   -1.654799e+00,   -6.400000e+01,   -3.423652e+00
    2932,    1.222426e+00,   -6.400000e+01,   -3.926771e+00
    2933,   -4.166067e+00,   -6.400000e+01,   -2.494552e+00
    2934,    3.366241e+00,   -6.400000e+01,   -4.575300e+00
    2935,    4.764815e+00,   -6.400000e+01,   -2.858433e+00
    2936,   -1.654799e+00,   -6.000000e+01,   -3.423652e+00
    2937,    1.222426e+00,   -6.000000e+01,   -3.926771e+00
    2938,   -4.166067e+00,   -6.000000e+01,   -2.494552e+00
    2939,    3.366241e+00,   -6.000000e+01,   -4.575300e+00
    2940,    4.764815e+00,   -6.000000e+01,   -2.858433e+00
    2941,   -1.654799e+00,   -5.600000e+01,   -3.423652e+00
    2942,    1.222426e+00,   -5.600000e+01,   -3.926771e+00
    2943,   -4.166067e+00,   -5.600000e+01,   -2.494552e+00
    2944,    3.366241e+00,   -5.600000e+01,   -4.575300e+00
    2945,    4.764815e+00,   -5.600000e+01,   -2.858433e+00
    2946,   -1.654799e+00,   -5.200000e+01,   -3.423652e+00
    2947,    1.222426e+00,   -5.200000e+01,   -3.926771e+00
    2948,   -4.166067e+00,   -5.200000e+01,   -2.494552e+00
    2949,    3.366241e+00,   -5.200000e+01,   -4.575300e+00
    2950,    4.764815e+00,   -5.200000e+01,   -2.858433e+00
    2951,   -1.654799e+00,   -4.800000e+01,   -3.423652e+00
    2952,    1.222426e+00,   -4.800000e+01,   -3.926771e+00
    2953,   -4.166067e+00,   -4.800000e+01,   -2.494552e+00
    2954,    3.366241e+00,   -4.800000e+01,   -4.575300e+00
    2955,    4.764815e+00,   -4.800000e+01,   -2.858433e+00
    2956,   -1.654799e+00,   -4.400000e+01,   -3.423652e+00
    2957,    1.222426e+00,   -4.400000e+01,   -3.926771e+00
    2958,   -4.166067e+00,   -4.400000e+01,   -2.494552e+00
    2959,    3.366241e+00,   -4.400000e+01,   -4.575300e+00
    2960,    4.764815e+00,   -4.400000e+01,   -2.858433e+00
    2961,   -1.654799e+00,   -4.000000e+01,   -3.423652e+00
    2962,    1.222426e+00,   -4.000000e+01,   -3.926771e+00
    2963,   -4.166067e+00,   -4.000000e+01,   -2.494552e+00
    2964,    3.366241e+00,   -4.000000e+01,   -4.575300e+00
    2965,    4.764815e+00,   -4.000000e+01,   -2.858433e+00
    2966,   -1.654799e+00,   -3.600000e+01,   -3.423652e+00
    2967,    1.222426e+00,   -3.600000e+01,   -3.926771e+00
    2968,   -4.166067e+00,   -3.600000e+01,   -2.494552e+00
    2969,    3.366241e+00,   -3.600000e+01,   -4.575300e+00
    2970,    4.764815e+00,   -3.600000e+01,   -2.858433e+00
    2971,   -1.654799e+00,   -3.200000e+01,   -3.423652e+00
    2972,    1.222426e+00,   -3.200000e+01,   -3.926771e+00
    2973,   -4.166067e+00,   -3.200000e+01,   -2.494552e+00
    2974,    3.366241e+00,   -3.200000e+01,   -4.575300e+00
    2975,    4.764815e+00,   -3.200000e+01,   -2.858433e+00
    2976,   -1.654799e+00,   -2.800000e+01,   -3.423652e+00
    2977,    1.222426e+00,   -2.800000e+01,   -3.926771e+00
    2978,   -4.166067e+00,   -2.800000e+01,   -2.494552e+00
    2979,    3.366241e+00,   -2.800000e+01,   -4.575300e+00
    2980,    4.764815e+00,   -2.800000e+01,   -2.858433e+00
    2981,   -1.654799e+00,   -2.400000e+01,   -3.423652e+00
    2982,    1.222426e+00,   -2.400000e+01,   -3.926771e+00
    2983,   -4.166067e+00,   -2.400000e+01,   -2.494552e+00
    2984,    3.366241e+00,   -2.400000e+01,   -4.575300e+00
    2985,    4.764815e+00,   -2.400000e+01,   -2.858433e+00
    2986,   -1.654799e+00,   -2.000000e+01,   -3.423652e+00
    2987,    1.222426e+00,   -2.000000e+01,   -3.926771e+00
    2988,   -4.166067e+00,   -2.000000e+01,   -2.494552e+00
    2989,    3.366241e+00,   -2.000000e+01,   -4.575300e+00
    2990,    4.764815e+00,   -2.000000e+01,   -2.858433e+00
    2991,   -1.654799e+00,   -1.600000e+01,   -3.423652e+00
    2992,    1.222426e+00,   -1.600000e+01,   -3.926771e+00
    2993,   -4.166067e+00,   -1.600000e+01,   -2.494552e+00
    2994,    3.366241e+00,   -1.600000e+01,   -4.575300e+00
    2995,    4.764815e+00,   -1.600000e+01,   -2.858433e+00
    2996,   -1.654799e+00,   -1.200000e+01,   -3.423652e+00
    2997,    1.222426e+00,   -1.200000e+01,   -3.926771e+00
    2998,   -4.166067e+00,   -1.200000e+01,   -2.494552e+00
    2999,    3.366241e+00,   -1.200000e+01,   -4.575300e+00
    3000,    4.764815e+00,   -1.200000e+01,   -2.858433e+00
    3001,   -1.654799e+00,   -8.000000e+00,   -3.423652e+00
    3002,    1.222426e+00,   -8.000000e+00,   -3.926771e+00
    3003,   -4.166067e+00,   -8.000000e+00,   -2.494552e+00
    3004,    3.366241e+00,   -8.000000e+00,   -4.575300e+00
    3005,    4.764815e+00,   -8.000000e+00,   -2.858433e+00
    3006,   -1.654799e+00,   -4.000000e+00,   -3.423652e+00
    3007,    1.222426e+00,   -4.000000e+00,   -3.926771e+00
    3008,   -4.166067e+00,   -4.000000e+00,   -2.494552e+00
    3009,    3.366241e+00,   -4.000000e+00,   -4.575300e+00
    3010,    4.764815e+00,   -4.000000e+00,   -2.858433e+00
    3011,   -1.654799e+00,   -8.165316e-17,   -3.423652e+00
    3012,    1.222426e+00,    6.031845e-17,   -3.926771e+00
    3013,   -4.166067e+00,   -2.055673e-16,   -2.494552e+00
    3014,    3.366241e+00,    1.661013e-16,   -4.575300e+00
    3015,    4.764815e+00,    2.351114e-16,   -2.858433e+00
    3016,   -1.654799e+00,    3.333333e+00,   -3.423652e+00
    3017,    1.222426e+00,    3.333333e+00,   -3.926771e+00
    3018,   -4.166067e+00,    3.333333e+00,   -2.494552e+00
    3019,    3.366241e+00,    3.333333e+00,   -4.575300e+00
    3020,    4.764815e+00,    3.333333e+00,   -2.858433e+00
    3021,   -1.654799e+00,    6.666667e+00,   -3.423652e+00
    3022,    1.222426e+00,    6.666667e+00,   -3.926771e+00
    3023,   -4.166067e+00,    6.666667e+00,   -2.494552e+00
    3024,    3.366241e+00,    6.666667e+00,   -4.575300e+00
    3025,    4.764815e+00,    6.666667e+00,   -2.858433e+00
    3026,   -1.654799e+00,    1.111111e+01,   -3.423652e+00
    3027,    1.222426e+00,    1.111111e+01,   -3.926771e+00
    3028,   -4.166067e+00,    1.111111e+01,   -2.494552e+00
    3029,    3.366241e+00,    1.111111e+01,   -4.575300e+00
    3030,    4.764815e+00,    1.111111e+01,   -2.858433e+00
    3031,   -1.654799e+00,    1.555556e+01,   -3.423652e+00
    3032,    1.222426e+00,    1.555556e+01,   -3.926771e+00
    3033,   -4.166067e+00,    1.555556e+01,   -2.494552e+00
    3034,    3.366241e+00,    1.555556e+01,   -4.575300e+00
    3035,    4.764815e+00,    1.555556e+01,   -2.858433e+00
    3036,   -1.654799e+00,    2.000000e+01,   -3.423652e+00
    3037,    1.222426e+00,    2.000000e+01,   -3.926771e+00
    3038,   -4.166067e+00,    2.000000e+01,   -2.494552e+00
    3039,    3.366241e+00,    2.000000e+01,   -4.575300e+00
    3040,    4.764815e+00,    2.000000e+01,   -2.858433e+00
    3041,    4.000000e+01,    6.666667e+00,    0.000000e+00
    3042,    3.600000e+01,    6.666667e+00,    0.000000e+00
    3043,    3.200000e+01,    6.666667e+00,    0.000000e+00
    3044,    2.800000e+01,    6.666667e+00,    0.000000e+00
    3045,    2.400000e+01,    6.666667e+00,    0.000000e+00
    3046,    2.000000e+01,    6.666667e+00,    0.000000e+00
    3047,    1.600000e+01,    6.666667e+00,    0.000000e+00
    3048,    1.200000e+01,    6.666667e+00,    0.000000e+00
    3049,    4.000000e+01,    6.666667e+00,   -4.000000e+01
    3050,    4.000000e+01,    6.666667e+00,   -3.600000e+01
    3051,    4.000000e+01,    6.666667e+00,   -3.200000e+01
    3052,    4.000000e+01,    6.666667e+00,   -2.800000e+01
    3053,    4.000000e+01,    6.666667e+00,   -2.400000e+01
    3054,    4.000000e+01,    6.666667e+00,   -2.000000e+01
    3055,    4.000000e+01,    6.666667e+00,   -1.600000e+01
    3056,    4.000000e+01,    6.666667e+00,   -1.200000e+01
    3057,    4.000000e+01,    6.666667e+00,   -8.000000e+00
    3058,    4.000000e+01,    6.666667e+00,   -4.000000e+00
    3059,   -4.000000e+01,    6.666667e+00,   -4.000000e+01
    3060,   -3.600000e+01,    6.666667e+00,   -4.000000e+01
    3061,   -3.200000e+01,    6.666667e+00,   -4.000000e+01
    3062,   -2.800000e+01,    6.666667e+00,   -4.000000e+01
    3063,   -2.400000e+01,    6.666667e+00,   -4.000000e+01
    3064,   -2.000000e+01,    6.666667e+00,   -4.000000e+01
    3065,   -1.600000e+01,    6.666667e+00,   -4.000000e+01
    3066,   -1.200000e+01,    6.666667e+00,   -4.000000e+01
    3067,   -8.000000e+00,    6.666667e+00,   -4.000000e+01
    3068,   -4.000000e+00,    6.666667e+00,   -4.000000e+01
    3069,    0.000000e+00,    6.666667e+00,   -4.000000e+01
    3070,    4.000000e+00,    6.666667e+00,   -4.000000e+01
    3071,    8.000000e+00,    6.666667e+00,   -4.000000e+01
    3072,    1.200000e+01,    6.666667e+00,   -4.000000e+01
    3073,    1.600000e+01,    6.666667e+00,   -4.000000e+01
    3074,    2.000000e+01,    6.666667e+00,   -4.000000e+01
    3075,    2.400000e+01,    6.666667e+00,   -4.000000e+01
    3076,    2.800000e+01,    6.666667e+00,   -4.000000e+01
    3077,    3.200000e+01,    6.666667e+00,   -4.000000e+01
    3078,    3.600000e+01,    6.666667e+00,   -4.000000e+01
    3079,   -4.000000e+01,    6.666667e+00,    0.000000e+00
    3080,   -4.000000e+01,    6.666667e+00,   -4.000000e+00
    3081,   -4.000000e+01,    6.666667e+00,   -8.000000e+00
    3082,   -4.000000e+01,    6.666667e+00,   -1.200000e+01
    3083,   -4.000000e+01,    6.666667e+00,   -1.600000e+01
    3084,   -4.000000e+01,    6.666667e+00,   -2.000000e+01
    3085,   -4.000000e+01,    6.666667e+00,   -2.400000e+01
    3086,   -4.000000e+01,    6.666667e+00,   -2.800000e+01
    3087,   -4.000000e+01,    6.666667e+00,   -3.200000e+01
    3088,   -4.000000e+01,    6.666667e+00,   -3.600000e+01
    3089,   -1.200000e+01,    6.666667e+00,    0.000000e+00
    3090,   -1.600000e+01,    6.666667e+00,    0.000000e+00
    3091,   -2.000000e+01,    6.666667e+00,    0.000000e+00
    3092,   -2.400000e+01,    6.666667e+00,    0.000000e+00
    3093,   -2.800000e+01,    6.666667e+00,    0.000000e+00
    3094,   -3.200000e+01,    6.666667e+00,    0.000000e+00
    3095,   -3.600000e+01,    6.666667e+00,    0.000000e+00
    3096,    1.035338e+01,    6.666667e+00,   -6.239661e+00
    3097,    1.543794e+01,    6.666667e+00,   -5.296863e+00
    3098,    1.979447e+01,    6.666667e+00,   -4.729876e+00
    3099,    2.393743e+01,    6.666667e+00,   -4.403914e+00
    3100,    2.799402e+01,    6.666667e+00,   -4.214100e+00
    3101,    3.201046e+01,    6.666667e+00,   -4.106555e+00
    3102,    3.600822e+01,    6.666667e+00,   -4.043703e+00
    3103,    3.603363e+01,    6.666667e+00,   -3.599565e+01
    3104,    3.206636e+01,    6.666667e+00,   -3.598076e+01
    3105,    2.809964e+01,    6.666667e+00,   -3.593847e+01
    3106,    2.412620e+01,    6.666667e+00,   -3.584023e+01
    3107,    2.014125e+01,    6.666667e+00,   -3.567464e+01
    3108,    1.614008e+01,    6.666667e+00,   -3.550916e+01
    3109,    1.210931e+01,    6.666667e+00,   -3.549320e+01
    3110,    8.067386e+00,    6.666667e+00,   -3.557565e+01
    3111,    4.018314e+00,    6.666667e+00,   -3.569426e+01
    3112,   -2.185552e-02,    6.666667e+00,   -3.581454e+01
    3113,   -4.049930e+00,    6.666667e+00,   -3.591278e+01
    3114,   -8.066805e+00,    6.666667e+00,   -3.598319e+01
    3115,   -1.207464e+01,    6.666667e+00,   -3.602514e+01
    3116,   -1.607607e+01,    6.666667e+00,   -3.603932e+01
    3117,   -2.007116e+01,    6.666667e+00,   -3.603858e+01
    3118,   -2.406112e+01,    6.666667e+00,   -3.603122e+01
    3119,   -2.804734e+01,    6.666667e+00,   -3.602356e+01
    3120,   -3.203121e+01,    6.666667e+00,   -3.601527e+01
    3121,   -3.601473e+01,    6.666667e+00,   -3.600728e+01
    3122,   -3.602582e+01,    6.666667e+00,   -4.010657e+00
    3123,   -3.204930e+01,    6.666667e+00,   -4.024200e+00
    3124,   -2.806748e+01,    6.666667e+00,   -4.042642e+00
    3125,   -2.406696e+01,    6.666667e+00,   -4.073720e+00
    3126,   -2.003270e+01,    6.666667e+00,   -4.147645e+00
    3127,   -1.591408e+01,    6.666667e+00,   -4.346095e+00
    3128,   -1.102871e+01,    6.666667e+00,   -5.208622e+00
    3129,    3.602988e+01,    6.666667e+00,   -8.076038e+00
    3130,    3.607704e+01,    6.666667e+00,   -1.209229e+01
    3131,    3.613444e+01,    6.666667e+00,   -1.608596e+01
    3132,    3.617567e+01,    6.666667e+00,   -2.005981e+01
    3133,    3.615918e+01,    6.666667e+00,   -2.402974e+01
    3134,    3.611786e+01,    6.666667e+00,   -2.800854e+01
    3135,    3.607315e+01,    6.666667e+00,   -3.199625e+01
    3136,   -3.603153e+01,    6.666667e+00,   -3.201490e+01
    3137,   -3.605004e+01,    6.666667e+00,   -2.802104e+01
    3138,   -3.606525e+01,    6.666667e+00,   -2.402789e+01
    3139,   -3.607824e+01,    6.666667e+00,   -2.003086e+01
    3140,   -3.608145e+01,    6.666667e+00,   -1.602970e+01
    3141,   -3.607165e+01,    6.666667e+00,   -1.202596e+01
    3142,   -3.605270e+01,    6.666667e+00,   -8.019129e+00
    3143,   -7.676420e+00,    6.666667e+00,   -8.483598e+00
    3144,   -6.292756e+00,    6.666667e+00,   -1.204892e+01
    3145,   -2.585946e+00,    6.666667e+00,   -1.130823e+01
    3146,    1.359922e+00,    6.666667e+00,   -1.094810e+01
    3147,    5.527334e+00,    6.666667e+00,   -9.659845e+00
    3148,   -3.210361e+01,    6.666667e+00,   -8.042339e+00
    3149,   -2.815510e+01,    6.666667e+00,   -8.071414e+00
    3150,   -2.421217e+01,    6.666667e+00,   -8.119311e+00
    3151,   -2.029000e+01,    6.666667e+00,   -8.213446e+00
    3152,   -1.639400e+01,    6.666667e+00,   -8.526873e+00
    3153,   -1.270903e+01,    6.666667e+00,   -9.124861e+00
    3154,   -1.001863e+01,    6.666667e+00,   -1.010961e+01
    3155,   -9.622448e+00,    6.666667e+00,   -1.280972e+01
    3156,   -9.151827e+00,    6.666667e+00,   -1.628220e+01
    3157,   -5.396329e+00,    6.666667e+00,   -1.578446e+01
    3158,   -1.447074e+00,    6.666667e+00,   -1.514390e+01
    3159,    2.476808e+00,    6.666667e+00,   -1.449494e+01
    3160,    6.692977e+00,    6.666667e+00,   -1.336327e+01
    3161,    1.116349e+01,    6.666667e+00,   -1.165195e+01
    3162,    1.565638e+01,    6.666667e+00,   -1.038855e+01
    3163,    1.991511e+01,    6.666667e+00,   -9.379810e+00
    3164,    2.403449e+01,    6.666667e+00,   -8.746451e+00
    3165,    2.807243e+01,    6.666667e+00,   -8.389235e+00
    3166,    3.206505e+01,    6.666667e+00,   -8.195069e+00
    3167,   -3.206475e+01,    6.666667e+00,   -3.203047e+01
    3168,   -3.209886e+01,    6.666667e+00,   -2.804457e+01
    3169,   -3.213310e+01,    6.666667e+00,   -2.405446e+01
    3170,   -3.215742e+01,    6.666667e+00,   -2.005855e+01
    3171,   -3.216365e+01,    6.666667e+00,   -1.605701e+01
    3172,   -3.214263e+01,    6.666667e+00,   -1.205265e+01
    3173,    3.216217e+01,    6.666667e+00,   -1.222571e+01
    3174,    3.229260e+01,    6.666667e+00,   -1.620179e+01
    3175,    3.238709e+01,    6.666667e+00,   -2.013122e+01
    3176,    3.233972e+01,    6.666667e+00,   -2.405016e+01
    3177,    3.224253e+01,    6.666667e+00,   -2.799413e+01
    3178,    3.214827e+01,    6.666667e+00,   -3.197185e+01
    3179,    2.822197e+01,    6.666667e+00,   -3.189704e+01
    3180,    2.428602e+01,    6.666667e+00,   -3.170823e+01
    3181,    2.033196e+01,    6.666667e+00,   -3.134567e+01
    3182,    1.633846e+01,    6.666667e+00,   -3.104956e+01
    3183,    1.224031e+01,    6.666667e+00,   -3.094010e+01
    3184,    8.123892e+00,    6.666667e+00,   -3.112419e+01
    3185,    4.018007e+00,    6.666667e+00,   -3.138206e+01
    3186,   -6.542876e-02,    6.666667e+00,   -3.162889e+01
    3187,   -4.124216e+00,    6.666667e+00,   -3.183011e+01
    3188,   -8.155029e+00,    6.666667e+00,   -3.197181e+01
    3189,   -1.216891e+01,    6.666667e+00,   -3.205153e+01
    3190,   -1.616803e+01,    6.666667e+00,   -3.207971e+01
    3191,   -2.015168e+01,    6.666667e+00,   -3.207489e+01
    3192,   -2.412672e+01,    6.666667e+00,   -3.206050e+01
    3193,   -2.809696e+01,    6.666667e+00,   -3.204531e+01
    3194,   -2.822439e+01,    6.666667e+00,   -1.208660e+01
    3195,   -2.432462e+01,    6.666667e+00,   -1.213923e+01
    3196,   -2.045791e+01,    6.666667e+00,   -1.222285e+01
    3197,   -1.666024e+01,    6.666667e+00,   -1.238090e+01
    3198,   -1.297778e+01,    6.666667e+00,   -1.267569e+01
    3199,   -1.287965e+01,    6.666667e+00,   -1.636961e+01
    3200,   -1.266446e+01,    6.666667e+00,   -2.022277e+01
    3201,   -8.769277e+00,    6.666667e+00,   -2.006644e+01
    3202,   -4.834281e+00,    6.666667e+00,   -1.968643e+01
    3203,   -7.972943e-01,    6.666667e+00,   -1.915056e+01
    3204,    3.342716e+00,    6.666667e+00,   -1.846399e+01
    3205,    7.486011e+00,    6.666667e+00,   -1.760938e+01
    3206,    1.186113e+01,    6.666667e+00,   -1.650747e+01
    3207,    1.625990e+01,    6.666667e+00,   -1.527754e+01
    3208,    2.040732e+01,    6.666667e+00,   -1.381863e+01
    3209,    2.431061e+01,    6.666667e+00,   -1.293101e+01
    3210,    2.825242e+01,    6.666667e+00,   -1.248018e+01
    3211,   -2.815075e+01,    6.666667e+00,   -2.806490e+01
    3212,   -2.820490e+01,    6.666667e+00,   -2.408056e+01
    3213,   -2.824369e+01,    6.666667e+00,   -2.008837e+01
    3214,   -2.825184e+01,    6.666667e+00,   -1.609231e+01
    3215,    2.848942e+01,    6.666667e+00,   -1.641873e+01
    3216,    2.868685e+01,    6.666667e+00,   -2.022711e+01
    3217,    2.855625e+01,    6.666667e+00,   -2.401984e+01
    3218,    2.837726e+01,    6.666667e+00,   -2.790630e+01
    3219,    2.451634e+01,    6.666667e+00,   -2.765203e+01
    3220,    2.069141e+01,    6.666667e+00,   -2.713403e+01
    3221,    1.667189e+01,    6.666667e+00,   -2.635339e+01
    3222,    1.238312e+01,    6.666667e+00,   -2.636243e+01
    3223,    8.154765e+00,    6.666667e+00,   -2.664113e+01
    3224,    3.967979e+00,    6.666667e+00,   -2.706137e+01
    3225,   -1.673856e-01,    6.666667e+00,   -2.744351e+01
    3226,   -4.249289e+00,    6.666667e+00,   -2.775387e+01
    3227,   -8.287866e+00,    6.666667e+00,   -2.796880e+01
    3228,   -1.229746e+01,    6.666667e+00,   -2.808248e+01
    3229,   -1.628430e+01,    6.666667e+00,   -2.811640e+01
    3230,   -2.025078e+01,    6.666667e+00,   -2.810617e+01
    3231,   -2.420374e+01,    6.666667e+00,   -2.808623e+01
    3232,   -1.666216e+01,    6.666667e+00,   -1.629514e+01
    3233,   -1.655734e+01,    6.666667e+00,   -2.022217e+01
    3234,   -1.641626e+01,    6.666667e+00,   -2.416168e+01
    3235,   -1.246127e+01,    6.666667e+00,   -2.412491e+01
    3236,   -8.489061e+00,    6.666667e+00,   -2.397315e+01
    3237,   -4.478439e+00,    6.666667e+00,   -2.367560e+01
    3238,   -3.990548e-01,    6.666667e+00,   -2.325239e+01
    3239,    3.758583e+00,    6.666667e+00,   -2.270783e+01
    3240,    2.122412e+01,    6.666667e+00,   -1.781483e+01
    3241,    2.479457e+01,    6.666667e+00,   -1.689246e+01
    3242,   -2.436292e+01,    6.666667e+00,   -1.613900e+01
    3243,   -2.048923e+01,    6.666667e+00,   -1.621063e+01
    3244,    2.528646e+01,    6.666667e+00,   -2.034120e+01
    3245,    2.490981e+01,    6.666667e+00,   -2.378897e+01
    3246,   -2.428118e+01,    6.666667e+00,   -2.410971e+01
    3247,   -2.433997e+01,    6.666667e+00,   -2.013038e+01
    3248,    2.137323e+01,    6.666667e+00,   -2.315172e+01
    3249,    1.749845e+01,    6.666667e+00,   -2.077788e+01
    3250,    1.249406e+01,    6.666667e+00,   -2.140399e+01
    3251,    7.994831e+00,    6.666667e+00,   -2.208453e+01
    3252,    2.257048e+01,    6.666667e+00,   -2.043818e+01
    3253,   -2.035498e+01,    6.666667e+00,   -2.414043e+01
    3254,   -2.043622e+01,    6.666667e+00,   -2.017628e+01
    3255,    4.000000e+01,    2.000000e+01,    0.000000e+00
    3256,    4.000000e+01,    1.111111e+01,    0.000000e+00
    3257,    4.000000e+01,    1.555556e+01,    0.000000e+00
    3258,    3.600000e+01,    2.000000e+01,    0.000000e+00
    3259,    3.200000e+01,    2.000000e+01,    0.000000e+00
    3260,    2.800000e+01,    2.000000e+01,    0.000000e+00
    3261,    2.400000e+01,    2.000000e+01,    0.000000e+00
    3262,    2.000000e+01,    2.000000e+01,    0.000000e+00
    3263,    1.600000e+01,    2.000000e+01,    0.000000e+00
    3264,    1.200000e+01,    2.000000e+01,    0.000000e+00
    3265,    1.200000e+01,    1.111111e+01,    0.000000e+00
    3266,    1.600000e+01,    1.111111e+01,    0.000000e+00
    3267,    2.000000e+01,    1.111111e+01,    0.000000e+00
    3268,    2.400000e+01,    1.111111e+01,    0.000000e+00
    3269,    2.800000e+01,    1.111111e+01,    0.000000e+00
    3270,    3.200000e+01,    1.111111e+01,    0.000000e+00
    3271,    3.600000e+01,    1.111111e+01,    0.000000e+00
    3272,    1.200000e+01,    1.555556e+01,    0.000000e+00
    3273,    1.600000e+01,    1.555556e+01,    0.000000e+00
    3274,    2.000000e+01,    1.555556e+01,    0.000000e+00
    3275,    2.400000e+01,    1.555556e+01,    0.000000e+00
    3276,    2.800000e+01,    1.555556e+01,    0.000000e+00
    3277,    3.200000e+01,    1.555556e+01,    0.000000e+00
    3278,    3.600000e+01,    1.555556e+01,    0.000000e+00
    3279,   -4.000000e+01,    2.000000e+01,    0.000000e+00
    3280,   -1.200000e+01,    2.000000e+01,    0.000000e+00
    3281,   -1.600000e+01,    2.000000e+01,    0.000000e+00
    3282,   -2.000000e+01,    2.000000e+01,    0.000000e+00
    3283,   -2.400000e+01,    2.000000e+01,    0.000000e+00
    3284,   -2.800000e+01,    2.000000e+01,    0.000000e+00
    3285,   -3.200000e+01,    2.000000e+01,    0.000000e+00
    3286,   -3.600000e+01,    2.000000e+01,    0.000000e+00
    3287,   -4.000000e+01,    1.555556e+01,    0.000000e+00
    3288,   -4.000000e+01,    1.111111e+01,    0.000000e+00
    3289,   -3.600000e+01,    1.111111e+01,    0.000000e+00
    3290,   -3.200000e+01,    1.111111e+01,    0.000000e+00
    3291,   -2.800000e+01,    1.111111e+01,    0.000000e+00
    3292,   -2.400000e+01,    1.111111e+01,    0.000000e+00
    3293,   -2.000000e+01,    1.111111e+01,    0.000000e+00
    3294,   -1.600000e+01,    1.111111e+01,    0.000000e+00
    3295,   -1.200000e+01,    1.111111e+01,    0.000000e+00
    3296,   -3.600000e+01,    1.555556e+01,    0.000000e+00
    3297,   -3.200000e+01,    1.555556e+01,    0.000000e+00
    3298,   -2.800000e+01,    1.555556e+01,    0.000000e+00
    3299,   -2.400000e+01,    1.555556e+01,    0.000000e+00
    3300,   -2.000000e+01,    1.555556e+01,    0.000000e+00
    3301,   -1.600000e+01,    1.555556e+01,    0.000000e+00
    3302,   -1.200000e+01,    1.555556e+01,    0.000000e+00
    3303,    4.000000e+01,    2.000000e+01,   -4.000000e+01
    3304,    4.000000e+01,    1.555556e+01,   -4.000000e+01
    3305,    4.000000e+01,    1.111111e+01,   -4.000000e+01
    3306,    4.000000e+01,    2.000000e+01,   -4.000000e+00
    3307,    4.000000e+01,    2.000000e+01,   -8.000000e+00
    3308,    4.000000e+01,    2.000000e+01,   -1.200000e+01
    3309,    4.000000e+01,    2.000000e+01,   -1.600000e+01
    3310,    4.000000e+01,    2.000000e+01,   -2.000000e+01
    3311,    4.000000e+01,    2.000000e+01,   -2.400000e+01
    3312,    4.000000e+01,    2.000000e+01,   -2.800000e+01
    3313,    4.000000e+01,    2.000000e+01,   -3.200000e+01
    3314,    4.000000e+01,    2.000000e+01,   -3.600000e+01
    3315,    4.000000e+01,    1.555556e+01,   -4.000000e+00
    3316,    4.000000e+01,    1.111111e+01,   -4.000000e+00
    3317,    4.000000e+01,    1.555556e+01,   -8.000000e+00
    3318,    4.000000e+01,    1.111111e+01,   -8.000000e+00
    3319,    4.000000e+01,    1.555556e+01,   -1.200000e+01
    3320,    4.000000e+01,    1.111111e+01,   -1.200000e+01
    3321,    4.000000e+01,    1.555556e+01,   -1.600000e+01
    3322,    4.000000e+01,    1.111111e+01,   -1.600000e+01
    3323,    4.000000e+01,    1.555556e+01,   -2.000000e+01
    3324,    4.000000e+01,    1.111111e+01,   -2.000000e+01
    3325,    4.000000e+01,    1.555556e+01,   -2.400000e+01
    3326,    4.000000e+01,    1.111111e+01,   -2.400000e+01
    3327,    4.000000e+01,    1.555556e+01,   -2.800000e+01
    3328,    4.000000e+01,    1.111111e+01,   -2.800000e+01
    3329,    4.000000e+01,    1.555556e+01,   -3.200000e+01
    3330,    4.000000e+01,    1.111111e+01,   -3.200000e+01
    3331,    4.000000e+01,    1.555556e+01,   -3.600000e+01
    3332,    4.000000e+01,    1.111111e+01,   -3.600000e+01
    3333,   -4.000000e+01,    2.000000e+01,   -4.000000e+01
    3334,   -4.000000e+01,    1.111111e+01,   -4.000000e+01
    3335,   -4.000000e+01,    1.555556e+01,   -4.000000e+01
    3336,   -3.600000e+01,    2.000000e+01,   -4.000000e+01
    3337,   -3.200000e+01,    2.000000e+01,   -4.000000e+01
    3338,   -2.800000e+01,    2.000000e+01,   -4.000000e+01
    3339,   -2.400000e+01,    2.000000e+01,   -4.000000e+01
    3340,   -2.000000e+01,    2.000000e+01,   -4.000000e+01
    3341,   -1.600000e+01,    2.000000e+01,   -4.000000e+01
    3342,   -1.200000e+01,    2.000000e+01,   -4.000000e+01
    3343,   -8.000000e+00,    2.000000e+01,   -4.000000e+01
    3344,   -4.000000e+00,    2.000000e+01,   -4.000000e+01
    3345,    0.000000e+00,    2.000000e+01,   -4.000000e+01
    3346,    4.000000e+00,    2.000000e+01,   -4.000000e+01
    3347,    8.000000e+00,    2.000000e+01,   -4.000000e+01
    3348,    1.200000e+01,    2.000000e+01,   -4.000000e+01
    3349,    1.600000e+01,    2.000000e+01,   -4.000000e+01
    3350,    2.000000e+01,    2.000000e+01,   -4.000000e+01
    3351,    2.400000e+01,    2.000000e+01,   -4.000000e+01
    3352,    2.800000e+01,    2.000000e+01,   -4.000000e+01
    3353,    3.200000e+01,    2.000000e+01,   -4.000000e+01
    3354,    3.600000e+01,    2.000000e+01,   -4.000000e+01
    3355,    3.600000e+01,    1.111111e+01,   -4.000000e+01
    3356,    3.200000e+01,    1.111111e+01,   -4.000000e+01
    3357,    2.800000e+01,    1.111111e+01,   -4.000000e+01
    3358,    2.400000e+01,    1.111111e+01,   -4.000000e+01
    3359,    2.000000e+01,    1.111111e+01,   -4.000000e+01
    3360,    1.600000e+01,    1.111111e+01,   -4.000000e+01
    3361,    1.200000e+01,    1.111111e+01,   -4.000000e+01
    3362,    8.000000e+00,    1.111111e+01,   -4.000000e+01
    3363,    4.000000e+00,    1.111111e+01,   -4.000000e+01
    3364,    0.000000e+00,    1.111111e+01,   -4.000000e+01
    3365,   -4.000000e+00,    1.111111e+01,   -4.000000e+01
    3366,   -8.000000e+00,    1.111111e+01,   -4.000000e+01
    3367,   -1.200000e+01,    1.111111e+01,   -4.000000e+01
    3368,   -1.600000e+01,    1.111111e+01,   -4.000000e+01
    3369,   -2.000000e+01,    1.111111e+01,   -4.000000e+01
    3370,   -2.400000e+01,    1.111111e+01,   -4.000000e+01
    3371,   -2.800000e+01,    1.111111e+01,   -4.000000e+01
    3372,   -3.200000e+01,    1.111111e+01,   -4.000000e+01
    3373,   -3.600000e+01,    1.111111e+01,   -4.000000e+01
    3374,    3.600000e+01,    1.555556e+01,   -4.000000e+01
    3375,    3.200000e+01,    1.555556e+01,   -4.000000e+01
    3376,    2.800000e+01,    1.555556e+01,   -4.000000e+01
    3377,    2.400000e+01,    1.555556e+01,   -4.000000e+01
    3378,    2.000000e+01,    1.555556e+01,   -4.000000e+01
    3379,    1.600000e+01,    1.555556e+01,   -4.000000e+01
    3380,    1.200000e+01,    1.555556e+01,   -4.000000e+01
    3381,    8.000000e+00,    1.555556e+01,   -4.000000e+01
    3382,    4.000000e+00,    1.555556e+01,   -4.000000e+01
    3383,    0.000000e+00,    1.555556e+01,   -4.000000e+01
    3384,   -4.000000e+00,    1.555556e+01,   -4.000000e+01
    3385,   -8.000000e+00,    1.555556e+01,   -4.000000e+01
    3386,   -1.200000e+01,    1.555556e+01,   -4.000000e+01
    3387,   -1.600000e+01,    1.555556e+01,   -4.000000e+01
    3388,   -2.000000e+01,    1.555556e+01,   -4.000000e+01
    3389,   -2.400000e+01,    1.555556e+01,   -4.000000e+01
    3390,   -2.800000e+01,    1.555556e+01,   -4.000000e+01
    3391,   -3.200000e+01,    1.555556e+01,   -4.000000e+01
    3392,   -3.600000e+01,    1.555556e+01,   -4.000000e+01
    3393,   -4.000000e+01,    2.000000e+01,   -4.000000e+00
    3394,   -4.000000e+01,    2.000000e+01,   -8.000000e+00
    3395,   -4.000000e+01,    2.000000e+01,   -1.200000e+01
    3396,   -4.000000e+01,    2.000000e+01,   -1.600000e+01
    3397,   -4.000000e+01,    2.000000e+01,   -2.000000e+01
    3398,   -4.000000e+01,    2.000000e+01,   -2.400000e+01
    3399,   -4.000000e+01,    2.000000e+01,   -2.800000e+01
    3400,   -4.000000e+01,    2.000000e+01,   -3.200000e+01
    3401,   -4.000000e+01,    2.000000e+01,   -3.600000e+01
    3402,   -4.000000e+01,    1.111111e+01,   -4.000000e+00
    3403,   -4.000000e+01,    1.555556e+01,   -4.000000e+00
    3404,   -4.000000e+01,    1.111111e+01,   -8.000000e+00
    3405,   -4.000000e+01,    1.555556e+01,   -8.000000e+00
    3406,   -4.000000e+01,    1.111111e+01,   -1.200000e+01
    3407,   -4.000000e+01,    1.555556e+01,   -1.200000e+01
    3408,   -4.000000e+01,    1.111111e+01,   -1.600000e+01
    3409,   -4.000000e+01,    1.555556e+01,   -1.600000e+01
    3410,   -4.000000e+01,    1.111111e+01,   -2.000000e+01
    3411,   -4.000000e+01,    1.555556e+01,   -2.000000e+01
    3412,   -4.000000e+01,    1.111111e+01,   -2.400000e+01
    3413,   -4.000000e+01,    1.555556e+01,   -2.400000e+01
    3414,   -4.000000e+01,    1.111111e+01,   -2.800000e+01
    3415,   -4.000000e+01,    1.555556e+01,   -2.800000e+01
    3416,   -4.000000e+01,    1.111111e+01,   -3.200000e+01
    3417,   -4.000000e+01,    1.555556e+01,   -3.200000e+01
    3418,   -4.000000e+01,    1.111111e+01,   -3.600000e+01
    3419,   -4.000000e+01,    1.555556e+01,   -3.600000e+01
    3420,    1.035338e+01,    1.111111e+01,   -6.239661e+00
    3421,    1.543794e+01,    1.111111e+01,   -5.296863e+00
    3422,    1.979447e+01,    1.111111e+01,   -4.729876e+00
    3423,    2.393743e+01,    1.111111e+01,   -4.403914e+00
    3424,    2.799402e+01,    1.111111e+01,   -4.214100e+00
    3425,    3.201046e+01,    1.111111e+01,   -4.106555e+00
    3426,    3.600822e+01,    1.111111e+01,   -4.043703e+00
    3427,    3.603363e+01,    1.111111e+01,   -3.599565e+01
    3428,    3.206636e+01,    1.111111e+01,   -3.598076e+01
    3429,    2.809964e+01,    1.111111e+01,   -3.593847e+01
    3430,    2.412620e+01,    1.111111e+01,   -3.584023e+01
    3431,    2.014125e+01,    1.111111e+01,   -3.567464e+01
    3432,    1.614008e+01,    1.111111e+01,   -3.550916e+01
    3433,    1.210931e+01,    1.111111e+01,   -3.549320e+01
    3434,    8.067386e+00,    1.111111e+01,   -3.557565e+01
    3435,    4.018314e+00,    1.111111e+01,   -3.569426e+01
    3436,   -2.185552e-02,    1.111111e+01,   -3.581454e+01
    3437,   -4.049930e+00,    1.111111e+01,   -3.591278e+01
    3438,   -8.066805e+00,    1.111111e+01,   -3.598319e+01
    3439,   -1.207464e+01,    1.111111e+01,   -3.602514e+01
    3440,   -1.607607e+01,    1.111111e+01,   -3.603932e+01
    3441,   -2.007116e+01,    1.111111e+01,   -3.603858e+01
    3442,   -2.406112e+01,    1.111111e+01,   -3.603122e+01
    3443,   -2.804734e+01,    1.111111e+01,   -3.602356e+01
    3444,   -3.203121e+01,    1.111111e+01,   -3.601527e+01
    3445,   -3.601473e+01,    1.111111e+01,   -3.600728e+01
    3446,   -3.602582e+01,    1.111111e+01,   -4.010657e+00
    3447,   -3.204930e+01,    1.111111e+01,   -4.024200e+00
    3448,   -2.806748e+01,    1.111111e+01,   -4.042642e+00
    3449,   -2.406696e+01,    1.111111e+01,   -4.073720e+00
    3450,   -2.003270e+01,    1.111111e+01,   -4.147645e+00
    3451,   -1.591408e+01,    1.111111e+01,   -4.346095e+00
    3452,   -1.102871e+01,    1.111111e+01,   -5.208622e+00
    3453,    3.602988e+01,    1.111111e+01,   -8.076038e+00
    3454,    3.607704e+01,    1.111111e+01,   -1.209229e+01
    3455,    3.613444e+01,    1.111111e+01,   -1.608596e+01
    3456,    3.617567e+01,    1.111111e+01,   -2.005981e+01
    3457,    3.615918e+01,    1.111111e+01,   -2.402974e+01
    3458,    3.611786e+01,    1.111111e+01,   -2.800854e+01
    3459,    3.607315e+01,    1.111111e+01,   -3.199625e+01
    3460,   -3.603153e+01,    1.111111e+01,   -3.201490e+01
    3461,   -3.605004e+01,    1.111111e+01,   -2.802104e+01
    3462,   -3.606525e+01,    1.111111e+01,   -2.402789e+01
    3463,   -3.607824e+01,    1.111111e+01,   -2.003086e+01
    3464,   -3.608145e+01,    1.111111e+01,   -1.602970e+01
    3465,   -3.607165e+01,    1.111111e+01,   -1.202596e+01
    3466,   -3.605270e+01,    1.111111e+01,   -8.019129e+00
    3467,   -7.676420e+00,    1.111111e+01,   -8.483598e+00
    3468,   -6.292756e+00,    1.111111e+01,   -1.204892e+01
    3469,   -2.585946e+00,    1.111111e+01,   -1.130823e+01
    3470,    1.359922e+00,    1.111111e+01,   -1.094810e+01
    3471,    5.527334e+00,    1.111111e+01,   -9.659845e+00
    3472,   -3.210361e+01,    1.111111e+01,   -8.042339e+00
    3473,   -2.815510e+01,    1.111111e+01,   -8.071414e+00
    3474,   -2.421217e+01,    1.111111e+01,   -8.119311e+00
    3475,   -2.029000e+01,    1.111111e+01,   -8.213446e+00
    3476,   -1.639400e+01,    1.111111e+01,   -8.526873e+00
    3477,   -1.270903e+01,    1.111111e+01,   -9.124861e+00
    3478,   -1.001863e+01,    1.111111e+01,   -1.010961e+01
    3479,   -9.622448e+00,    1.111111e+01,   -1.280972e+01
    3480,   -9.151827e+00,    1.111111e+01,   -1.628220e+01
    3481,   -5.396329e+00,    1.111111e+01,   -1.578446e+01
    3482,   -1.447074e+00,    1.111111e+01,   -1.514390e+01
    3483,    2.476808e+00,    1.111111e+01,   -1.449494e+01
    3484,    6.692977e+00,    1.111111e+01,   -1.336327e+01
    3485,    1.116349e+01,    1.111111e+01,   -1.165195e+01
    3486,    1.565638e+01,    1.111111e+01,   -1.038855e+01
    3487,    1.991511e+01,    1.111111e+01,   -9.379810e+00
    3488,    2.403449e+01,    1.111111e+01,   -8.746451e+00
    3489,    2.807243e+01,    1.111111e+01,   -8.389235e+00
    3490,    3.206505e+01,    1.111111e+01,   -8.195069e+00
    3491,   -3.206475e+01,    1.111111e+01,   -3.203047e+01
    3492,   -3.209886e+01,    1.111111e+01,   -2.804457e+01
    3493,   -3.213310e+01,    1.111111e+01,   -2.405446e+01
    3494,   -3.215742e+01,    1.111111e+01,   -2.005855e+01
    3495,   -3.216365e+01,    1.111111e+01,   -1.605701e+01
    3496,   -3.214263e+01,    1.111111e+01,   -1.205265e+01
    3497,    3.216217e+01,    1.111111e+01,   -1.222571e+01
    3498,    3.229260e+01,    1.111111e+01,   -1.620179e+01
    3499,    3.238709e+01,    1.111111e+01,   -2.013122e+01
    3500,    3.233972e+01,    1.111111e+01,   -2.405016e+01
    3501,    3.224253e+01,    1.111111e+01,   -2.799413e+01
    3502,    3.214827e+01,    1.111111e+01,   -3.197185e+01
    3503,    2.822197e+01,    1.111111e+01,   -3.189704e+01
    3504,    2.428602e+01,    1.111111e+01,   -3.170823e+01
    3505,    2.033196e+01,    1.111111e+01,   -3.134567e+01
    3506,    1.633846e+01,    1.111111e+01,   -3.104956e+01
    3507,    1.224031e+01,    1.111111e+01,   -3.094010e+01
    3508,    8.123892e+00,    1.111111e+01,   -3.112419e+01
    3509,    4.018007e+00,    1.111111e+01,   -3.138206e+01
    3510,   -6.542876e-02,    1.111111e+01,   -3.162889e+01
    3511,   -4.124216e+00,    1.111111e+01,   -3.183011e+01
    3512,   -8.155029e+00,    1.111111e+01,   -3.197181e+01
    3513,   -1.216891e+01,    1.111111e+01,   -3.205153e+01
    3514,   -1.616803e+01,    1.111111e+01,   -3.207971e+01
    3515,   -2.015168e+01,    1.111111e+01,   -3.207489e+01
    3516,   -2.412672e+01,    1.111111e+01,   -3.206050e+01
    3517,   -2.809696e+01,    1.111111e+01,   -3.204531e+01
    3518,   -2.822439e+01,    1.111111e+01,   -1.208660e+01
    3519,   -2.432462e+01,    1.111111e+01,   -1.213923e+01
    3520,   -2.045791e+01,    1.111111e+01,   -1.222285e+01
    3521,   -1.666024e+01,    1.111111e+01,   -1.238090e+01
    3522,   -1.297778e+01,    1.111111e+01,   -1.267569e+01
    3523,   -1.287965e+01,    1.111111e+01,   -1.636961e+01
    3524,   -1.266446e+01,    1.111111e+01,   -2.022277e+01
    3525,   -8.769277e+00,    1.111111e+01,   -2.006644e+01
    3526,   -4.834281e+00,    1.111111e+01,   -1.968643e+01
    3527,   -7.972943e-01,    1.111111e+01,   -1.915056e+01
    3528,    3.342716e+00,    1.111111e+01,   -1.846399e+01
    3529,    7.486011e+00,    1.111111e+01,   -1.760938e+01
    3530,    1.186113e+01,    1.111111e+01,   -1.650747e+01
    3531,    1.625990e+01,    1.111111e+01,   -1.527754e+01
    3532,    2.040732e+01,    1.111111e+01,   -1.381863e+01
    3533,    2.431061e+01,    1.111111e+01,   -1.293101e+01
    3534,    2.825242e+01,    1.111111e+01,   -1.248018e+01
    3535,   -2.815075e+01,    1.111111e+01,   -2.806490e+01
    3536,   -2.820490e+01,    1.111111e+01,   -2.408056e+01
    3537,   -2.824369e+01,    1.111111e+01,   -2.008837e+01
    3538,   -2.825184e+01,    1.111111e+01,   -1.609231e+01
    3539,    2.848942e+01,    1.111111e+01,   -1.641873e+01
    3540,    2.868685e+01,    1.111111e+01,   -2.022711e+01
    3541,    2.855625e+01,    1.111111e+01,   -2.401984e+01
    3542,    2.837726e+01,    1.111111e+01,   -2.790630e+01
    3543,    2.451634e+01,    1.111111e+01,   -2.765203e+01
    3544,    2.069141e+01,    1.111111e+01,   -2.713403e+01
    3545,    1.667189e+01,    1.111111e+01,   -2.635339e+01
    3546,    1.238312e+01,    1.111111e+01,   -2.636243e+01
    3547,    8.154765e+00,    1.111111e+01,   -2.664113e+01
    3548,    3.967979e+00,    1.111111e+01,   -2.706137e+01
    3549,   -1.673856e-01,    1.111111e+01,   -2.744351e+01
    3550,   -4.249289e+00,    1.111111e+01,   -2.775387e+01
    3551,   -8.287866e+00,    1.111111e+01,   -2.796880e+01
    3552,   -1.229746e+01,    1.111111e+01,   -2.808248e+01
    3553,   -1.628430e+01,    1.111111e+01,   -2.811640e+01
    3554,   -2.025078e+01,    1.111111e+01,   -2.810617e+01
    3555,   -2.420374e+01,    1.111111e+01,   -2.808623e+01
    3556,   -1.666216e+01,    1.111111e+01,   -1.629514e+01
    3557,   -1.655734e+01,    1.111111e+01,   -2.022217e+01
    3558,   -1.641626e+01,    1.111111e+01,   -2.416168e+01
    3559,   -1.246127e+01,    1.111111e+01,   -2.412491e+01
    3560,   -8.489061e+00,    1.111111e+01,   -2.397315e+01
    3561,   -4.478439e+00,    1.111111e+01,   -2.367560e+01
    3562,   -3.990548e-01,    1.111111e+01,   -2.325239e+01
    3563,    3.758583e+00,    1.111111e+01,   -2.270783e+01
    3564,    7.994831e+00,    1.111111e+01,   -2.208453e+01
    3565,    1.249406e+01,    1.111111e+01,   -2.140399e+01
    3566,    1.749845e+01,    1.111111e+01,   -2.077788e+01
    3567,    2.122412e+01,    1.111111e+01,   -1.781483e+01
    3568,    2.479457e+01,    1.111111e+01,   -1.689246e+01
    3569,   -2.436292e+01,    1.111111e+01,   -1.613900e+01
    3570,   -2.048923e+01,    1.111111e+01,   -1.621063e+01
    3571,    2.528646e+01,    1.111111e+01,   -2.034120e+01
    3572,    2.490981e+01,    1.111111e+01,   -2.378897e+01
    3573,   -2.428118e+01,    1.111111e+01,   -2.410971e+01
    3574,   -2.433997e+01,    1.111111e+01,   -2.013038e+01
    3575,    2.137323e+01,    1.111111e+01,   -2.315172e+01
    3576,    2.257048e+01,    1.111111e+01,   -2.043818e+01
    3577,   -2.035498e+01,    1.111111e+01,   -2.414043e+01
    3578,   -2.043622e+01,    1.111111e+01,   -2.017628e+01
    3579,    1.035338e+01,    1.555556e+01,   -6.239661e+00
    3580,    1.543794e+01,    1.555556e+01,   -5.296863e+00
    3581,    1.979447e+01,    1.555556e+01,   -4.729876e+00
    3582,    2.393743e+01,    1.555556e+01,   -4.403914e+00
    3583,    2.799402e+01,    1.555556e+01,   -4.214100e+00
    3584,    3.201046e+01,    1.555556e+01,   -4.106555e+00
    3585,    3.600822e+01,    1.555556e+01,   -4.043703e+00
    3586,    3.603363e+01,    1.555556e+01,   -3.599565e+01
    3587,    3.206636e+01,    1.555556e+01,   -3.598076e+01
    3588,    2.809964e+01,    1.555556e+01,   -3.593847e+01
    3589,    2.412620e+01,    1.555556e+01,   -3.584023e+01
    3590,    2.014125e+01,    1.555556e+01,   -3.567464e+01
    3591,    1.614008e+01,    1.555556e+01,   -3.550916e+01
    3592,    1.210931e+01,    1.555556e+01,   -3.549320e+01
    3593,    8.067386e+00,    1.555556e+01,   -3.557565e+01
    3594,    4.018314e+00,    1.555556e+01,   -3.569426e+01
    3595,   -2.185552e-02,    1.555556e+01,   -3.581454e+01
    3596,   -4.049930e+00,    1.555556e+01,   -3.591278e+01
    3597,   -8.066805e+00,    1.555556e+01,   -3.598319e+01
    3598,   -1.207464e+01,    1.555556e+01,   -3.602514e+01
    3599,   -1.607607e+01,    1.555556e+01,   -3.603932e+01
    3600,   -2.007116e+01,    1.555556e+01,   -3.603858e+01
    3601,   -2.406112e+01,    1.555556e+01,   -3.603122e+01
    3602,   -2.804734e+01,    1.555556e+01,   -3.602356e+01
    3603,   -3.203121e+01,    1.555556e+01,   -3.601527e+01
    3604,   -3.601473e+01,    1.555556e+01,   -3.600728e+01
    3605,   -3.602582e+01,    1.555556e+01,   -4.010657e+00
    3606,   -3.204930e+01,    1.555556e+01,   -4.024200e+00
    3607,   -2.806748e+01,    1.555556e+01,   -4.042642e+00
    3608,   -2.406696e+01,    1.555556e+01,   -4.073720e+00
    3609,   -2.003270e+01,    1.555556e+01,   -4.147645e+00
    3610,   -1.591408e+01,    1.555556e+01,   -4.346095e+00
    3611,   -1.102871e+01,    1.555556e+01,   -5.208622e+00
    3612,    3.602988e+01,    1.555556e+01,   -8.076038e+00
    3613,    3.607704e+01,    1.555556e+01,   -1.209229e+01
    3614,    3.613444e+01,    1.555556e+01,   -1.608596e+01
    3615,    3.617567e+01,    1.555556e+01,   -2.005981e+01
    3616,    3.615918e+01,    1.555556e+01,   -2.402974e+01
    3617,    3.611786e+01,    1.555556e+01,   -2.800854e+01
    3618,    3.607315e+01,    1.555556e+01,   -3.199625e+01
    3619,   -3.603153e+01,    1.555556e+01,   -3.201490e+01
    3620,   -3.605004e+01,    1.555556e+01,   -2.802104e+01
    3621,   -3.606525e+01,    1.555556e+01,   -2.402789e+01
    3622,   -3.607824e+01,    1.555556e+01,   -2.003086e+01
    3623,   -3.608145e+01,    1.555556e+01,   -1.602970e+01
    3624,   -3.607165e+01,    1.555556e+01,   -1.202596e+01
    3625,   -3.605270e+01,    1.555556e+01,   -8.019129e+00
    3626,   -7.676420e+00,    1.555556e+01,   -8.483598e+00
    3627,   -6.292756e+00,    1.555556e+01,   -1.204892e+01
    3628,   -2.585946e+00,    1.555556e+01,   -1.130823e+01
    3629,    1.359922e+00,    1.555556e+01,   -1.094810e+01
    3630,    5.527334e+00,    1.555556e+01,   -9.659845e+00
    3631,   -3.210361e+01,    1.555556e+01,   -8.042339e+00
    3632,   -2.815510e+01,    1.555556e+01,   -8.071414e+00
    3633,   -2.421217e+01,    1.555556e+01,   -8.119311e+00
    3634,   -2.029000e+01,    1.555556e+01,   -8.213446e+00
    3635,   -1.639400e+01,    1.555556e+01,   -8.526873e+00
    3636,   -1.270903e+01,    1.555556e+01,   -9.124861e+00
    3637,   -1.001863e+01,    1.555556e+01,   -1.010961e+01
    3638,   -9.622448e+00,    1.555556e+01,   -1.280972e+01
    3639,   -9.151827e+00,    1.555556e+01,   -1.628220e+01
    3640,   -5.396329e+00,    1.555556e+01,   -1.578446e+01
    3641,   -1.447074e+00,    1.555556e+01,   -1.514390e+01
    3642,    2.476808e+00,    1.555556e+01,   -1.449494e+01
    3643,    6.692977e+00,    1.555556e+01,   -1.336327e+01
    3644,    1.116349e+01,    1.555556e+01,   -1.165195e+01
    3645,    1.565638e+01,    1.555556e+01,   -1.038855e+01
    3646,    1.991511e+01,    1.555556e+01,   -9.379810e+00
    3647,    2.403449e+01,    1.555556e+01,   -8.746451e+00
    3648,    2.807243e+01,    1.555556e+01,   -8.389235e+00
    3649,    3.206505e+01,    1.555556e+01,   -8.195069e+00
    3650,   -3.206475e+01,    1.555556e+01,   -3.203047e+01
    3651,   -3.209886e+01,    1.555556e+01,   -2.804457e+01
    3652,   -3.213310e+01,    1.555556e+01,   -2.405446e+01
    3653,   -3.215742e+01,    1.555556e+01,   -2.005855e+01
    3654,   -3.216365e+01,    1.555556e+01,   -1.605701e+01
    3655,   -3.214263e+01,    1.555556e+01,   -1.205265e+01
    3656,    3.216217e+01,    1.555556e+01,   -1.222571e+01
    3657,    3.229260e+01,    1.555556e+01,   -1.620179e+01
    3658,    3.238709e+01,    1.555556e+01,   -2.013122e+01
    3659,    3.233972e+01,    1.555556e+01,   -2.405016e+01
    3660,    3.224253e+01,    1.555556e+01,   -2.799413e+01
    3661,    3.214827e+01,    1.555556e+01,   -3.197185e+01
    3662,    2.822197e+01,    1.555556e+01,   -3.189704e+01
    3663,    2.428602e+01,    1.555556e+01,   -3.170823e+01
    3664,    2.033196e+01,    1.555556e+01,   -3.134567e+01
    3665,    1.633846e+01,    1.555556e+01,   -3.104956e+01
    3666,    1.224031e+01,    1.555556e+01,   -3.094010e+01
    3667,    8.123892e+00,    1.555556e+01,   -3.112419e+01
    3668,    4.018007e+00,    1.555556e+01,   -3.138206e+01
    3669,   -6.542876e-02,    1.555556e+01,   -3.162889e+01
    3670,   -4.124216e+00,    1.555556e+01,   -3.183011e+01
    3671,   -8.155029e+00,    1.555556e+01,   -3.197181e+01
    3672,   -1.216891e+01,    1.555556e+01,   -3.205153e+01
    3673,   -1.616803e+01,    1.555556e+01,   -3.207971e+01
    3674,   -2.015168e+01,    1.555556e+01,   -3.207489e+01
    3675,   -2.412672e+01,    1.555556e+01,   -3.206050e+01
    3676,   -2.809696e+01,    1.555556e+01,   -3.204531e+01
    3677,   -2.822439e+01,    1.555556e+01,   -1.208660e+01
    3678,   -2.432462e+01,    1.555556e+01,   -1.213923e+01
    3679,   -2.045791e+01,    1.555556e+01,   -1.222285e+01
    3680,   -1.666024e+01,    1.555556e+01,   -1.238090e+01
    3681,   -1.297778e+01,    1.555556e+01,   -1.267569e+01
    3682,   -1.287965e+01,    1.555556e+01,   -1.636961e+01
    3683,   -1.266446e+01,    1.555556e+01,   -2.022277e+01
    3684,   -8.769277e+00,    1.555556e+01,   -2.006644e+01
    3685,   -4.834281e+00,    1.555556e+01,   -1.968643e+01
    3686,   -7.972943e-01,    1.555556e+01,   -1.915056e+01
    3687,    3.342716e+00,    1.555556e+01,   -1.846399e+01
    3688,    7.486011e+00,    1.555556e+01,   -1.760938e+01
    3689,    1.186113e+01,    1.555556e+01,   -1.650747e+01
    3690,    1.625990e+01,    1.555556e+01,   -1.527754e+01
    3691,    2.040732e+01,    1.555556e+01,   -1.381863e+01
    3692,    2.431061e+01,    1.555556e+01,   -1.293101e+01
    3693,    2.825242e+01,    1.555556e+01,   -1.248018e+01
    3694,   -2.815075e+01,    1.555556e+01,   -2.806490e+01
    3695,   -2.820490e+01,    1.555556e+01,   -2.408056e+01
    3696,   -2.824369e+01,    1.555556e+01,   -2.008837e+01
    3697,   -2.825184e+01,    1.555556e+01,   -1.609231e+01
    3698,    2.848942e+01,    1.555556e+01,   -1.641873e+01
    3699,    2.868685e+01,    1.555556e+01,   -2.022711e+01
    3700,    2.855625e+01,    1.555556e+01,   -2.401984e+01
    3701,    2.837726e+01,    1.555556e+01,   -2.790630e+01
    3702,    2.451634e+01,    1.555556e+01,   -2.765203e+01
    3703,    2.069141e+01,    1.555556e+01,   -2.713403e+01
    3704,    1.667189e+01,    1.555556e+01,   -2.635339e+01
    3705,    1.238312e+01,    1.555556e+01,   -2.636243e+01
    3706,    8.154765e+00,    1.555556e+01,   -2.664113e+01
    3707,    3.967979e+00,    1.555556e+01,   -2.706137e+01
    3708,   -1.673856e-01,    1.555556e+01,   -2.744351e+01
    3709,   -4.249289e+00,    1.555556e+01,   -2.775387e+01
    3710,   -8.287866e+00,    1.555556e+01,   -2.796880e+01
    3711,   -1.229746e+01,    1.555556e+01,   -2.808248e+01
    3712,   -1.628430e+01,    1.555556e+01,   -2.811640e+01
    3713,   -2.025078e+01,    1.555556e+01,   -2.810617e+01
    3714,   -2.420374e+01,    1.555556e+01,   -2.808623e+01
    3715,   -1.666216e+01,    1.555556e+01,   -1.629514e+01
    3716,   -1.655734e+01,    1.555556e+01,   -2.022217e+01
    3717,   -1.641626e+01,    1.555556e+01,   -2.416168e+01
    3718,   -1.246127e+01,    1.555556e+01,   -2.412491e+01
    3719,   -8.489061e+00,    1.555556e+01,   -2.397315e+01
    3720,   -4.478439e+00,    1.555556e+01,   -2.367560e+01
    3721,   -3.990548e-01,    1.555556e+01,   -2.325239e+01
    3722,    3.758583e+00,    1.555556e+01,   -2.270783e+01
    3723,    7.994831e+00,    1.555556e+01,   -2.208453e+01
    3724,    1.249406e+01,    1.555556e+01,   -2.140399e+01
    3725,    1.749845e+01,    1.555556e+01,   -2.077788e+01
    3726,    2.122412e+01,    1.555556e+01,   -1.781483e+01
    3727,    2.479457e+01,    1.555556e+01,   -1.689246e+01
    3728,   -2.436292e+01,    1.555556e+01,   -1.613900e+01
    3729,   -2.048923e+01,    1.555556e+01,   -1.621063e+01
    3730,    2.528646e+01,    1.555556e+01,   -2.034120e+01
    3731,    2.490981e+01,    1.555556e+01,   -2.378897e+01
    3732,   -2.428118e+01,    1.555556e+01,   -2.410971e+01
    3733,   -2.433997e+01,    1.555556e+01,   -2.013038e+01
    3734,    2.137323e+01,    1.555556e+01,   -2.315172e+01
    3735,    2.257048e+01,    1.555556e+01,   -2.043818e+01
    3736,   -2.035498e+01,    1.555556e+01,   -2.414043e+01
    3737,   -2.043622e+01,    1.555556e+01,   -2.017628e+01
    3738,    1.035338e+01,    2.000000e+01,   -6.239661e+00
    3739,    1.543794e+01,    2.000000e+01,   -5.296863e+00
    3740,    1.979447e+01,    2.000000e+01,   -4.729876e+00
    3741,    2.393743e+01,    2.000000e+01,   -4.403914e+00
    3742,    2.799402e+01,    2.000000e+01,   -4.214100e+00
    3743,    3.201046e+01,    2.000000e+01,   -4.106555e+00
    3744,    3.600822e+01,    2.000000e+01,   -4.043703e+00
    3745,    3.603363e+01,    2.000000e+01,   -3.599565e+01
    3746,    3.206636e+01,    2.000000e+01,   -3.598076e+01
    3747,    2.809964e+01,    2.000000e+01,   -3.593847e+01
    3748,    2.412620e+01,    2.000000e+01,   -3.584023e+01
    3749,    2.014125e+01,    2.000000e+01,   -3.567464e+01
    3750,    1.614008e+01,    2.000000e+01,   -3.550916e+01
    3751,    1.210931e+01,    2.000000e+01,   -3.549320e+01
    3752,    8.067386e+00,    2.000000e+01,   -3.557565e+01
    3753,    4.018314e+00,    2.000000e+01,   -3.569426e+01
    3754,   -2.185552e-02,    2.000000e+01,   -3.581454e+01
    3755,   -4.049930e+00,    2.000000e+01,   -3.591278e+01
    3756,   -8.066805e+00,    2.000000e+01,   -3.598319e+01
    3757,   -1.207464e+01,    2.000000e+01,   -3.602514e+01
    3758,   -1.607607e+01,    2.000000e+01,   -3.603932e+01
    3759,   -2.007116e+01,    2.000000e+01,   -3.603858e+01
    3760,   -2.406112e+01,    2.000000e+01,   -3.603122e+01
    3761,   -2.804734e+01,    2.000000e+01,   -3.602356e+01
    3762,   -3.203121e+01,    2.000000e+01,   -3.601527e+01
    3763,   -3.601473e+01,    2.000000e+01,   -3.600728e+01
    3764,   -3.602582e+01,    2.000000e+01,   -4.010657e+00
    3765,   -3.204930e+01,    2.000000e+01,   -4.024200e+00
    3766,   -2.806748e+01,    2.000000e+01,   -4.042642e+00
    3767,   -2.406696e+01,    2.000000e+01,   -4.073720e+00
    3768,   -2.003270e+01,    2.000000e+01,   -4.147645e+00
    3769,   -1.591408e+01,    2.000000e+01,   -4.346095e+00
    3770,   -1.102871e+01,    2.000000e+01,   -5.208622e+00
    3771,    3.602988e+01,    2.000000e+01,   -8.076038e+00
    3772,    3.607704e+01,    2.000000e+01,   -1.209229e+01
    3773,    3.613444e+01,    2.000000e+01,   -1.608596e+01
    3774,    3.617567e+01,    2.000000e+01,   -2.005981e+01
    3775,    3.615918e+01,    2.000000e+01,   -2.402974e+01
    3776,    3.611786e+01,    2.000000e+01,   -2.800854e+01
    3777,    3.607315e+01,    2.000000e+01,   -3.199625e+01
    3778,   -3.603153e+01,    2.000000e+01,   -3.201490e+01
    3779,   -3.605004e+01,    2.000000e+01,   -2.802104e+01
    3780,   -3.606525e+01,    2.000000e+01,   -2.402789e+01
    3781,   -3.607824e+01,    2.000000e+01,   -2.003086e+01
    3782,   -3.608145e+01,    2.000000e+01,   -1.602970e+01
    3783,   -3.607165e+01,    2.000000e+01,   -1.202596e+01
    3784,   -3.605270e+01,    2.000000e+01,   -8.019129e+00
    3785,   -7.676420e+00,    2.000000e+01,   -8.483598e+00
    3786,   -6.292756e+00,    2.000000e+01,   -1.204892e+01
    3787,   -2.585946e+00,    2.000000e+01,   -1.130823e+01
    3788,    1.359922e+00,    2.000000e+01,   -1.094810e+01
    3789,    5.527334e+00,    2.000000e+01,   -9.659845e+00
    3790,   -3.210361e+01,    2.000000e+01,   -8.042339e+00
    3791,   -2.815510e+01,    2.000000e+01,   -8.071414e+00
    3792,   -2.421217e+01,    2.000000e+01,   -8.119311e+00
    3793,   -2.029000e+01,    2.000000e+01,   -8.213446e+00
    3794,   -1.639400e+01,    2.000000e+01,   -8.526873e+00
    3795,   -1.270903e+01,    2.000000e+01,   -9.124861e+00
    3796,   -1.001863e+01,    2.000000e+01,   -1.010961e+01
    3797,   -9.622448e+00,    2.000000e+01,   -1.280972e+01
    3798,   -9.151827e+00,    2.000000e+01,   -1.628220e+01
    3799,   -5.396329e+00,    2.000000e+01,   -1.578446e+01
    3800,   -1.447074e+00,    2.000000e+01,   -1.514390e+01
    3801,    2.476808e+00,    2.000000e+01,   -1.449494e+01
    3802,    6.692977e+00,    2.000000e+01,   -1.336327e+01
    3803,    1.116349e+01,    2.000000e+01,   -1.165195e+01
    3804,    1.565638e+01,    2.000000e+01,   -1.038855e+01
    3805,    1.991511e+01,    2.000000e+01,   -9.379810e+00
    3806,    2.403449e+01,    2.000000e+01,   -8.746451e+00
    3807,    2.807243e+01,    2.000000e+01,   -8.389235e+00
    3808,    3.206505e+01,    2.000000e+01,   -8.195069e+00
    3809,   -3.206475e+01,    2.000000e+01,   -3.203047e+01
    3810,   -3.209886e+01,    2.000000e+01,   -2.804457e+01
    3811,   -3.213310e+01,    2.000000e+01,   -2.405446e+01
    3812,   -3.215742e+01,    2.000000e+01,   -2.005855e+01
    3813,   -3.216365e+01,    2.000000e+01,   -1.605701e+01
    3814,   -3.214263e+01,    2.000000e+01,   -1.205265e+01
    3815,    3.216217e+01,    2.000000e+01,   -1.222571e+01
    3816,    3.229260e+01,    2.000000e+01,   -1.620179e+01
    3817,    3.238709e+01,    2.000000e+01,   -2.013122e+01
    3818,    3.233972e+01,    2.000000e+01,   -2.405016e+01
    3819,    3.224253e+01,    2.000000e+01,   -2.799413e+01
    3820,    3.214827e+01,    2.000000e+01,   -3.197185e+01
    3821,    2.822197e+01,    2.000000e+01,   -3.189704e+01
    3822,    2.428602e+01,    2.000000e+01,   -3.170823e+01
    3823,    2.033196e+01,    2.000000e+01,   -3.134567e+01
    3824,    1.633846e+01,    2.000000e+01,   -3.104956e+01
    3825,    1.224031e+01,    2.000000e+01,   -3.094010e+01
    3826,    8.123892e+00,    2.000000e+01,   -3.112419e+01
    3827,    4.018007e+00,    2.000000e+01,   -3.138206e+01
    3828,   -6.542876e-02,    2.000000e+01,   -3.162889e+01
    3829,   -4.124216e+00,    2.000000e+01,   -3.183011e+01
    3830,   -8.155029e+00,    2.000000e+01,   -3.197181e+01
    3831,   -1.216891e+01,    2.000000e+01,   -3.205153e+01
    3832,   -1.616803e+01,    2.000000e+01,   -3.207971e+01
    3833,   -2.015168e+01,    2.000000e+01,   -3.207489e+01
    3834,   -2.412672e+01,    2.000000e+01,   -3.206050e+01
    3835,   -2.809696e+01,    2.000000e+01,   -3.204531e+01
    3836,   -2.822439e+01,    2.000000e+01,   -1.208660e+01
    3837,   -2.432462e+01,    2.000000e+01,   -1.213923e+01
    3838,   -2.045791e+01,    2.000000e+01,   -1.222285e+01
    3839,   -1.666024e+01,    2.000000e+01,   -1.238090e+01
    3840,   -1.297778e+01,    2.000000e+01,   -1.267569e+01
    3841,   -1.287965e+01,    2.000000e+01,   -1.636961e+01
    3842,   -1.266446e+01,    2.000000e+01,   -2.022277e+01
    3843,   -8.769277e+00,    2.000000e+01,   -2.006644e+01
    3844,   -4.834281e+00,    2.000000e+01,   -1.968643e+01
    3845,   -7.972943e-01,    2.000000e+01,   -1.915056e+01
    3846,    3.342716e+00,    2.000000e+01,   -1.846399e+01
    3847,    7.486011e+00,    2.000000e+01,   -1.760938e+01
    3848,    1.186113e+01,    2.000000e+01,   -1.650747e+01
    3849,    1.625990e+01,    2.000000e+01,   -1.527754e+01
    3850,    2.040732e+01,    2.000000e+01,   -1.381863e+01
    3851,    2.431061e+01,    2.000000e+01,   -1.293101e+01
    3852,    2.825242e+01,    2.000000e+01,   -1.248018e+01
    3853,   -2.815075e+01,    2.000000e+01,   -2.806490e+01
    3854,   -2.820490e+01,    2.000000e+01,   -2.408056e+01
    3855,   -2.824369e+01,    2.000000e+01,   -2.008837e+01
    3856,   -2.825184e+01,    2.000000e+01,   -1.609231e+01
    3857,    2.848942e+01,    2.000000e+01,   -1.641873e+01
    3858,    2.868685e+01,    2.000000e+01,   -2.022711e+01
    3859,    2.855625e+01,    2.000000e+01,   -2.401984e+01
    3860,    2.837726e+01,    2.000000e+01,   -2.790630e+01
    3861,    2.451634e+01,    2.000000e+01,   -2.765203e+01
    3862,    2.069141e+01,    2.000000e+01,   -2.713403e+01
    3863,    1.667189e+01,    2.000000e+01,   -2.635339e+01
    3864,    1.238312e+01,    2.000000e+01,   -2.636243e+01
    3865,    8.154765e+00,    2.000000e+01,   -2.664113e+01
    3866,    3.967979e+00,    2.000000e+01,   -2.706137e+01
    3867,   -1.673856e-01,    2.000000e+01,   -2.744351e+01
    3868,   -4.249289e+00,    2.000000e+01,   -2.775387e+01
    3869,   -8.287866e+00,    2.000000e+01,   -2.796880e+01
    3870,   -1.229746e+01,    2.000000e+01,   -2.808248e+01
    3871,   -1.628430e+01,    2.000000e+01,   -2.811640e+01
    3872,   -2.025078e+01,    2.000000e+01,   -2.810617e+01
    3873,   -2.420374e+01,    2.000000e+01,   -2.808623e+01
    3874,   -1.666216e+01,    2.000000e+01,   -1.629514e+01
    3875,   -1.655734e+01,    2.000000e+01,   -2.022217e+01
    3876,   -1.641626e+01,    2.000000e+01,   -2.416168e+01
    3877,   -1.246127e+01,    2.000000e+01,   -2.412491e+01
    3878,   -8.489061e+00,    2.000000e+01,   -2.397315e+01
    3879,   -4.478439e+00,    2.000000e+01,   -2.367560e+01
    3880,   -3.990548e-01,    2.000000e+01,   -2.325239e+01
    3881,    3.758583e+00,    2.000000e+01,   -2.270783e+01
    3882,    7.994831e+00,    2.000000e+01,   -2.208453e+01
    3883,    1.249406e+01,    2.000000e+01,   -2.140399e+01
    3884,    1.749845e+01,    2.000000e+01,   -2.077788e+01
    3885,    2.122412e+01,    2.000000e+01,   -1.781483e+01
    3886,    2.479457e+01,    2.000000e+01,   -1.689246e+01
    3887,   -2.436292e+01,    2.000000e+01,   -1.613900e+01
    3888,   -2.048923e+01,    2.000000e+01,   -1.621063e+01
    3889,    2.528646e+01,    2.000000e+01,   -2.034120e+01
    3890,    2.490981e+01,    2.000000e+01,   -2.378897e+01
    3891,   -2.428118e+01,    2.000000e+01,   -2.410971e+01
    3892,   -2.433997e+01,    2.000000e+01,   -2.013038e+01
    3893,    2.137323e+01,    2.000000e+01,   -2.315172e+01
    3894,    2.257048e+01,    2.000000e+01,   -2.043818e+01
    3895,   -2.035498e+01,    2.000000e+01,   -2.414043e+01
    3896,   -2.043622e+01,    2.000000e+01,   -2.017628e+01
    3897,   -4.000000e+01,    0.000000e+00,    0.000000e+00
    3898,   -4.000000e+01,    3.333333e+00,    0.000000e+00
    3899,   -3.600000e+01,    0.000000e+00,    0.000000e+00
    3900,   -3.200000e+01,    0.000000e+00,    0.000000e+00
    3901,   -2.800000e+01,    0.000000e+00,    0.000000e+00
    3902,   -2.400000e+01,    0.000000e+00,    0.000000e+00
    3903,   -2.000000e+01,    0.000000e+00,    0.000000e+00
    3904,   -1.600000e+01,    0.000000e+00,    0.000000e+00
    3905,   -1.200000e+01,    0.000000e+00,    0.000000e+00
    3906,   -1.200000e+01,    3.333333e+00,    0.000000e+00
    3907,   -1.600000e+01,    3.333333e+00,    0.000000e+00
    3908,   -2.000000e+01,    3.333333e+00,    0.000000e+00
    3909,   -2.400000e+01,    3.333333e+00,    0.000000e+00
    3910,   -2.800000e+01,    3.333333e+00,    0.000000e+00
    3911,   -3.200000e+01,    3.333333e+00,    0.000000e+00
    3912,   -3.600000e+01,    3.333333e+00,    0.000000e+00
    3913,    4.000000e+01,    0.000000e+00,    0.000000e+00
    3914,    1.200000e+01,    0.000000e+00,    0.000000e+00
    3915,    1.600000e+01,    0.000000e+00,    0.000000e+00
    3916,    2.000000e+01,    0.000000e+00,    0.000000e+00
    3917,    2.400000e+01,    0.000000e+00,    0.000000e+00
    3918,    2.800000e+01,    0.000000e+00,    0.000000e+00
    3919,    3.200000e+01,    0.000000e+00,    0.000000e+00
    3920,    3.600000e+01,    0.000000e+00,    0.000000e+00
    3921,    4.000000e+01,    3.333333e+00,    0.000000e+00
    3922,    3.600000e+01,    3.333333e+00,    0.000000e+00
    3923,    3.200000e+01,    3.333333e+00,    0.000000e+00
    3924,    2.800000e+01,    3.333333e+00,    0.000000e+00
    3925,    2.400000e+01,    3.333333e+00,    0.000000e+00
    3926,    2.000000e+01,    3.333333e+00,    0.000000e+00
    3927,    1.600000e+01,    3.333333e+00,    0.000000e+00
    3928,    1.200000e+01,    3.333333e+00,    0.000000e+00
    3929,   -4.000000e+01,    0.000000e+00,   -4.000000e+01
    3930,   -4.000000e+01,    3.333333e+00,   -4.000000e+01
    3931,   -4.000000e+01,    0.000000e+00,   -4.000000e+00
    3932,   -4.000000e+01,    0.000000e+00,   -8.000000e+00
    3933,   -4.000000e+01,    0.000000e+00,   -1.200000e+01
    3934,   -4.000000e+01,    0.000000e+00,   -1.600000e+01
    3935,   -4.000000e+01,    0.000000e+00,   -2.000000e+01
    3936,   -4.000000e+01,    0.000000e+00,   -2.400000e+01
    3937,   -4.000000e+01,    0.000000e+00,   -2.800000e+01
    3938,   -4.000000e+01,    0.000000e+00,   -3.200000e+01
    3939,   -4.000000e+01,    0.000000e+00,   -3.600000e+01
    3940,   -4.000000e+01,    3.333333e+00,   -4.000000e+00
    3941,   -4.000000e+01,    3.333333e+00,   -8.000000e+00
    3942,   -4.000000e+01,    3.333333e+00,   -1.200000e+01
    3943,   -4.000000e+01,    3.333333e+00,   -1.600000e+01
    3944,   -4.000000e+01,    3.333333e+00,   -2.000000e+01
    3945,   -4.000000e+01,    3.333333e+00,   -2.400000e+01
    3946,   -4.000000e+01,    3.333333e+00,   -2.800000e+01
    3947,   -4.000000e+01,    3.333333e+00,   -3.200000e+01
    3948,   -4.000000e+01,    3.333333e+00,   -3.600000e+01
    3949,    4.000000e+01,    0.000000e+00,   -4.000000e+01
    3950,    4.000000e+01,    3.333333e+00,   -4.000000e+01
    3951,    3.600000e+01,    0.000000e+00,   -4.000000e+01
    3952,    3.200000e+01,    0.000000e+00,   -4.000000e+01
    3953,    2.800000e+01,    0.000000e+00,   -4.000000e+01
    3954,    2.400000e+01,    0.000000e+00,   -4.000000e+01
    3955,    2.000000e+01,    0.000000e+00,   -4.000000e+01
    3956,    1.600000e+01,    0.000000e+00,   -4.000000e+01
    3957,    1.200000e+01,    0.000000e+00,   -4.000000e+01
    3958,    8.000000e+00,    0.000000e+00,   -4.000000e+01
    3959,    4.000000e+00,    0.000000e+00,   -4.000000e+01
    3960,    0.000000e+00,    0.000000e+00,   -4.000000e+01
    3961,   -4.000000e+00,    0.000000e+00,   -4.000000e+01
    3962,   -8.000000e+00,    0.000000e+00,   -4.000000e+01
    3963,   -1.200000e+01,    0.000000e+00,   -4.000000e+01
    3964,   -1.600000e+01,    0.000000e+00,   -4.000000e+01
    3965,   -2.000000e+01,    0.000000e+00,   -4.000000e+01
    3966,   -2.400000e+01,    0.000000e+00,   -4.000000e+01
    3967,   -2.800000e+01,    0.000000e+00,   -4.000000e+01
    3968,   -3.200000e+01,    0.000000e+00,   -4.000000e+01
    3969,   -3.600000e+01,    0.000000e+00,   -4.000000e+01
    3970,   -3.600000e+01,    3.333333e+00,   -4.000000e+01
    3971,   -3.200000e+01,    3.333333e+00,   -4.000000e+01
    3972,   -2.800000e+01,    3.333333e+00,   -4.000000e+01
    3973,   -2.400000e+01,    3.333333e+00,   -4.000000e+01
    3974,   -2.000000e+01,    3.333333e+00,   -4.000000e+01
    3975,   -1.600000e+01,    3.333333e+00,   -4.000000e+01
    3976,   -1.200000e+01,    3.333333e+00,   -4.000000e+01
    3977,   -8.000000e+00,    3.333333e+00,   -4.000000e+01
    3978,   -4.000000e+00,    3.333333e+00,   -4.000000e+01
    3979,    1.776357e-15,    3.333333e+00,   -4.000000e+01
    3980,    4.000000e+00,    3.333333e+00,   -4.000000e+01
    3981,    8.000000e+00,    3.333333e+00,   -4.000000e+01
    3982,    1.200000e+01,    3.333333e+00,   -4.000000e+01
    3983,    1.600000e+01,    3.333333e+00,   -4.000000e+01
    3984,    2.000000e+01,    3.333333e+00,   -4.000000e+01
    3985,    2.400000e+01,    3.333333e+00,   -4.000000e+01
    3986,    2.800000e+01,    3.333333e+00,   -4.000000e+01
    3987,    3.200000e+01,    3.333333e+00,   -4.000000e+01
    3988,    3.600000e+01,    3.333333e+00,   -4.000000e+01
    3989,    4.000000e+01,    0.000000e+00,   -4.000000e+00
    3990,    4.000000e+01,    0.000000e+00,   -8.000000e+00
    3991,    4.000000e+01,    0.000000e+00,   -1.200000e+01
    3992,    4.000000e+01,    0.000000e+00,   -1.600000e+01
    3993,    4.000000e+01,    0.000000e+00,   -2.000000e+01
    3994,    4.000000e+01,    0.000000e+00,   -2.400000e+01
    3995,    4.000000e+01,    0.000000e+00,   -2.800000e+01
    3996,    4.000000e+01,    0.000000e+00,   -3.200000e+01
    3997,    4.000000e+01,    0.000000e+00,   -3.600000e+01
    3998,    4.000000e+01,    3.333333e+00,   -4.000000e+00
    3999,    4.000000e+01,    3.333333e+00,   -8.000000e+00
    4000,    4.000000e+01,    3.333333e+00,   -1.200000e+01
    4001,    4.000000e+01,    3.333333e+00,   -1.600000e+01
    4002,    4.000000e+01,    3.333333e+00,   -2.000000e+01
    4003,    4.000000e+01,    3.333333e+00,   -2.400000e+01
    4004,    4.000000e+01,    3.333333e+00,   -2.800000e+01
    4005,    4.000000e+01,    3.333333e+00,   -3.200000e+01
    4006,    4.000000e+01,    3.333333e+00,   -3.600000e+01
    4007,    1.035338e+01,    3.333333e+00,   -6.239661e+00
    4008,    1.543794e+01,    3.333333e+00,   -5.296863e+00
    4009,    1.979447e+01,    3.333333e+00,   -4.729876e+00
    4010,    2.393743e+01,    3.333333e+00,   -4.403914e+00
    4011,    2.799402e+01,    3.333333e+00,   -4.214100e+00
    4012,    3.201046e+01,    3.333333e+00,   -4.106555e+00
    4013,    3.600822e+01,    3.333333e+00,   -4.043703e+00
    4014,    3.603363e+01,    3.333333e+00,   -3.599565e+01
    4015,    3.206636e+01,    3.333333e+00,   -3.598076e+01
    4016,    2.809964e+01,    3.333333e+00,   -3.593847e+01
    4017,    2.412620e+01,    3.333333e+00,   -3.584023e+01
    4018,    2.014125e+01,    3.333333e+00,   -3.567464e+01
    4019,    1.614008e+01,    3.333333e+00,   -3.550916e+01
    4020,    1.210931e+01,    3.333333e+00,   -3.549320e+01
    4021,    8.067386e+00,    3.333333e+00,   -3.557565e+01
    4022,    4.018314e+00,    3.333333e+00,   -3.569426e+01
    4023,   -2.185552e-02,    3.333333e+00,   -3.581454e+01
    4024,   -4.049930e+00,    3.333333e+00,   -3.591278e+01
    4025,   -8.066805e+00,    3.333333e+00,   -3.598319e+01
    4026,   -1.207464e+01,    3.333333e+00,   -3.602514e+01
    4027,   -1.607607e+01,    3.333333e+00,   -3.603932e+01
    4028,   -2.007116e+01,    3.333333e+00,   -3.603858e+01
    4029,   -2.406112e+01,    3.333333e+00,   -3.603122e+01
    4030,   -2.804734e+01,    3.333333e+00,   -3.602356e+01
    4031,   -3.203121e+01,    3.333333e+00,   -3.601527e+01
    4032,   -3.601473e+01,    3.333333e+00,   -3.600728e+01
    4033,   -3.602582e+01,    3.333333e+00,   -4.010657e+00
    4034,   -3.204930e+01,    3.333333e+00,   -4.024200e+00
    4035,   -2.806748e+01,    3.333333e+00,   -4.042642e+00
    4036,   -2.406696e+01,    3.333333e+00,   -4.073720e+00
    4037,   -2.003270e+01,    3.333333e+00,   -4.147645e+00
    4038,   -1.591408e+01,    3.333333e+00,   -4.346095e+00
    4039,   -1.102871e+01,    3.333333e+00,   -5.208622e+00
    4040,    3.602988e+01,    3.333333e+00,   -8.076038e+00
    4041,    3.607704e+01,    3.333333e+00,   -1.209229e+01
    4042,    3.613444e+01,    3.333333e+00,   -1.608596e+01
    4043,    3.617567e+01,    3.333333e+00,   -2.005981e+01
    4044,    3.615918e+01,    3.333333e+00,   -2.402974e+01
    4045,    3.611786e+01,    3.333333e+00,   -2.800854e+01
    4046,    3.607315e+01,    3.333333e+00,   -3.199625e+01
    4047,   -3.603153e+01,    3.333333e+00,   -3.201490e+01
    4048,   -3.605004e+01,    3.333333e+00,   -2.802104e+01
    4049,   -3.606525e+01,    3.333333e+00,   -2.402789e+01
    4050,   -3.607824e+01,    3.333333e+00,   -2.003086e+01
    4051,   -3.608145e+01,    3.333333e+00,   -1.602970e+01
    4052,   -3.607165e+01,    3.333333e+00,   -1.202596e+01
    4053,   -3.605270e+01,    3.333333e+00,   -8.019129e+00
    4054,   -7.676420e+00,    3.333333e+00,   -8.483598e+00
    4055,   -2.585946e+00,    3.333333e+00,   -1.130823e+01
    4056,   -6.292756e+00,    3.333333e+00,   -1.204892e+01
    4057,    1.359922e+00,    3.333333e+00,   -1.094810e+01
    4058,    5.527334e+00,    3.333333e+00,   -9.659845e+00
    4059,   -3.210361e+01,    3.333333e+00,   -8.042339e+00
    4060,   -2.815510e+01,    3.333333e+00,   -8.071414e+00
    4061,   -2.421217e+01,    3.333333e+00,   -8.119311e+00
    4062,   -2.029000e+01,    3.333333e+00,   -8.213446e+00
    4063,   -1.639400e+01,    3.333333e+00,   -8.526873e+00
    4064,   -1.270903e+01,    3.333333e+00,   -9.124861e+00
    4065,   -1.001863e+01,    3.333333e+00,   -1.010961e+01
    4066,   -9.622448e+00,    3.333333e+00,   -1.280972e+01
    4067,   -5.396329e+00,    3.333333e+00,   -1.578446e+01
    4068,   -9.151827e+00,    3.333333e+00,   -1.628220e+01
    4069,   -1.447074e+00,    3.333333e+00,   -1.514390e+01
    4070,    2.476808e+00,    3.333333e+00,   -1.449494e+01
    4071,    6.692977e+00,    3.333333e+00,   -1.336327e+01
    4072,    1.116349e+01,    3.333333e+00,   -1.165195e+01
    4073,    1.565638e+01,    3.333333e+00,   -1.038855e+01
    4074,    1.991511e+01,    3.333333e+00,   -9.379810e+00
    4075,    2.403449e+01,    3.333333e+00,   -8.746451e+00
    4076,    2.807243e+01,    3.333333e+00,   -8.389235e+00
    4077,    3.206505e+01,    3.333333e+00,   -8.195069e+00
    4078,   -3.206475e+01,    3.333333e+00,   -3.203047e+01
    4079,   -3.209886e+01,    3.333333e+00,   -2.804457e+01
    4080,   -3.213310e+01,    3.333333e+00,   -2.405446e+01
    4081,   -3.215742e+01,    3.333333e+00,   -2.005855e+01
    4082,   -3.216365e+01,    3.333333e+00,   -1.605701e+01
    4083,   -3.214263e+01,    3.333333e+00,   -1.205265e+01
    4084,    3.216217e+01,    3.333333e+00,   -1.222571e+01
    4085,    3.229260e+01,    3.333333e+00,   -1.620179e+01
    4086,    3.238709e+01,    3.333333e+00,   -2.013122e+01
    4087,    3.233972e+01,    3.333333e+00,   -2.405016e+01
    4088,    3.224253e+01,    3.333333e+00,   -2.799413e+01
    4089,    3.214827e+01,    3.333333e+00,   -3.197185e+01
    4090,    2.822197e+01,    3.333333e+00,   -3.189704e+01
    4091,    2.428602e+01,    3.333333e+00,   -3.170823e+01
    4092,    2.033196e+01,    3.333333e+00,   -3.134567e+01
    4093,    1.633846e+01,    3.333333e+00,   -3.104956e+01
    4094,    1.224031e+01,    3.333333e+00,   -3.094010e+01
    4095,    8.123892e+00,    3.333333e+00,   -3.112419e+01
    4096,    4.018007e+00,    3.333333e+00,   -3.138206e+01
    4097,   -6.542876e-02,    3.333333e+00,   -3.162889e+01
    4098,   -4.124216e+00,    3.333333e+00,   -3.183011e+01
    4099,   -8.155029e+00,    3.333333e+00,   -3.197181e+01
    4100,   -1.216891e+01,    3.333333e+00,   -3.205153e+01
    4101,   -1.616803e+01,    3.333333e+00,   -3.207971e+01
    4102,   -2.015168e+01,    3.333333e+00,   -3.207489e+01
    4103,   -2.412672e+01,    3.333333e+00,   -3.206050e+01
    4104,   -2.809696e+01,    3.333333e+00,   -3.204531e+01
    4105,   -2.822439e+01,    3.333333e+00,   -1.208660e+01
    4106,   -2.432462e+01,    3.333333e+00,   -1.213923e+01
    4107,   -2.045791e+01,    3.333333e+00,   -1.222285e+01
    4108,   -1.666024e+01,    3.333333e+00,   -1.238090e+01
    4109,   -1.297778e+01,    3.333333e+00,   -1.267569e+01
    4110,   -1.287965e+01,    3.333333e+00,   -1.636961e+01
    4111,   -8.769277e+00,    3.333333e+00,   -2.006644e+01
    4112,   -1.266446e+01,    3.333333e+00,   -2.022277e+01
    4113,   -4.834281e+00,    3.333333e+00,   -1.968643e+01
    4114,   -7.972943e-01,    3.333333e+00,   -1.915056e+01
    4115,    3.342716e+00,    3.333333e+00,   -1.846399e+01
    4116,    7.486011e+00,    3.333333e+00,   -1.760938e+01
    4117,    1.186113e+01,    3.333333e+00,   -1.650747e+01
    4118,    1.625990e+01,    3.333333e+00,   -1.527754e+01
    4119,    2.040732e+01,    3.333333e+00,   -1.381863e+01
    4120,    2.431061e+01,    3.333333e+00,   -1.293101e+01
    4121,    2.825242e+01,    3.333333e+00,   -1.248018e+01
    4122,   -2.815075e+01,    3.333333e+00,   -2.806490e+01
    4123,   -2.820490e+01,    3.333333e+00,   -2.408056e+01
    4124,   -2.824369e+01,    3.333333e+00,   -2.008837e+01
    4125,   -2.825184e+01,    3.333333e+00,   -1.609231e+01
    4126,    2.848942e+01,    3.333333e+00,   -1.641873e+01
    4127,    2.868685e+01,    3.333333e+00,   -2.022711e+01
    4128,    2.855625e+01,    3.333333e+00,   -2.401984e+01
    4129,    2.837726e+01,    3.333333e+00,   -2.790630e+01
    4130,    2.451634e+01,    3.333333e+00,   -2.765203e+01
    4131,    2.069141e+01,    3.333333e+00,   -2.713403e+01
    4132,    1.667189e+01,    3.333333e+00,   -2.635339e+01
    4133,    1.238312e+01,    3.333333e+00,   -2.636243e+01
    4134,    8.154765e+00,    3.333333e+00,   -2.664113e+01
    4135,    3.967979e+00,    3.333333e+00,   -2.706137e+01
    4136,   -1.673856e-01,    3.333333e+00,   -2.744351e+01
    4137,   -4.249289e+00,    3.333333e+00,   -2.775387e+01
    4138,   -8.287866e+00,    3.333333e+00,   -2.796880e+01
    4139,   -1.229746e+01,    3.333333e+00,   -2.808248e+01
    4140,   -1.628430e+01,    3.333333e+00,   -2.811640e+01
    4141,   -2.025078e+01,    3.333333e+00,   -2.810617e+01
    4142,   -2.420374e+01,    3.333333e+00,   -2.808623e+01
    4143,   -1.666216e+01,    3.333333e+00,   -1.629514e+01
    4144,   -1.655734e+01,    3.333333e+00,   -2.022217e+01
    4145,   -1.246127e+01,    3.333333e+00,   -2.412491e+01
    4146,   -1.641626e+01,    3.333333e+00,   -2.416168e+01
    4147,   -8.489061e+00,    3.333333e+00,   -2.397315e+01
    4148,   -4.478439e+00,    3.333333e+00,   -2.367560e+01
    4149,   -3.990548e-01,    3.333333e+00,   -2.325239e+01
    4150,    3.758583e+00,    3.333333e+00,   -2.270783e+01
    4151,    7.994831e+00,    3.333333e+00,   -2.208453e+01
    4152,    1.249406e+01,    3.333333e+00,   -2.140399e+01
    4153,    1.749845e+01,    3.333333e+00,   -2.077788e+01
    4154,    2.122412e+01,    3.333333e+00,   -1.781483e+01
    4155,    2.479457e+01,    3.333333e+00,   -1.689246e+01
    4156,   -2.436292e+01,    3.333333e+00,   -1.613900e+01
    4157,   -2.048923e+01,    3.333333e+00,   -1.621063e+01
    4158,    2.528646e+01,    3.333333e+00,   -2.034120e+01
    4159,    2.490981e+01,    3.333333e+00,   -2.378897e+01
    4160,   -2.428118e+01,    3.333333e+00,   -2.410971e+01
    4161,   -2.433997e+01,    3.333333e+00,   -2.013038e+01
    4162,    2.137323e+01,    3.333333e+00,   -2.315172e+01
    4163,    2.257048e+01,    3.333333e+00,   -2.043818e+01
    4164,   -2.035498e+01,    3.333333e+00,   -2.414043e+01
    4165,   -2.043622e+01,    3.333333e+00,   -2.017628e+01
    4166,    1.035338e+01,    0.000000e+00,   -6.239661e+00
    4167,    1.543794e+01,    0.000000e+00,   -5.296863e+00
    4168,    1.979447e+01,    0.000000e+00,   -4.729876e+00
    4169,    2.393743e+01,    0.000000e+00,   -4.403914e+00
    4170,    2.799402e+01,    0.000000e+00,   -4.214100e+00
    4171,    3.201046e+01,    0.000000e+00,   -4.106555e+00
    4172,    3.600822e+01,    0.000000e+00,   -4.043703e+00
    4173,    3.603363e+01,    0.000000e+00,   -3.599565e+01
    4174,    3.206636e+01,    0.000000e+00,   -3.598076e+01
    4175,    2.809964e+01,    0.000000e+00,   -3.593847e+01
    4176,    2.412620e+01,    0.000000e+00,   -3.584023e+01
    4177,    2.014125e+01,    0.000000e+00,   -3.567464e+01
    4178,    1.614008e+01,    0.000000e+00,   -3.550916e+01
    4179,    1.210931e+01,    0.000000e+00,   -3.549320e+01
    4180,    8.067386e+00,    0.000000e+00,   -3.557565e+01
    4181,    4.018314e+00,    0.000000e+00,   -3.569426e+01
    4182,   -2.185552e-02,    0.000000e+00,   -3.581454e+01
    4183,   -4.049930e+00,    0.000000e+00,   -3.591278e+01
    4184,   -8.066805e+00,    0.000000e+00,   -3.598319e+01
    4185,   -1.207464e+01,    0.000000e+00,   -3.602514e+01
    4186,   -1.607607e+01,    0.000000e+00,   -3.603932e+01
    4187,   -2.007116e+01,    0.000000e+00,   -3.603858e+01
    4188,   -2.406112e+01,    0.000000e+00,   -3.603122e+01
    4189,   -2.804734e+01,    0.000000e+00,   -3.602356e+01
    4190,   -3.203121e+01,    0.000000e+00,   -3.601527e+01
    4191,   -3.601473e+01,    0.000000e+00,   -3.600728e+01
    4192,   -3.602582e+01,    0.000000e+00,   -4.010657e+00
    4193,   -3.204930e+01,    0.000000e+00,   -4.024200e+00
    4194,   -2.806748e+01,    0.000000e+00,   -4.042642e+00
    4195,   -2.406696e+01,    0.000000e+00,   -4.073720e+00
    4196,   -2.003270e+01,    0.000000e+00,   -4.147645e+00
    4197,   -1.591408e+01,    0.000000e+00,   -4.346095e+00
    4198,   -1.102871e+01,    0.000000e+00,   -5.208622e+00
    4199,    3.602988e+01,    0.000000e+00,   -8.076038e+00
    4200,    3.607704e+01,    0.000000e+00,   -1.209229e+01
    4201,    3.613444e+01,    0.000000e+00,   -1.608596e+01
    4202,    3.617567e+01,    0.000000e+00,   -2.005981e+01
    4203,    3.615918e+01,    0.000000e+00,   -2.402974e+01
    4204,    3.611786e+01,    0.000000e+00,   -2.800854e+01
    4205,    3.607315e+01,    0.000000e+00,   -3.199625e+01
    4206,   -3.603153e+01,    0.000000e+00,   -3.201490e+01
    4207,   -3.605004e+01,    0.000000e+00,   -2.802104e+01
    4208,   -3.606525e+01,    0.000000e+00,   -2.402789e+01
    4209,   -3.607824e+01,    0.000000e+00,   -2.003086e+01
    4210,   -3.608145e+01,    0.000000e+00,   -1.602970e+01
    4211,   -3.607165e+01,    0.000000e+00,   -1.202596e+01
    4212,   -3.605270e+01,    0.000000e+00,   -8.019129e+00
    4213,   -7.676420e+00,    0.000000e+00,   -8.483598e+00
    4214,   -2.585946e+00,    0.000000e+00,   -1.130823e+01
    4215,   -6.292756e+00,    0.000000e+00,   -1.204892e+01
    4216,    1.359922e+00,    0.000000e+00,   -1.094810e+01
    4217,    5.527334e+00,    0.000000e+00,   -9.659845e+00
    4218,   -3.210361e+01,    0.000000e+00,   -8.042339e+00
    4219,   -2.815510e+01,    0.000000e+00,   -8.071414e+00
    4220,   -2.421217e+01,    0.000000e+00,   -8.119311e+00
    4221,   -2.029000e+01,    0.000000e+00,   -8.213446e+00
    4222,   -1.639400e+01,    0.000000e+00,   -8.526873e+00
    4223,   -1.270903e+01,    0.000000e+00,   -9.124861e+00
    4224,   -1.001863e+01,    0.000000e+00,   -1.010961e+01
    4225,   -9.622448e+00,    0.000000e+00,   -1.280972e+01
    4226,   -5.396329e+00,    0.000000e+00,   -1.578446e+01
    4227,   -9.151827e+00,    0.000000e+00,   -1.628220e+01
    4228,   -1.447074e+00,    0.000000e+00,   -1.514390e+01
    4229,    2.476808e+00,    0.000000e+00,   -1.449494e+01
    4230,    6.692977e+00,    0.000000e+00,   -1.336327e+01
    4231,    1.116349e+01,    0.000000e+00,   -1.165195e+01
    4232,    1.565638e+01,    0.000000e+00,   -1.038855e+01
    4233,    1.991511e+01,    0.000000e+00,   -9.379810e+00
    4234,    2.403449e+01,    0.000000e+00,   -8.746451e+00
    4235,    2.807243e+01,    0.000000e+00,   -8.389235e+00
    4236,    3.206505e+01,    0.000000e+00,   -8.195069e+00
    4237,   -3.206475e+01,    0.000000e+00,   -3.203047e+01
    4238,   -3.209886e+01,    0.000000e+00,   -2.804457e+01
    4239,   -3.213310e+01,    0.000000e+00,   -2.405446e+01
    4240,   -3.215742e+01,    0.000000e+00,   -2.005855e+01
    4241,   -3.216365e+01,    0.000000e+00,   -1.605701e+01
    4242,   -3.214263e+01,    0.000000e+00,   -1.205265e+01
    4243,    3.216217e+01,    0.000000e+00,   -1.222571e+01
    4244,    3.229260e+01,    0.000000e+00,   -1.620179e+01
    4245,    3.238709e+01,    0.000000e+00,   -2.013122e+01
    4246,    3.233972e+01,    0.000000e+00,   -2.405016e+01
    4247,    3.224253e+01,    0.000000e+00,   -2.799413e+01
    4248,    3.214827e+01,    0.000000e+00,   -3.197185e+01
    4249,    2.822197e+01,    0.000000e+00,   -3.189704e+01
    4250,    2.428602e+01,    0.000000e+00,   -3.170823e+01
    4251,    2.033196e+01,    0.000000e+00,   -3.134567e+01
    4252,    1.633846e+01,    0.000000e+00,   -3.104956e+01
    4253,    1.224031e+01,    0.000000e+00,   -3.094010e+01
    4254,    8.123892e+00,    0.000000e+00,   -3.112419e+01
    4255,    4.018007e+00,    0.000000e+00,   -3.138206e+01
    4256,   -6.542876e-02,    0.000000e+00,   -3.162889e+01
    4257,   -4.124216e+00,    0.000000e+00,   -3.183011e+01
    4258,   -8.155029e+00,    0.000000e+00,   -3.197181e+01
    4259,   -1.216891e+01,    0.000000e+00,   -3.205153e+01
    4260,   -1.616803e+01,    0.000000e+00,   -3.207971e+01
    4261,   -2.015168e+01,    0.000000e+00,   -3.207489e+01
    4262,   -2.412672e+01,    0.000000e+00,   -3.206050e+01
    4263,   -2.809696e+01,    0.000000e+00,   -3.204531e+01
    4264,   -2.822439e+01,    0.000000e+00,   -1.208660e+01
    4265,   -2.432462e+01,    0.000000e+00,   -1.213923e+01
    4266,   -2.045791e+01,    0.000000e+00,   -1.222285e+01
    4267,   -1.666024e+01,    0.000000e+00,   -1.238090e+01
    4268,   -1.297778e+01,    0.000000e+00,   -1.267569e+01
    4269,   -1.287965e+01,    0.000000e+00,   -1.636961e+01
    4270,   -8.769277e+00,    0.000000e+00,   -2.006644e+01
    4271,   -1.266446e+01,    0.000000e+00,   -2.022277e+01
    4272,   -4.834281e+00,    0.000000e+00,   -1.968643e+01
    4273,   -7.972943e-01,    0.000000e+00,   -1.915056e+01
    4274,    3.342716e+00,    0.000000e+00,   -1.846399e+01
    4275,    7.486011e+00,    0.000000e+00,   -1.760938e+01
    4276,    1.186113e+01,    0.000000e+00,   -1.650747e+01
    4277,    1.625990e+01,    0.000000e+00,   -1.527754e+01
    4278,    2.040732e+01,    0.000000e+00,   -1.381863e+01
    4279,    2.431061e+01,    0.000000e+00,   -1.293101e+01
    4280,    2.825242e+01,    0.000000e+00,   -1.248018e+01
    4281,   -2.815075e+01,    0.000000e+00,   -2.806490e+01
    4282,   -2.820490e+01,    0.000000e+00,   -2.408056e+01
    4283,   -2.824369e+01,    0.000000e+00,   -2.008837e+01
    4284,   -2.825184e+01,    0.000000e+00,   -1.609231e+01
    4285,    2.848942e+01,    0.000000e+00,   -1.641873e+01
    4286,    2.868685e+01,    0.000000e+00,   -2.022711e+01
    4287,    2.855625e+01,    0.000000e+00,   -2.401984e+01
    4288,    2.837726e+01,    0.000000e+00,   -2.790630e+01
    4289,    2.451634e+01,    0.000000e+00,   -2.765203e+01
    4290,    2.069141e+01,    0.000000e+00,   -2.713403e+01
    4291,    1.667189e+01,    0.000000e+00,   -2.635339e+01
    4292,    1.238312e+01,    0.000000e+00,   -2.636243e+01
    4293,    8.154765e+00,    0.000000e+00,   -2.664113e+01
    4294,    3.967979e+00,    0.000000e+00,   -2.706137e+01
    4295,   -1.673856e-01,    0.000000e+00,   -2.744351e+01
    4296,   -4.249289e+00,    0.000000e+00,   -2.775387e+01
    4297,   -8.287866e+00,    0.000000e+00,   -2.796880e+01
    4298,   -1.229746e+01,    0.000000e+00,   -2.808248e+01
    4299,   -1.628430e+01,    0.000000e+00,   -2.811640e+01
    4300,   -2.025078e+01,    0.000000e+00,   -2.810617e+01
    4301,   -2.420374e+01,    0.000000e+00,   -2.808623e+01
    4302,   -1.666216e+01,    0.000000e+00,   -1.629514e+01
    4303,   -1.655734e+01,    0.000000e+00,   -2.022217e+01
    4304,   -1.246127e+01,    0.000000e+00,   -2.412491e+01
    4305,   -1.641626e+01,    0.000000e+00,   -2.416168e+01
    4306,   -8.489061e+00,    0.000000e+00,   -2.397315e+01
    4307,   -4.478439e+00,    0.000000e+00,   -2.367560e+01
    4308,   -3.990548e-01,    0.000000e+00,   -2.325239e+01
    4309,    3.758583e+00,    0.000000e+00,   -2.270783e+01
    4310,    7.994831e+00,    0.000000e+00,   -2.208453e+01
    4311,    1.249406e+01,    0.000000e+00,   -2.140399e+01
    4312,    1.749845e+01,    0.000000e+00,   -2.077788e+01
    4313,    2.122412e+01,    0.000000e+00,   -1.781483e+01
    4314,    2.479457e+01,    0.000000e+00,   -1.689246e+01
    4315,   -2.436292e+01,    0.000000e+00,   -1.613900e+01
    4316,   -2.048923e+01,    0.000000e+00,   -1.621063e+01
    4317,    2.528646e+01,    0.000000e+00,   -2.034120e+01
    4318,    2.490981e+01,    0.000000e+00,   -2.378897e+01
    4319,   -2.428118e+01,    0.000000e+00,   -2.410971e+01
    4320,   -2.433997e+01,    0.000000e+00,   -2.013038e+01
    4321,    2.137323e+01,    0.000000e+00,   -2.315172e+01
    4322,    2.257048e+01,    0.000000e+00,   -2.043818e+01
    4323,   -2.035498e+01,    0.000000e+00,   -2.414043e+01
    4324,   -2.043622e+01,    0.000000e+00,   -2.017628e+01
    6047,   -9.000000e+00,    1.874700e-31,    0.000000e+00
    6048,   -9.000000e+00,   -1.000000e+02,    0.000000e+00
    6049,   -9.000000e+00,   -4.000000e+00,   -2.816688e-15
    6050,   -9.000000e+00,   -8.000000e+00,   -2.571758e-15
    6051,   -9.000000e+00,   -1.200000e+01,   -2.326829e-15
    6052,   -9.000000e+00,   -1.600000e+01,   -2.081900e-15
    6053,   -9.000000e+00,   -2.000000e+01,   -1.836970e-15
    6054,   -9.000000e+00,   -2.400000e+01,   -1.592041e-15
    6055,   -9.000000e+00,   -2.800000e+01,   -1.347111e-15
    6056,   -9.000000e+00,   -3.200000e+01,   -1.102182e-15
    6057,   -9.000000e+00,   -3.600000e+01,   -8.572528e-16
    6058,   -9.000000e+00,   -4.000000e+01,   -6.123234e-16
    6059,   -9.000000e+00,   -4.400000e+01,   -3.673940e-16
    6060,   -9.000000e+00,   -4.800000e+01,   -1.224647e-16
    6061,   -9.000000e+00,   -5.200000e+01,    1.224647e-16
    6062,   -9.000000e+00,   -5.600000e+01,    3.673940e-16
    6063,   -9.000000e+00,   -6.000000e+01,    6.123234e-16
    6064,   -9.000000e+00,   -6.400000e+01,    8.572528e-16
    6065,   -9.000000e+00,   -6.800000e+01,    1.102182e-15
    6066,   -9.000000e+00,   -7.200000e+01,    1.347111e-15
    6067,   -9.000000e+00,   -7.600000e+01,    1.592041e-15
    6068,   -9.000000e+00,   -8.000000e+01,    1.836970e-15
    6069,   -9.000000e+00,   -8.400000e+01,    2.081900e-15
    6070,   -9.000000e+00,   -8.800000e+01,    2.326829e-15
    6071,   -9.000000e+00,   -9.200000e+01,    2.571758e-15
    6072,   -9.000000e+00,   -9.600000e+01,    2.816688e-15
    6073,   -8.000000e+00,   -1.000000e+02,    0.000000e+00
    6074,   -8.000000e+00,    1.874700e-31,    0.000000e+00
    6075,   -8.000000e+00,   -9.600000e+01,    2.816688e-15
    6076,   -8.000000e+00,   -9.200000e+01,    2.571758e-15
    6077,   -8.000000e+00,   -8.800000e+01,    2.326829e-15
    6078,   -8.000000e+00,   -8.400000e+01,    2.081900e-15
    6079,   -8.000000e+00,   -8.000000e+01,    1.836970e-15
    6080,   -8.000000e+00,   -7.600000e+01,    1.592041e-15
    6081,   -8.000000e+00,   -7.200000e+01,    1.347111e-15
    6082,   -8.000000e+00,   -6.800000e+01,    1.102182e-15
    6083,   -8.000000e+00,   -6.400000e+01,    8.572528e-16
    6084,   -8.000000e+00,   -6.000000e+01,    6.123234e-16
    6085,   -8.000000e+00,   -5.600000e+01,    3.673940e-16
    6086,   -8.000000e+00,   -5.200000e+01,    1.224647e-16
    6087,   -8.000000e+00,   -4.800000e+01,   -1.224647e-16
    6088,   -8.000000e+00,   -4.400000e+01,   -3.673940e-16
    6089,   -8.000000e+00,   -4.000000e+01,   -6.123234e-16
    6090,   -8.000000e+00,   -3.600000e+01,   -8.572528e-16
    6091,   -8.000000e+00,   -3.200000e+01,   -1.102182e-15
    6092,   -8.000000e+00,   -2.800000e+01,   -1.347111e-15
    6093,   -8.000000e+00,   -2.400000e+01,   -1.592041e-15
    6094,   -8.000000e+00,   -2.000000e+01,   -1.836970e-15
    6095,   -8.000000e+00,   -1.600000e+01,   -2.081900e-15
    6096,   -8.000000e+00,   -1.200000e+01,   -2.326829e-15
    6097,   -8.000000e+00,   -8.000000e+00,   -2.571758e-15
    6098,   -8.000000e+00,   -4.000000e+00,   -2.816688e-15
    6099,    9.000000e+00,   -1.000000e+02,    3.061617e-15
    6100,    9.000000e+00,    0.000000e+00,   -3.061617e-15
    6101,    9.000000e+00,   -9.600000e+01,    2.816688e-15
    6102,    9.000000e+00,   -9.200000e+01,    2.571758e-15
    6103,    9.000000e+00,   -8.800000e+01,    2.326829e-15
    6104,    9.000000e+00,   -8.400000e+01,    2.081900e-15
    6105,    9.000000e+00,   -8.000000e+01,    1.836970e-15
    6106,    9.000000e+00,   -7.600000e+01,    1.592041e-15
    6107,    9.000000e+00,   -7.200000e+01,    1.347111e-15
    6108,    9.000000e+00,   -6.800000e+01,    1.102182e-15
    6109,    9.000000e+00,   -6.400000e+01,    8.572528e-16
    6110,    9.000000e+00,   -6.000000e+01,    6.123234e-16
    6111,    9.000000e+00,   -5.600000e+01,    3.673940e-16
    6112,    9.000000e+00,   -5.200000e+01,    1.224647e-16
    6113,    9.000000e+00,   -4.800000e+01,   -1.224647e-16
    6114,    9.000000e+00,   -4.400000e+01,   -3.673940e-16
    6115,    9.000000e+00,   -4.000000e+01,   -6.123234e-16
    6116,    9.000000e+00,   -3.600000e+01,   -8.572528e-16
    6117,    9.000000e+00,   -3.200000e+01,   -1.102182e-15
    6118,    9.000000e+00,   -2.800000e+01,   -1.347111e-15
    6119,    9.000000e+00,   -2.400000e+01,   -1.592041e-15
    6120,    9.000000e+00,   -2.000000e+01,   -1.836970e-15
    6121,    9.000000e+00,   -1.600000e+01,   -2.081900e-15
    6122,    9.000000e+00,   -1.200000e+01,   -2.326829e-15
    6123,    9.000000e+00,   -8.000000e+00,   -2.571758e-15
    6124,    9.000000e+00,   -4.000000e+00,   -2.816688e-15
    6125,    8.000000e+00,    0.000000e+00,   -3.061617e-15
    6126,    8.000000e+00,   -1.000000e+02,    3.061617e-15
    6127,    8.000000e+00,   -4.000000e+00,   -2.816688e-15
    6128,    8.000000e+00,   -8.000000e+00,   -2.571758e-15
    6129,    8.000000e+00,   -1.200000e+01,   -2.326829e-15
    6130,    8.000000e+00,   -1.600000e+01,   -2.081900e-15
    6131,    8.000000e+00,   -2.000000e+01,   -1.836970e-15
    6132,    8.000000e+00,   -2.400000e+01,   -1.592041e-15
    6133,    8.000000e+00,   -2.800000e+01,   -1.347111e-15
    6134,    8.000000e+00,   -3.200000e+01,   -1.102182e-15
    6135,    8.000000e+00,   -3.600000e+01,   -8.572528e-16
    6136,    8.000000e+00,   -4.000000e+01,   -6.123234e-16
    6137,    8.000000e+00,   -4.400000e+01,   -3.673940e-16
    6138,    8.000000e+00,   -4.800000e+01,   -1.224647e-16
    6139,    8.000000e+00,   -5.200000e+01,    1.224647e-16
    6140,    8.000000e+00,   -5.600000e+01,    3.673940e-16
    6141,    8.000000e+00,   -6.000000e+01,    6.123234e-16
    6142,    8.000000e+00,   -6.400000e+01,    8.572528e-16
    6143,    8.000000e+00,   -6.800000e+01,    1.102182e-15
    6144,    8.000000e+00,   -7.200000e+01,    1.347111e-15
    6145,    8.000000e+00,   -7.600000e+01,    1.592041e-15
    6146,    8.000000e+00,   -8.000000e+01,    1.836970e-15
    6147,    8.000000e+00,   -8.400000e+01,    2.081900e-15
    6148,    8.000000e+00,   -8.800000e+01,    2.326829e-15
    6149,    8.000000e+00,   -9.200000e+01,    2.571758e-15
    6150,    8.000000e+00,   -9.600000e+01,    2.816688e-15
    6151,    8.108720e+00,   -2.391094e-16,   -3.904954e+00
    6152,    5.611408e+00,   -4.308603e-16,   -7.036483e+00
    6153,    2.002688e+00,   -5.372741e-16,   -8.774351e+00
    6154,   -2.002688e+00,   -5.372741e-16,   -8.774351e+00
    6155,   -5.611408e+00,   -4.308603e-16,   -7.036483e+00
    6156,   -8.108720e+00,   -2.391094e-16,   -3.904954e+00
    6157,   -7.207751e+00,   -2.125417e-16,   -3.471070e+00
    6158,   -4.987918e+00,   -3.829870e-16,   -6.254652e+00
    6159,   -1.780167e+00,   -4.775769e-16,   -7.799423e+00
    6160,    1.780167e+00,   -4.775769e-16,   -7.799423e+00
    6161,    4.987918e+00,   -3.829870e-16,   -6.254652e+00
    6162,    7.207751e+00,   -2.125417e-16,   -3.471070e+00
    6163,   -8.108720e+00,   -1.000000e+02,   -3.904954e+00
    6164,   -5.611408e+00,   -1.000000e+02,   -7.036483e+00
    6165,   -2.002688e+00,   -1.000000e+02,   -8.774351e+00
    6166,    2.002688e+00,   -1.000000e+02,   -8.774351e+00
    6167,    5.611408e+00,   -1.000000e+02,   -7.036483e+00
    6168,    8.108720e+00,   -1.000000e+02,   -3.904954e+00
    6169,    8.108720e+00,   -4.000000e+00,   -3.904954e+00
    6170,    8.108720e+00,   -8.000000e+00,   -3.904954e+00
    6171,    8.108720e+00,   -1.200000e+01,   -3.904954e+00
    6172,    8.108720e+00,   -1.600000e+01,   -3.904954e+00
    6173,    8.108720e+00,   -2.000000e+01,   -3.904954e+00
    6174,    8.108720e+00,   -2.400000e+01,   -3.904954e+00
    6175,    8.108720e+00,   -2.800000e+01,   -3.904954e+00
    6176,    8.108720e+00,   -3.200000e+01,   -3.904954e+00
    6177,    8.108720e+00,   -3.600000e+01,   -3.904954e+00
    6178,    8.108720e+00,   -4.000000e+01,   -3.904954e+00
    6179,    8.108720e+00,   -4.400000e+01,   -3.904954e+00
    6180,    8.108720e+00,   -4.800000e+01,   -3.904954e+00
    6181,    8.108720e+00,   -5.200000e+01,   -3.904954e+00
    6182,    8.108720e+00,   -5.600000e+01,   -3.904954e+00
    6183,    8.108720e+00,   -6.000000e+01,   -3.904954e+00
    6184,    8.108720e+00,   -6.400000e+01,   -3.904954e+00
    6185,    8.108720e+00,   -6.800000e+01,   -3.904954e+00
    6186,    8.108720e+00,   -7.200000e+01,   -3.904954e+00
    6187,    8.108720e+00,   -7.600000e+01,   -3.904954e+00
    6188,    8.108720e+00,   -8.000000e+01,   -3.904954e+00
    6189,    8.108720e+00,   -8.400000e+01,   -3.904954e+00
    6190,    8.108720e+00,   -8.800000e+01,   -3.904954e+00
    6191,    8.108720e+00,   -9.200000e+01,   -3.904954e+00
    6192,    8.108720e+00,   -9.600000e+01,   -3.904954e+00
    6193,    5.611408e+00,   -4.000000e+00,   -7.036483e+00
    6194,    5.611408e+00,   -8.000000e+00,   -7.036483e+00
    6195,    5.611408e+00,   -1.200000e+01,   -7.036483e+00
    6196,    5.611408e+00,   -1.600000e+01,   -7.036483e+00
    6197,    5.611408e+00,   -2.000000e+01,   -7.036483e+00
    6198,    5.611408e+00,   -2.400000e+01,   -7.036483e+00
    6199,    5.611408e+00,   -2.800000e+01,   -7.036483e+00
    6200,    5.611408e+00,   -3.200000e+01,   -7.036483e+00
    6201,    5.611408e+00,   -3.600000e+01,   -7.036483e+00
    6202,    5.611408e+00,   -4.000000e+01,   -7.036483e+00
    6203,    5.611408e+00,   -4.400000e+01,   -7.036483e+00
    6204,    5.611408e+00,   -4.800000e+01,   -7.036483e+00
    6205,    5.611408e+00,   -5.200000e+01,   -7.036483e+00
    6206,    5.611408e+00,   -5.600000e+01,   -7.036483e+00
    6207,    5.611408e+00,   -6.000000e+01,   -7.036483e+00
    6208,    5.611408e+00,   -6.400000e+01,   -7.036483e+00
    6209,    5.611408e+00,   -6.800000e+01,   -7.036483e+00
    6210,    5.611408e+00,   -7.200000e+01,   -7.036483e+00
    6211,    5.611408e+00,   -7.600000e+01,   -7.036483e+00
    6212,    5.611408e+00,   -8.000000e+01,   -7.036483e+00
    6213,    5.611408e+00,   -8.400000e+01,   -7.036483e+00
    6214,    5.611408e+00,   -8.800000e+01,   -7.036483e+00
    6215,    5.611408e+00,   -9.200000e+01,   -7.036483e+00
    6216,    5.611408e+00,   -9.600000e+01,   -7.036483e+00
    6217,    2.002688e+00,   -4.000000e+00,   -8.774351e+00
    6218,    2.002688e+00,   -8.000000e+00,   -8.774351e+00
    6219,    2.002688e+00,   -1.200000e+01,   -8.774351e+00
    6220,    2.002688e+00,   -1.600000e+01,   -8.774351e+00
    6221,    2.002688e+00,   -2.000000e+01,   -8.774351e+00
    6222,    2.002688e+00,   -2.400000e+01,   -8.774351e+00
    6223,    2.002688e+00,   -2.800000e+01,   -8.774351e+00
    6224,    2.002688e+00,   -3.200000e+01,   -8.774351e+00
    6225,    2.002688e+00,   -3.600000e+01,   -8.774351e+00
    6226,    2.002688e+00,   -4.000000e+01,   -8.774351e+00
    6227,    2.002688e+00,   -4.400000e+01,   -8.774351e+00
    6228,    2.002688e+00,   -4.800000e+01,   -8.774351e+00
    6229,    2.002688e+00,   -5.200000e+01,   -8.774351e+00
    6230,    2.002688e+00,   -5.600000e+01,   -8.774351e+00
    6231,    2.002688e+00,   -6.000000e+01,   -8.774351e+00
    6232,    2.002688e+00,   -6.400000e+01,   -8.774351e+00
    6233,    2.002688e+00,   -6.800000e+01,   -8.774351e+00
    6234,    2.002688e+00,   -7.200000e+01,   -8.774351e+00
    6235,    2.002688e+00,   -7.600000e+01,   -8.774351e+00
    6236,    2.002688e+00,   -8.000000e+01,   -8.774351e+00
    6237,    2.002688e+00,   -8.400000e+01,   -8.774351e+00
    6238,    2.002688e+00,   -8.800000e+01,   -8.774351e+00
    6239,    2.002688e+00,   -9.200000e+01,   -8.774351e+00
    6240,    2.002688e+00,   -9.600000e+01,   -8.774351e+00
    6241,   -2.002688e+00,   -4.000000e+00,   -8.774351e+00
    6242,   -2.002688e+00,   -8.000000e+00,   -8.774351e+00
    6243,   -2.002688e+00,   -1.200000e+01,   -8.774351e+00
    6244,   -2.002688e+00,   -1.600000e+01,   -8.774351e+00
    6245,   -2.002688e+00,   -2.000000e+01,   -8.774351e+00
    6246,   -2.002688e+00,   -2.400000e+01,   -8.774351e+00
    6247,   -2.002688e+00,   -2.800000e+01,   -8.774351e+00
    6248,   -2.002688e+00,   -3.200000e+01,   -8.774351e+00
    6249,   -2.002688e+00,   -3.600000e+01,   -8.774351e+00
    6250,   -2.002688e+00,   -4.000000e+01,   -8.774351e+00
    6251,   -2.002688e+00,   -4.400000e+01,   -8.774351e+00
    6252,   -2.002688e+00,   -4.800000e+01,   -8.774351e+00
    6253,   -2.002688e+00,   -5.200000e+01,   -8.774351e+00
    6254,   -2.002688e+00,   -5.600000e+01,   -8.774351e+00
    6255,   -2.002688e+00,   -6.000000e+01,   -8.774351e+00
    6256,   -2.002688e+00,   -6.400000e+01,   -8.774351e+00
    6257,   -2.002688e+00,   -6.800000e+01,   -8.774351e+00
    6258,   -2.002688e+00,   -7.200000e+01,   -8.774351e+00
    6259,   -2.002688e+00,   -7.600000e+01,   -8.774351e+00
    6260,   -2.002688e+00,   -8.000000e+01,   -8.774351e+00
    6261,   -2.002688e+00,   -8.400000e+01,   -8.774351e+00
    6262,   -2.002688e+00,   -8.800000e+01,   -8.774351e+00
    6263,   -2.002688e+00,   -9.200000e+01,   -8.774351e+00
    6264,   -2.002688e+00,   -9.600000e+01,   -8.774351e+00
    6265,   -5.611408e+00,   -4.000000e+00,   -7.036483e+00
    6266,   -5.611408e+00,   -8.000000e+00,   -7.036483e+00
    6267,   -5.611408e+00,   -1.200000e+01,   -7.036483e+00
    6268,   -5.611408e+00,   -1.600000e+01,   -7.036483e+00
    6269,   -5.611408e+00,   -2.000000e+01,   -7.036483e+00
    6270,   -5.611408e+00,   -2.400000e+01,   -7.036483e+00
    6271,   -5.611408e+00,   -2.800000e+01,   -7.036483e+00
    6272,   -5.611408e+00,   -3.200000e+01,   -7.036483e+00
    6273,   -5.611408e+00,   -3.600000e+01,   -7.036483e+00
    6274,   -5.611408e+00,   -4.000000e+01,   -7.036483e+00
    6275,   -5.611408e+00,   -4.400000e+01,   -7.036483e+00
    6276,   -5.611408e+00,   -4.800000e+01,   -7.036483e+00
    6277,   -5.611408e+00,   -5.200000e+01,   -7.036483e+00
    6278,   -5.611408e+00,   -5.600000e+01,   -7.036483e+00
    6279,   -5.611408e+00,   -6.000000e+01,   -7.036483e+00
    6280,   -5.611408e+00,   -6.400000e+01,   -7.036483e+00
    6281,   -5.611408e+00,   -6.800000e+01,   -7.036483e+00
    6282,   -5.611408e+00,   -7.200000e+01,   -7.036483e+00
    6283,   -5.611408e+00,   -7.600000e+01,   -7.036483e+00
    6284,   -5.611408e+00,   -8.000000e+01,   -7.036483e+00
    6285,   -5.611408e+00,   -8.400000e+01,   -7.036483e+00
    6286,   -5.611408e+00,   -8.800000e+01,   -7.036483e+00
    6287,   -5.611408e+00,   -9.200000e+01,   -7.036483e+00
    6288,   -5.611408e+00,   -9.600000e+01,   -7.036483e+00
    6289,   -8.108720e+00,   -4.000000e+00,   -3.904954e+00
    6290,   -8.108720e+00,   -8.000000e+00,   -3.904954e+00
    6291,   -8.108720e+00,   -1.200000e+01,   -3.904954e+00
    6292,   -8.108720e+00,   -1.600000e+01,   -3.904954e+00
    6293,   -8.108720e+00,   -2.000000e+01,   -3.904954e+00
    6294,   -8.108720e+00,   -2.400000e+01,   -3.904954e+00
    6295,   -8.108720e+00,   -2.800000e+01,   -3.904954e+00
    6296,   -8.108720e+00,   -3.200000e+01,   -3.904954e+00
    6297,   -8.108720e+00,   -3.600000e+01,   -3.904954e+00
    6298,   -8.108720e+00,   -4.000000e+01,   -3.904954e+00
    6299,   -8.108720e+00,   -4.400000e+01,   -3.904954e+00
    6300,   -8.108720e+00,   -4.800000e+01,   -3.904954e+00
    6301,   -8.108720e+00,   -5.200000e+01,   -3.904954e+00
    6302,   -8.108720e+00,   -5.600000e+01,   -3.904954e+00
    6303,   -8.108720e+00,   -6.000000e+01,   -3.904954e+00
    6304,   -8.108720e+00,   -6.400000e+01,   -3.904954e+00
    6305,   -8.108720e+00,   -6.800000e+01,   -3.904954e+00
    6306,   -8.108720e+00,   -7.200000e+01,   -3.904954e+00
    6307,   -8.108720e+00,   -7.600000e+01,   -3.904954e+00
    6308,   -8.108720e+00,   -8.000000e+01,   -3.904954e+00
    6309,   -8.108720e+00,   -8.400000e+01,   -3.904954e+00
    6310,   -8.108720e+00,   -8.800000e+01,   -3.904954e+00
    6311,   -8.108720e+00,   -9.200000e+01,   -3.904954e+00
    6312,   -8.108720e+00,   -9.600000e+01,   -3.904954e+00
    6313,    7.207751e+00,   -1.000000e+02,   -3.471070e+00
    6314,    4.987918e+00,   -1.000000e+02,   -6.254652e+00
    6315,    1.780167e+00,   -1.000000e+02,   -7.799423e+00
    6316,   -1.780167e+00,   -1.000000e+02,   -7.799423e+00
    6317,   -4.987918e+00,   -1.000000e+02,   -6.254652e+00
    6318,   -7.207751e+00,   -1.000000e+02,   -3.471070e+00
    6319,    7.207751e+00,   -9.600000e+01,   -3.471070e+00
    6320,    7.207751e+00,   -9.200000e+01,   -3.471070e+00
    6321,    7.207751e+00,   -8.800000e+01,   -3.471070e+00
    6322,    7.207751e+00,   -8.400000e+01,   -3.471070e+00
    6323,    7.207751e+00,   -8.000000e+01,   -3.471070e+00
    6324,    7.207751e+00,   -7.600000e+01,   -3.471070e+00
    6325,    7.207751e+00,   -7.200000e+01,   -3.471070e+00
    6326,    7.207751e+00,   -6.800000e+01,   -3.471070e+00
    6327,    7.207751e+00,   -6.400000e+01,   -3.471070e+00
    6328,    7.207751e+00,   -6.000000e+01,   -3.471070e+00
    6329,    7.207751e+00,   -5.600000e+01,   -3.471070e+00
    6330,    7.207751e+00,   -5.200000e+01,   -3.471070e+00
    6331,    7.207751e+00,   -4.800000e+01,   -3.471070e+00
    6332,    7.207751e+00,   -4.400000e+01,   -3.471070e+00
    6333,    7.207751e+00,   -4.000000e+01,   -3.471070e+00
    6334,    7.207751e+00,   -3.600000e+01,   -3.471070e+00
    6335,    7.207751e+00,   -3.200000e+01,   -3.471070e+00
    6336,    7.207751e+00,   -2.800000e+01,   -3.471070e+00
    6337,    7.207751e+00,   -2.400000e+01,   -3.471070e+00
    6338,    7.207751e+00,   -2.000000e+01,   -3.471070e+00
    6339,    7.207751e+00,   -1.600000e+01,   -3.471070e+00
    6340,    7.207751e+00,   -1.200000e+01,   -3.471070e+00
    6341,    7.207751e+00,   -8.000000e+00,   -3.471070e+00
    6342,    7.207751e+00,   -4.000000e+00,   -3.471070e+00
    6343,    4.987918e+00,   -9.600000e+01,   -6.254652e+00
    6344,    4.987918e+00,   -9.200000e+01,   -6.254652e+00
    6345,    4.987918e+00,   -8.800000e+01,   -6.254652e+00
    6346,    4.987918e+00,   -8.400000e+01,   -6.254652e+00
    6347,    4.987918e+00,   -8.000000e+01,   -6.254652e+00
    6348,    4.987918e+00,   -7.600000e+01,   -6.254652e+00
    6349,    4.987918e+00,   -7.200000e+01,   -6.254652e+00
    6350,    4.987918e+00,   -6.800000e+01,   -6.254652e+00
    6351,    4.987918e+00,   -6.400000e+01,   -6.254652e+00
    6352,    4.987918e+00,   -6.000000e+01,   -6.254652e+00
    6353,    4.987918e+00,   -5.600000e+01,   -6.254652e+00
    6354,    4.987918e+00,   -5.200000e+01,   -6.254652e+00
    6355,    4.987918e+00,   -4.800000e+01,   -6.254652e+00
    6356,    4.987918e+00,   -4.400000e+01,   -6.254652e+00
    6357,    4.987918e+00,   -4.000000e+01,   -6.254652e+00
    6358,    4.987918e+00,   -3.600000e+01,   -6.254652e+00
    6359,    4.987918e+00,   -3.200000e+01,   -6.254652e+00
    6360,    4.987918e+00,   -2.800000e+01,   -6.254652e+00
    6361,    4.987918e+00,   -2.400000e+01,   -6.254652e+00
    6362,    4.987918e+00,   -2.000000e+01,   -6.254652e+00
    6363,    4.987918e+00,   -1.600000e+01,   -6.254652e+00
    6364,    4.987918e+00,   -1.200000e+01,   -6.254652e+00
    6365,    4.987918e+00,   -8.000000e+00,   -6.254652e+00
    6366,    4.987918e+00,   -4.000000e+00,   -6.254652e+00
    6367,    1.780167e+00,   -9.600000e+01,   -7.799423e+00
    6368,    1.780167e+00,   -9.200000e+01,   -7.799423e+00
    6369,    1.780167e+00,   -8.800000e+01,   -7.799423e+00
    6370,    1.780167e+00,   -8.400000e+01,   -7.799423e+00
    6371,    1.780167e+00,   -8.000000e+01,   -7.799423e+00
    6372,    1.780167e+00,   -7.600000e+01,   -7.799423e+00
    6373,    1.780167e+00,   -7.200000e+01,   -7.799423e+00
    6374,    1.780167e+00,   -6.800000e+01,   -7.799423e+00
    6375,    1.780167e+00,   -6.400000e+01,   -7.799423e+00
    6376,    1.780167e+00,   -6.000000e+01,   -7.799423e+00
    6377,    1.780167e+00,   -5.600000e+01,   -7.799423e+00
    6378,    1.780167e+00,   -5.200000e+01,   -7.799423e+00
    6379,    1.780167e+00,   -4.800000e+01,   -7.799423e+00
    6380,    1.780167e+00,   -4.400000e+01,   -7.799423e+00
    6381,    1.780167e+00,   -4.000000e+01,   -7.799423e+00
    6382,    1.780167e+00,   -3.600000e+01,   -7.799423e+00
    6383,    1.780167e+00,   -3.200000e+01,   -7.799423e+00
    6384,    1.780167e+00,   -2.800000e+01,   -7.799423e+00
    6385,    1.780167e+00,   -2.400000e+01,   -7.799423e+00
    6386,    1.780167e+00,   -2.000000e+01,   -7.799423e+00
    6387,    1.780167e+00,   -1.600000e+01,   -7.799423e+00
    6388,    1.780167e+00,   -1.200000e+01,   -7.799423e+00
    6389,    1.780167e+00,   -8.000000e+00,   -7.799423e+00
    6390,    1.780167e+00,   -4.000000e+00,   -7.799423e+00
    6391,   -1.780167e+00,   -9.600000e+01,   -7.799423e+00
    6392,   -1.780167e+00,   -9.200000e+01,   -7.799423e+00
    6393,   -1.780167e+00,   -8.800000e+01,   -7.799423e+00
    6394,   -1.780167e+00,   -8.400000e+01,   -7.799423e+00
    6395,   -1.780167e+00,   -8.000000e+01,   -7.799423e+00
    6396,   -1.780167e+00,   -7.600000e+01,   -7.799423e+00
    6397,   -1.780167e+00,   -7.200000e+01,   -7.799423e+00
    6398,   -1.780167e+00,   -6.800000e+01,   -7.799423e+00
    6399,   -1.780167e+00,   -6.400000e+01,   -7.799423e+00
    6400,   -1.780167e+00,   -6.000000e+01,   -7.799423e+00
    6401,   -1.780167e+00,   -5.600000e+01,   -7.799423e+00
    6402,   -1.780167e+00,   -5.200000e+01,   -7.799423e+00
    6403,   -1.780167e+00,   -4.800000e+01,   -7.799423e+00
    6404,   -1.780167e+00,   -4.400000e+01,   -7.799423e+00
    6405,   -1.780167e+00,   -4.000000e+01,   -7.799423e+00
    6406,   -1.780167e+00,   -3.600000e+01,   -7.799423e+00
    6407,   -1.780167e+00,   -3.200000e+01,   -7.799423e+00
    6408,   -1.780167e+00,   -2.800000e+01,   -7.799423e+00
    6409,   -1.780167e+00,   -2.400000e+01,   -7.799423e+00
    6410,   -1.780167e+00,   -2.000000e+01,   -7.799423e+00
    6411,   -1.780167e+00,   -1.600000e+01,   -7.799423e+00
    6412,   -1.780167e+00,   -1.200000e+01,   -7.799423e+00
    6413,   -1.780167e+00,   -8.000000e+00,   -7.799423e+00
    6414,   -1.780167e+00,   -4.000000e+00,   -7.799423e+00
    6415,   -4.987918e+00,   -9.600000e+01,   -6.254652e+00
    6416,   -4.987918e+00,   -9.200000e+01,   -6.254652e+00
    6417,   -4.987918e+00,   -8.800000e+01,   -6.254652e+00
    6418,   -4.987918e+00,   -8.400000e+01,   -6.254652e+00
    6419,   -4.987918e+00,   -8.000000e+01,   -6.254652e+00
    6420,   -4.987918e+00,   -7.600000e+01,   -6.254652e+00
    6421,   -4.987918e+00,   -7.200000e+01,   -6.254652e+00
    6422,   -4.987918e+00,   -6.800000e+01,   -6.254652e+00
    6423,   -4.987918e+00,   -6.400000e+01,   -6.254652e+00
    6424,   -4.987918e+00,   -6.000000e+01,   -6.254652e+00
    6425,   -4.987918e+00,   -5.600000e+01,   -6.254652e+00
    6426,   -4.987918e+00,   -5.200000e+01,   -6.254652e+00
    6427,   -4.987918e+00,   -4.800000e+01,   -6.254652e+00
    6428,   -4.987918e+00,   -4.400000e+01,   -6.254652e+00
    6429,   -4.987918e+00,   -4.000000e+01,   -6.254652e+00
    6430,   -4.987918e+00,   -3.600000e+01,   -6.254652e+00
    6431,   -4.987918e+00,   -3.200000e+01,   -6.254652e+00
    6432,   -4.987918e+00,   -2.800000e+01,   -6.254652e+00
    6433,   -4.987918e+00,   -2.400000e+01,   -6.254652e+00
    6434,   -4.987918e+00,   -2.000000e+01,   -6.254652e+00
    6435,   -4.987918e+00,   -1.600000e+01,   -6.254652e+00
    6436,   -4.987918e+00,   -1.200000e+01,   -6.254652e+00
    6437,   -4.987918e+00,   -8.000000e+00,   -6.254652e+00
    6438,   -4.987918e+00,   -4.000000e+00,   -6.254652e+00
    6439,   -7.207751e+00,   -9.600000e+01,   -3.471070e+00
    6440,   -7.207751e+00,   -9.200000e+01,   -3.471070e+00
    6441,   -7.207751e+00,   -8.800000e+01,   -3.471070e+00
    6442,   -7.207751e+00,   -8.400000e+01,   -3.471070e+00
    6443,   -7.207751e+00,   -8.000000e+01,   -3.471070e+00
    6444,   -7.207751e+00,   -7.600000e+01,   -3.471070e+00
    6445,   -7.207751e+00,   -7.200000e+01,   -3.471070e+00
    6446,   -7.207751e+00,   -6.800000e+01,   -3.471070e+00
    6447,   -7.207751e+00,   -6.400000e+01,   -3.471070e+00
    6448,   -7.207751e+00,   -6.000000e+01,   -3.471070e+00
    6449,   -7.207751e+00,   -5.600000e+01,   -3.471070e+00
    6450,   -7.207751e+00,   -5.200000e+01,   -3.471070e+00
    6451,   -7.207751e+00,   -4.800000e+01,   -3.471070e+00
    6452,   -7.207751e+00,   -4.400000e+01,   -3.471070e+00
    6453,   -7.207751e+00,   -4.000000e+01,   -3.471070e+00
    6454,   -7.207751e+00,   -3.600000e+01,   -3.471070e+00
    6455,   -7.207751e+00,   -3.200000e+01,   -3.471070e+00
    6456,   -7.207751e+00,   -2.800000e+01,   -3.471070e+00
    6457,   -7.207751e+00,   -2.400000e+01,   -3.471070e+00
    6458,   -7.207751e+00,   -2.000000e+01,   -3.471070e+00
    6459,   -7.207751e+00,   -1.600000e+01,   -3.471070e+00
    6460,   -7.207751e+00,   -1.200000e+01,   -3.471070e+00
    6461,   -7.207751e+00,   -8.000000e+00,   -3.471070e+00
    6462,   -7.207751e+00,   -4.000000e+00,   -3.471070e+00
********************************** E L E M E N T S ****************************
*ELEMENT, TYPE=C3D8I, ELSET=steel
       1,    2894,    2895,    2770,    2892,    2588,    2590,    2580,    2589
       2,    2889,    2890,    2895,    2894,    2584,    2585,    2590,    2588
       3,    2890,    2657,    2770,    2895,    2585,    2577,    2580,    2590
       4,    2888,    2892,    2891,    2887,    2583,    2589,    2586,    2582
       5,    2889,    2894,    2892,    2888,    2584,    2588,    2589,    2583
       6,    2886,    2887,    2891,    2893,    2581,    2582,    2586,    2587
       7,    2712,    2656,    2886,    2893,    2578,    2576,    2581,    2587
       8,    2741,    2712,    2893,    2891,    2579,    2578,    2587,    2586
       9,    2770,    2741,    2891,    2892,    2580,    2579,    2586,    2589
      10,    2899,    2900,    2769,    2897,    2894,    2895,    2770,    2892
      11,    2884,    2885,    2900,    2899,    2889,    2890,    2895,    2894
      12,    2885,    2658,    2769,    2900,    2890,    2657,    2770,    2895
      13,    2883,    2897,    2896,    2882,    2888,    2892,    2891,    2887
      14,    2884,    2899,    2897,    2883,    2889,    2894,    2892,    2888
      15,    2881,    2882,    2896,    2898,    2886,    2887,    2891,    2893
      16,    2711,    2655,    2881,    2898,    2712,    2656,    2886,    2893
      17,    2740,    2711,    2898,    2896,    2741,    2712,    2893,    2891
      18,    2769,    2740,    2896,    2897,    2770,    2741,    2891,    2892
      19,    2904,    2905,    2768,    2902,    2899,    2900,    2769,    2897
      20,    2879,    2880,    2905,    2904,    2884,    2885,    2900,    2899
      21,    2880,    2659,    2768,    2905,    2885,    2658,    2769,    2900
      22,    2878,    2902,    2901,    2877,    2883,    2897,    2896,    2882
      23,    2879,    2904,    2902,    2878,    2884,    2899,    2897,    2883
      24,    2876,    2877,    2901,    2903,    2881,    2882,    2896,    2898
      25,    2710,    2654,    2876,    2903,    2711,    2655,    2881,    2898
      26,    2739,    2710,    2903,    2901,    2740,    2711,    2898,    2896
      27,    2768,    2739,    2901,    2902,    2769,    2740,    2896,    2897
      28,    2909,    2910,    2767,    2907,    2904,    2905,    2768,    2902
      29,    2874,    2875,    2910,    2909,    2879,    2880,    2905,    2904
      30,    2875,    2660,    2767,    2910,    2880,    2659,    2768,    2905
      31,    2873,    2907,    2906,    2872,    2878,    2902,    2901,    2877
      32,    2874,    2909,    2907,    2873,    2879,    2904,    2902,    2878
      33,    2871,    2872,    2906,    2908,    2876,    2877,    2901,    2903
      34,    2709,    2653,    2871,    2908,    2710,    2654,    2876,    2903
      35,    2738,    2709,    2908,    2906,    2739,    2710,    2903,    2901
      36,    2767,    2738,    2906,    2907,    2768,    2739,    2901,    2902
      37,    2914,    2915,    2766,    2912,    2909,    2910,    2767,    2907
      38,    2869,    2870,    2915,    2914,    2874,    2875,    2910,    2909
      39,    2870,    2661,    2766,    2915,    2875,    2660,    2767,    2910
      40,    2868,    2912,    2911,    2867,    2873,    2907,    2906,    2872
      41,    2869,    2914,    2912,    2868,    2874,    2909,    2907,    2873
      42,    2866,    2867,    2911,    2913,    2871,    2872,    2906,    2908
      43,    2708,    2652,    2866,    2913,    2709,    2653,    2871,    2908
      44,    2737,    2708,    2913,    2911,    2738,    2709,    2908,    2906
      45,    2766,    2737,    2911,    2912,    2767,    2738,    2906,    2907
      46,    2919,    2920,    2765,    2917,    2914,    2915,    2766,    2912
      47,    2864,    2865,    2920,    2919,    2869,    2870,    2915,    2914
      48,    2865,    2662,    2765,    2920,    2870,    2661,    2766,    2915
      49,    2863,    2917,    2916,    2862,    2868,    2912,    2911,    2867
      50,    2864,    2919,    2917,    2863,    2869,    2914,    2912,    2868
      51,    2861,    2862,    2916,    2918,    2866,    2867,    2911,    2913
      52,    2707,    2651,    2861,    2918,    2708,    2652,    2866,    2913
      53,    2736,    2707,    2918,    2916,    2737,    2708,    2913,    2911
      54,    2765,    2736,    2916,    2917,    2766,    2737,    2911,    2912
      55,    2924,    2925,    2764,    2922,    2919,    2920,    2765,    2917
      56,    2859,    2860,    2925,    2924,    2864,    2865,    2920,    2919
      57,    2860,    2663,    2764,    2925,    2865,    2662,    2765,    2920
      58,    2858,    2922,    2921,    2857,    2863,    2917,    2916,    2862
      59,    2859,    2924,    2922,    2858,    2864,    2919,    2917,    2863
      60,    2856,    2857,    2921,    2923,    2861,    2862,    2916,    2918
      61,    2706,    2650,    2856,    2923,    2707,    2651,    2861,    2918
      62,    2735,    2706,    2923,    2921,    2736,    2707,    2918,    2916
      63,    2764,    2735,    2921,    2922,    2765,    2736,    2916,    2917
      64,    2929,    2930,    2763,    2927,    2924,    2925,    2764,    2922
      65,    2854,    2855,    2930,    2929,    2859,    2860,    2925,    2924
      66,    2855,    2664,    2763,    2930,    2860,    2663,    2764,    2925
      67,    2853,    2927,    2926,    2852,    2858,    2922,    2921,    2857
      68,    2854,    2929,    2927,    2853,    2859,    2924,    2922,    2858
      69,    2851,    2852,    2926,    2928,    2856,    2857,    2921,    2923
      70,    2705,    2649,    2851,    2928,    2706,    2650,    2856,    2923
      71,    2734,    2705,    2928,    2926,    2735,    2706,    2923,    2921
      72,    2763,    2734,    2926,    2927,    2764,    2735,    2921,    2922
      73,    2934,    2935,    2762,    2932,    2929,    2930,    2763,    2927
      74,    2849,    2850,    2935,    2934,    2854,    2855,    2930,    2929
      75,    2850,    2665,    2762,    2935,    2855,    2664,    2763,    2930
      76,    2848,    2932,    2931,    2847,    2853,    2927,    2926,    2852
      77,    2849,    2934,    2932,    2848,    2854,    2929,    2927,    2853
      78,    2846,    2847,    2931,    2933,    2851,    2852,    2926,    2928
      79,    2704,    2648,    2846,    2933,    2705,    2649,    2851,    2928
      80,    2733,    2704,    2933,    2931,    2734,    2705,    2928,    2926
      81,    2762,    2733,    2931,    2932,    2763,    2734,    2926,    2927
      82,    2939,    2940,    2761,    2937,    2934,    2935,    2762,    2932
      83,    2844,    2845,    2940,    2939,    2849,    2850,    2935,    2934
      84,    2845,    2666,    2761,    2940,    2850,    2665,    2762,    2935
      85,    2843,    2937,    2936,    2842,    2848,    2932,    2931,    2847
      86,    2844,    2939,    2937,    2843,    2849,    2934,    2932,    2848
      87,    2841,    2842,    2936,    2938,    2846,    2847,    2931,    2933
      88,    2703,    2647,    2841,    2938,    2704,    2648,    2846,    2933
      89,    2732,    2703,    2938,    2936,    2733,    2704,    2933,    2931
      90,    2761,    2732,    2936,    2937,    2762,    2733,    2931,    2932
      91,    2944,    2945,    2760,    2942,    2939,    2940,    2761,    2937
      92,    2839,    2840,    2945,    2944,    2844,    2845,    2940,    2939
      93,    2840,    2667,    2760,    2945,    2845,    2666,    2761,    2940
      94,    2838,    2942,    2941,    2837,    2843,    2937,    2936,    2842
      95,    2839,    2944,    2942,    2838,    2844,    2939,    2937,    2843
      96,    2836,    2837,    2941,    2943,    2841,    2842,    2936,    2938
      97,    2702,    2646,    2836,    2943,    2703,    2647,    2841,    2938
      98,    2731,    2702,    2943,    2941,    2732,    2703,    2938,    2936
      99,    2760,    2731,    2941,    2942,    2761,    2732,    2936,    2937
     100,    2949,    2950,    2759,    2947,    2944,    2945,    2760,    2942
     101,    2834,    2835,    2950,    2949,    2839,    2840,    2945,    2944
     102,    2835,    2668,    2759,    2950,    2840,    2667,    2760,    2945
     103,    2833,    2947,    2946,    2832,    2838,    2942,    2941,    2837
     104,    2834,    2949,    2947,    2833,    2839,    2944,    2942,    2838
     105,    2831,    2832,    2946,    2948,    2836,    2837,    2941,    2943
     106,    2701,    2645,    2831,    2948,    2702,    2646,    2836,    2943
     107,    2730,    2701,    2948,    2946,    2731,    2702,    2943,    2941
     108,    2759,    2730,    2946,    2947,    2760,    2731,    2941,    2942
     109,    2954,    2955,    2758,    2952,    2949,    2950,    2759,    2947
     110,    2829,    2830,    2955,    2954,    2834,    2835,    2950,    2949
     111,    2830,    2669,    2758,    2955,    2835,    2668,    2759,    2950
     112,    2828,    2952,    2951,    2827,    2833,    2947,    2946,    2832
     113,    2829,    2954,    2952,    2828,    2834,    2949,    2947,    2833
     114,    2826,    2827,    2951,    2953,    2831,    2832,    2946,    2948
     115,    2700,    2644,    2826,    2953,    2701,    2645,    2831,    2948
     116,    2729,    2700,    2953,    2951,    2730,    2701,    2948,    2946
     117,    2758,    2729,    2951,    2952,    2759,    2730,    2946,    2947
     118,    2959,    2960,    2757,    2957,    2954,    2955,    2758,    2952
     119,    2824,    2825,    2960,    2959,    2829,    2830,    2955,    2954
     120,    2825,    2670,    2757,    2960,    2830,    2669,    2758,    2955
     121,    2823,    2957,    2956,    2822,    2828,    2952,    2951,    2827
     122,    2824,    2959,    2957,    2823,    2829,    2954,    2952,    2828
     123,    2821,    2822,    2956,    2958,    2826,    2827,    2951,    2953
     124,    2699,    2643,    2821,    2958,    2700,    2644,    2826,    2953
     125,    2728,    2699,    2958,    2956,    2729,    2700,    2953,    2951
     126,    2757,    2728,    2956,    2957,    2758,    2729,    2951,    2952
     127,    2964,    2965,    2756,    2962,    2959,    2960,    2757,    2957
     128,    2819,    2820,    2965,    2964,    2824,    2825,    2960,    2959
     129,    2820,    2671,    2756,    2965,    2825,    2670,    2757,    2960
     130,    2818,    2962,    2961,    2817,    2823,    2957,    2956,    2822
     131,    2819,    2964,    2962,    2818,    2824,    2959,    2957,    2823
     132,    2816,    2817,    2961,    2963,    2821,    2822,    2956,    2958
     133,    2698,    2642,    2816,    2963,    2699,    2643,    2821,    2958
     134,    2727,    2698,    2963,    2961,    2728,    2699,    2958,    2956
     135,    2756,    2727,    2961,    2962,    2757,    2728,    2956,    2957
     136,    2969,    2970,    2755,    2967,    2964,    2965,    2756,    2962
     137,    2814,    2815,    2970,    2969,    2819,    2820,    2965,    2964
     138,    2815,    2672,    2755,    2970,    2820,    2671,    2756,    2965
     139,    2813,    2967,    2966,    2812,    2818,    2962,    2961,    2817
     140,    2814,    2969,    2967,    2813,    2819,    2964,    2962,    2818
     141,    2811,    2812,    2966,    2968,    2816,    2817,    2961,    2963
     142,    2697,    2641,    2811,    2968,    2698,    2642,    2816,    2963
     143,    2726,    2697,    2968,    2966,    2727,    2698,    2963,    2961
     144,    2755,    2726,    2966,    2967,    2756,    2727,    2961,    2962
     145,    2974,    2975,    2754,    2972,    2969,    2970,    2755,    2967
     146,    2809,    2810,    2975,    2974,    2814,    2815,    2970,    2969
     147,    2810,    2673,    2754,    2975,    2815,    2672,    2755,    2970
     148,    2808,    2972,    2971,    2807,    2813,    2967,    2966,    2812
     149,    2809,    2974,    2972,    2808,    2814,    2969,    2967,    2813
     150,    2806,    2807,    2971,    2973,    2811,    2812,    2966,    2968
     151,    2696,    2640,    2806,    2973,    2697,    2641,    2811,    2968
     152,    2725,    2696,    2973,    2971,    2726,    2697,    2968,    2966
     153,    2754,    2725,    2971,    2972,    2755,    2726,    2966,    2967
     154,    2979,    2980,    2753,    2977,    2974,    2975,    2754,    2972
     155,    2804,    2805,    2980,    2979,    2809,    2810,    2975,    2974
     156,    2805,    2674,    2753,    2980,    2810,    2673,    2754,    2975
     157,    2803,    2977,    2976,    2802,    2808,    2972,    2971,    2807
     158,    2804,    2979,    2977,    2803,    2809,    2974,    2972,    2808
     159,    2801,    2802,    2976,    2978,    2806,    2807,    2971,    2973
     160,    2695,    2639,    2801,    2978,    2696,    2640,    2806,    2973
     161,    2724,    2695,    2978,    2976,    2725,    2696,    2973,    2971
     162,    2753,    2724,    2976,    2977,    2754,    2725,    2971,    2972
     163,    2984,    2985,    2752,    2982,    2979,    2980,    2753,    2977
     164,    2799,    2800,    2985,    2984,    2804,    2805,    2980,    2979
     165,    2800,    2675,    2752,    2985,    2805,    2674,    2753,    2980
     166,    2798,    2982,    2981,    2797,    2803,    2977,    2976,    2802
     167,    2799,    2984,    2982,    2798,    2804,    2979,    2977,    2803
     168,    2796,    2797,    2981,    2983,    2801,    2802,    2976,    2978
     169,    2694,    2638,    2796,    2983,    2695,    2639,    2801,    2978
     170,    2723,    2694,    2983,    2981,    2724,    2695,    2978,    2976
     171,    2752,    2723,    2981,    2982,    2753,    2724,    2976,    2977
     172,    2989,    2990,    2751,    2987,    2984,    2985,    2752,    2982
     173,    2794,    2795,    2990,    2989,    2799,    2800,    2985,    2984
     174,    2795,    2676,    2751,    2990,    2800,    2675,    2752,    2985
     175,    2793,    2987,    2986,    2792,    2798,    2982,    2981,    2797
     176,    2794,    2989,    2987,    2793,    2799,    2984,    2982,    2798
     177,    2791,    2792,    2986,    2988,    2796,    2797,    2981,    2983
     178,    2693,    2637,    2791,    2988,    2694,    2638,    2796,    2983
     179,    2722,    2693,    2988,    2986,    2723,    2694,    2983,    2981
     180,    2751,    2722,    2986,    2987,    2752,    2723,    2981,    2982
     181,    2994,    2995,    2750,    2992,    2989,    2990,    2751,    2987
     182,    2789,    2790,    2995,    2994,    2794,    2795,    2990,    2989
     183,    2790,    2677,    2750,    2995,    2795,    2676,    2751,    2990
     184,    2788,    2992,    2991,    2787,    2793,    2987,    2986,    2792
     185,    2789,    2994,    2992,    2788,    2794,    2989,    2987,    2793
     186,    2786,    2787,    2991,    2993,    2791,    2792,    2986,    2988
     187,    2692,    2636,    2786,    2993,    2693,    2637,    2791,    2988
     188,    2721,    2692,    2993,    2991,    2722,    2693,    2988,    2986
     189,    2750,    2721,    2991,    2992,    2751,    2722,    2986,    2987
     190,    2999,    3000,    2749,    2997,    2994,    2995,    2750,    2992
     191,    2784,    2785,    3000,    2999,    2789,    2790,    2995,    2994
     192,    2785,    2678,    2749,    3000,    2790,    2677,    2750,    2995
     193,    2783,    2997,    2996,    2782,    2788,    2992,    2991,    2787
     194,    2784,    2999,    2997,    2783,    2789,    2994,    2992,    2788
     195,    2781,    2782,    2996,    2998,    2786,    2787,    2991,    2993
     196,    2691,    2635,    2781,    2998,    2692,    2636,    2786,    2993
     197,    2720,    2691,    2998,    2996,    2721,    2692,    2993,    2991
     198,    2749,    2720,    2996,    2997,    2750,    2721,    2991,    2992
     199,    3004,    3005,    2748,    3002,    2999,    3000,    2749,    2997
     200,    2779,    2780,    3005,    3004,    2784,    2785,    3000,    2999
     201,    2780,    2679,    2748,    3005,    2785,    2678,    2749,    3000
     202,    2778,    3002,    3001,    2777,    2783,    2997,    2996,    2782
     203,    2779,    3004,    3002,    2778,    2784,    2999,    2997,    2783
     204,    2776,    2777,    3001,    3003,    2781,    2782,    2996,    2998
     205,    2690,    2634,    2776,    3003,    2691,    2635,    2781,    2998
     206,    2719,    2690,    3003,    3001,    2720,    2691,    2998,    2996
     207,    2748,    2719,    3001,    3002,    2749,    2720,    2996,    2997
     208,    3009,    3010,    2747,    3007,    3004,    3005,    2748,    3002
     209,    2774,    2775,    3010,    3009,    2779,    2780,    3005,    3004
     210,    2775,    2680,    2747,    3010,    2780,    2679,    2748,    3005
     211,    2773,    3007,    3006,    2772,    2778,    3002,    3001,    2777
     212,    2774,    3009,    3007,    2773,    2779,    3004,    3002,    2778
     213,    2771,    2772,    3006,    3008,    2776,    2777,    3001,    3003
     214,    2689,    2633,    2771,    3008,    2690,    2634,    2776,    3003
     215,    2718,    2689,    3008,    3006,    2719,    2690,    3003,    3001
     216,    2747,    2718,    3006,    3007,    2748,    2719,    3001,    3002
     217,    3014,    3015,    2746,    3012,    3009,    3010,    2747,    3007
     218,    2624,    2623,    3015,    3014,    2774,    2775,    3010,    3009
     219,    2623,    2619,    2746,    3015,    2775,    2680,    2747,    3010
     220,    2625,    3012,    3011,    2626,    2773,    3007,    3006,    2772
     221,    2624,    3014,    3012,    2625,    2774,    3009,    3007,    2773
     222,    2627,    2626,    3011,    3013,    2771,    2772,    3006,    3008
     223,    2688,    2621,    2627,    3013,    2689,    2633,    2771,    3008
     224,    2717,    2688,    3013,    3011,    2718,    2689,    3008,    3006
     225,    2746,    2717,    3011,    3012,    2747,    2718,    3006,    3007
     226,    3019,    3020,    2745,    3017,    3014,    3015,    2746,    3012
     227,    2629,    2628,    3020,    3019,    2624,    2623,    3015,    3014
     228,    2628,    2620,    2745,    3020,    2623,    2619,    2746,    3015
     229,    2630,    3017,    3016,    2631,    2625,    3012,    3011,    2626
     230,    2629,    3019,    3017,    2630,    2624,    3014,    3012,    2625
     231,    2632,    2631,    3016,    3018,    2627,    2626,    3011,    3013
     232,    2687,    2622,    2632,    3018,    2688,    2621,    2627,    3013
     233,    2716,    2687,    3018,    3016,    2717,    2688,    3013,    3011
     234,    2745,    2716,    3016,    3017,    2746,    2717,    3011,    3012
     235,    3024,    3025,    2744,    3022,    3019,    3020,    2745,    3017
     236,    2597,    2596,    3025,    3024,    2629,    2628,    3020,    3019
     237,    2596,    2595,    2744,    3025,    2628,    2620,    2745,    3020
     238,    2598,    3022,    3021,    2599,    2630,    3017,    3016,    2631
     239,    2597,    3024,    3022,    2598,    2629,    3019,    3017,    2630
     240,    2600,    2599,    3021,    3023,    2632,    2631,    3016,    3018
     241,    2686,    2591,    2600,    3023,    2687,    2622,    2632,    3018
     242,    2715,    2686,    3023,    3021,    2716,    2687,    3018,    3016
     243,    2744,    2715,    3021,    3022,    2745,    2716,    3016,    3017
     244,    3029,    3030,    2743,    3027,    3024,    3025,    2744,    3022
     245,    2616,    2618,    3030,    3029,    2597,    2596,    3025,    3024
     246,    2618,    2603,    2743,    3030,    2596,    2595,    2744,    3025
     247,    2614,    3027,    3026,    2612,    2598,    3022,    3021,    2599
     248,    2616,    3029,    3027,    2614,    2597,    3024,    3022,    2598
     249,    2610,    2612,    3026,    3028,    2600,    2599,    3021,    3023
     250,    2685,    2593,    2610,    3028,    2686,    2591,    2600,    3023
     251,    2714,    2685,    3028,    3026,    2715,    2686,    3023,    3021
     252,    2743,    2714,    3026,    3027,    2744,    2715,    3021,    3022
     253,    3034,    3035,    2742,    3032,    3029,    3030,    2743,    3027
     254,    2615,    2617,    3035,    3034,    2616,    2618,    3030,    3029
     255,    2617,    2602,    2742,    3035,    2618,    2603,    2743,    3030
     256,    2613,    3032,    3031,    2611,    2614,    3027,    3026,    2612
     257,    2615,    3034,    3032,    2613,    2616,    3029,    3027,    2614
     258,    2609,    2611,    3031,    3033,    2610,    2612,    3026,    3028
     259,    2684,    2594,    2609,    3033,    2685,    2593,    2610,    3028
     260,    2713,    2684,    3033,    3031,    2714,    2685,    3028,    3026
     261,    2742,    2713,    3031,    3032,    2743,    2714,    3026,    3027
     262,    3039,    3040,    2681,    3037,    3034,    3035,    2742,    3032
     263,    2605,    2604,    3040,    3039,    2615,    2617,    3035,    3034
     264,    2604,    2601,    2681,    3040,    2617,    2602,    2742,    3035
     265,    2606,    3037,    3036,    2607,    2613,    3032,    3031,    2611
     266,    2605,    3039,    3037,    2606,    2615,    3034,    3032,    2613
     267,    2608,    2607,    3036,    3038,    2609,    2611,    3031,    3033
     268,    2683,    2592,    2608,    3038,    2684,    2594,    2609,    3033
     269,    2682,    2683,    3038,    3036,    2713,    2684,    3033,    3031
     270,    2681,    2682,    3036,    3037,    2742,    2713,    3031,    3032
     271,    4165,    4144,    4146,    4164,    3254,    3233,    3234,    3253
     272,    4164,    4160,    4161,    4165,    3253,    3246,    3247,    3254
     273,    4157,    4143,    4144,    4165,    3243,    3232,    3233,    3254
     274,    4156,    4157,    4165,    4161,    3242,    3243,    3254,    3247
     275,    4141,    4142,    4160,    4164,    3230,    3231,    3246,    3253
     276,    4140,    4141,    4164,    4146,    3229,    3230,    3253,    3234
     277,    4139,    4140,    4146,    4145,    3228,    3229,    3234,    3235
     278,    4138,    4139,    4145,    4147,    3227,    3228,    3235,    3236
     279,    4137,    4138,    4147,    4148,    3226,    3227,    3236,    3237
     280,    4136,    4137,    4148,    4149,    3225,    3226,    3237,    3238
     281,    4135,    4136,    4149,    4150,    3224,    3225,    3238,    3239
     282,    4153,    4154,    4163,    4162,    3249,    3240,    3252,    3248
     283,    4159,    4162,    4163,    4158,    3245,    3248,    3252,    3244
     284,    4155,    4158,    4163,    4154,    3241,    3244,    3252,    3240
     285,    4134,    4135,    4150,    4151,    3223,    3224,    3239,    3251
     286,    4133,    4134,    4151,    4152,    3222,    3223,    3251,    3250
     287,    4132,    4133,    4152,    4153,    3221,    3222,    3250,    3249
     288,    4131,    4132,    4153,    4162,    3220,    3221,    3249,    3248
     289,    4130,    4131,    4162,    4159,    3219,    3220,    3248,    3245
     290,    4124,    4125,    4156,    4161,    3213,    3214,    3242,    3247
     291,    4123,    4124,    4161,    4160,    3212,    3213,    3247,    3246
     292,    4122,    4123,    4160,    4142,    3211,    3212,    3246,    3231
     293,    4128,    4129,    4130,    4159,    3217,    3218,    3219,    3245
     294,    4127,    4128,    4159,    4158,    3216,    3217,    3245,    3244
     295,    4126,    4127,    4158,    4155,    3215,    3216,    3244,    3241
     296,    4107,    4108,    4143,    4157,    3196,    3197,    3232,    3243
     297,    4106,    4107,    4157,    4156,    3195,    3196,    3243,    3242
     298,    4105,    4106,    4156,    4125,    3194,    3195,    3242,    3214
     299,    4120,    4121,    4126,    4155,    3209,    3210,    3215,    3241
     300,    4119,    4120,    4155,    4154,    3208,    3209,    3241,    3240
     301,    4118,    4119,    4154,    4153,    3207,    3208,    3240,    3249
     302,    4117,    4118,    4153,    4152,    3206,    3207,    3249,    3250
     303,    4116,    4117,    4152,    4151,    3205,    3206,    3250,    3251
     304,    4115,    4116,    4151,    4150,    3204,    3205,    3251,    3239
     305,    4114,    4115,    4150,    4149,    3203,    3204,    3239,    3238
     306,    4113,    4114,    4149,    4148,    3202,    3203,    3238,    3237
     307,    4111,    4113,    4148,    4147,    3201,    3202,    3237,    3236
     308,    4112,    4111,    4147,    4145,    3200,    3201,    3236,    3235
     309,    4112,    4145,    4146,    4144,    3200,    3235,    3234,    3233
     310,    4110,    4112,    4144,    4143,    3199,    3200,    3233,    3232
     311,    4109,    4110,    4143,    4108,    3198,    3199,    3232,    3197
     312,    4103,    4104,    4122,    4142,    3192,    3193,    3211,    3231
     313,    4102,    4103,    4142,    4141,    3191,    3192,    3231,    3230
     314,    4101,    4102,    4141,    4140,    3190,    3191,    3230,    3229
     315,    4100,    4101,    4140,    4139,    3189,    3190,    3229,    3228
     316,    4099,    4100,    4139,    4138,    3188,    3189,    3228,    3227
     317,    4098,    4099,    4138,    4137,    3187,    3188,    3227,    3226
     318,    4097,    4098,    4137,    4136,    3186,    3187,    3226,    3225
     319,    4096,    4097,    4136,    4135,    3185,    3186,    3225,    3224
     320,    4095,    4096,    4135,    4134,    3184,    3185,    3224,    3223
     321,    4094,    4095,    4134,    4133,    3183,    3184,    3223,    3222
     322,    4093,    4094,    4133,    4132,    3182,    3183,    3222,    3221
     323,    4092,    4093,    4132,    4131,    3181,    3182,    3221,    3220
     324,    4091,    4092,    4131,    4130,    3180,    3181,    3220,    3219
     325,    4090,    4091,    4130,    4129,    3179,    3180,    3219,    3218
     326,    4088,    4089,    4090,    4129,    3177,    3178,    3179,    3218
     327,    4087,    4088,    4129,    4128,    3176,    3177,    3218,    3217
     328,    4086,    4087,    4128,    4127,    3175,    3176,    3217,    3216
     329,    4085,    4086,    4127,    4126,    3174,    3175,    3216,    3215
     330,    4084,    4085,    4126,    4121,    3173,    3174,    3215,    3210
     331,    4082,    4083,    4105,    4125,    3171,    3172,    3194,    3214
     332,    4081,    4082,    4125,    4124,    3170,    3171,    3214,    3213
     333,    4080,    4081,    4124,    4123,    3169,    3170,    3213,    3212
     334,    4079,    4080,    4123,    4122,    3168,    3169,    3212,    3211
     335,    4078,    4079,    4122,    4104,    3167,    3168,    3211,    3193
     336,    4076,    4077,    4084,    4121,    3165,    3166,    3173,    3210
     337,    4075,    4076,    4121,    4120,    3164,    3165,    3210,    3209
     338,    4074,    4075,    4120,    4119,    3163,    3164,    3209,    3208
     339,    4073,    4074,    4119,    4118,    3162,    3163,    3208,    3207
     340,    4072,    4073,    4118,    4117,    3161,    3162,    3207,    3206
     341,    4071,    4072,    4117,    4116,    3160,    3161,    3206,    3205
     342,    4070,    4071,    4116,    4115,    3159,    3160,    3205,    3204
     343,    4069,    4070,    4115,    4114,    3158,    3159,    3204,    3203
     344,    4067,    4069,    4114,    4113,    3157,    3158,    3203,    3202
     345,    4068,    4067,    4113,    4111,    3156,    3157,    3202,    3201
     346,    4068,    4111,    4112,    4110,    3156,    3201,    3200,    3199
     347,    4066,    4068,    4110,    4109,    3155,    3156,    3199,    3198
     348,    4064,    4065,    4066,    4109,    3153,    3154,    3155,    3198
     349,    4063,    4064,    4109,    4108,    3152,    3153,    3198,    3197
     350,    4062,    4063,    4108,    4107,    3151,    3152,    3197,    3196
     351,    4061,    4062,    4107,    4106,    3150,    3151,    3196,    3195
     352,    4060,    4061,    4106,    4105,    3149,    3150,    3195,    3194
     353,    4059,    4060,    4105,    4083,    3148,    3149,    3194,    3172
     354,    4030,    4031,    4078,    4104,    3119,    3120,    3167,    3193
     355,    4029,    4030,    4104,    4103,    3118,    3119,    3193,    3192
     356,    4028,    4029,    4103,    4102,    3117,    3118,    3192,    3191
     357,    4027,    4028,    4102,    4101,    3116,    3117,    3191,    3190
     358,    4026,    4027,    4101,    4100,    3115,    3116,    3190,    3189
     359,    4025,    4026,    4100,    4099,    3114,    3115,    3189,    3188
     360,    4024,    4025,    4099,    4098,    3113,    3114,    3188,    3187
     361,    4023,    4024,    4098,    4097,    3112,    3113,    3187,    3186
     362,    4022,    4023,    4097,    4096,    3111,    3112,    3186,    3185
     363,    4021,    4022,    4096,    4095,    3110,    3111,    3185,    3184
     364,    4020,    4021,    4095,    4094,    3109,    3110,    3184,    3183
     365,    4019,    4020,    4094,    4093,    3108,    3109,    3183,    3182
     366,    4018,    4019,    4093,    4092,    3107,    3108,    3182,    3181
     367,    4017,    4018,    4092,    4091,    3106,    3107,    3181,    3180
     368,    4016,    4017,    4091,    4090,    3105,    3106,    3180,    3179
     369,    4015,    4016,    4090,    4089,    3104,    3105,    3179,    3178
     370,    4046,    4014,    4015,    4089,    3135,    3103,    3104,    3178
     371,    4045,    4046,    4089,    4088,    3134,    3135,    3178,    3177
     372,    4044,    4045,    4088,    4087,    3133,    3134,    3177,    3176
     373,    4043,    4044,    4087,    4086,    3132,    3133,    3176,    3175
     374,    4042,    4043,    4086,    4085,    3131,    3132,    3175,    3174
     375,    4041,    4042,    4085,    4084,    3130,    3131,    3174,    3173
     376,    4040,    4041,    4084,    4077,    3129,    3130,    3173,    3166
     377,    4052,    4053,    4059,    4083,    3141,    3142,    3148,    3172
     378,    4051,    4052,    4083,    4082,    3140,    3141,    3172,    3171
     379,    4050,    4051,    4082,    4081,    3139,    3140,    3171,    3170
     380,    4049,    4050,    4081,    4080,    3138,    3139,    3170,    3169
     381,    4048,    4049,    4080,    4079,    3137,    3138,    3169,    3168
     382,    4047,    4048,    4079,    4078,    3136,    3137,    3168,    3167
     383,    4032,    4047,    4078,    4031,    3121,    3136,    3167,    3120
     384,    4012,    4013,    4040,    4077,    3101,    3102,    3129,    3166
     385,    4011,    4012,    4077,    4076,    3100,    3101,    3166,    3165
     386,    4010,    4011,    4076,    4075,    3099,    3100,    3165,    3164
     387,    4009,    4010,    4075,    4074,    3098,    3099,    3164,    3163
     388,    4008,    4009,    4074,    4073,    3097,    3098,    3163,    3162
     389,    4007,    4008,    4073,    4072,    3096,    3097,    3162,    3161
     390,    4058,    4007,    4072,    4071,    3147,    3096,    3161,    3160
     391,    4057,    4058,    4071,    4070,    3146,    3147,    3160,    3159
     392,    4055,    4057,    4070,    4069,    3145,    3146,    3159,    3158
     393,    4056,    4055,    4069,    4067,    3144,    3145,    3158,    3157
     394,    4056,    4067,    4068,    4066,    3144,    3157,    3156,    3155
     395,    4054,    4056,    4066,    4065,    3143,    3144,    3155,    3154
     396,    4039,    4054,    4065,    4064,    3128,    3143,    3154,    3153
     397,    4038,    4039,    4064,    4063,    3127,    3128,    3153,    3152
     398,    4037,    4038,    4063,    4062,    3126,    3127,    3152,    3151
     399,    4036,    4037,    4062,    4061,    3125,    3126,    3151,    3150
     400,    4035,    4036,    4061,    4060,    3124,    3125,    3150,    3149
     401,    4034,    4035,    4060,    4059,    3123,    3124,    3149,    3148
     402,    4033,    4034,    4059,    4053,    3122,    3123,    3148,    3142
     403,    2629,    2628,    4007,    4058,    2597,    2596,    3096,    3147
     404,    2630,    2629,    4058,    4057,    2598,    2597,    3147,    3146
     405,    2631,    2630,    4057,    4055,    2599,    2598,    3146,    3145
     406,    2631,    4055,    4056,    4054,    2599,    3145,    3144,    3143
     407,    2632,    2631,    4054,    4039,    2600,    2599,    3143,    3128
     408,    3941,    3940,    4033,    4053,    3081,    3080,    3122,    3142
     409,    3942,    3941,    4053,    4052,    3082,    3081,    3142,    3141
     410,    3943,    3942,    4052,    4051,    3083,    3082,    3141,    3140
     411,    3944,    3943,    4051,    4050,    3084,    3083,    3140,    3139
     412,    3945,    3944,    4050,    4049,    3085,    3084,    3139,    3138
     413,    3946,    3945,    4049,    4048,    3086,    3085,    3138,    3137
     414,    3947,    3946,    4048,    4047,    3087,    3086,    3137,    3136
     415,    3948,    3947,    4047,    4032,    3088,    3087,    3136,    3121
     416,    4005,    4006,    4014,    4046,    3051,    3050,    3103,    3135
     417,    4004,    4005,    4046,    4045,    3052,    3051,    3135,    3134
     418,    4003,    4004,    4045,    4044,    3053,    3052,    3134,    3133
     419,    4002,    4003,    4044,    4043,    3054,    3053,    3133,    3132
     420,    4001,    4002,    4043,    4042,    3055,    3054,    3132,    3131
     421,    4000,    4001,    4042,    4041,    3056,    3055,    3131,    3130
     422,    3999,    4000,    4041,    4040,    3057,    3056,    3130,    3129
     423,    3998,    3999,    4040,    4013,    3058,    3057,    3129,    3102
     424,    3906,    2622,    2632,    4039,    3089,    2591,    2600,    3128
     425,    3907,    3906,    4039,    4038,    3090,    3089,    3128,    3127
     426,    3908,    3907,    4038,    4037,    3091,    3090,    3127,    3126
     427,    3909,    3908,    4037,    4036,    3092,    3091,    3126,    3125
     428,    3910,    3909,    4036,    4035,    3093,    3092,    3125,    3124
     429,    3911,    3910,    4035,    4034,    3094,    3093,    3124,    3123
     430,    3912,    3911,    4034,    4033,    3095,    3094,    3123,    3122
     431,    3898,    3912,    4033,    3940,    3079,    3095,    3122,    3080
     432,    3970,    3930,    3948,    4032,    3060,    3059,    3088,    3121
     433,    3971,    3970,    4032,    4031,    3061,    3060,    3121,    3120
     434,    3972,    3971,    4031,    4030,    3062,    3061,    3120,    3119
     435,    3973,    3972,    4030,    4029,    3063,    3062,    3119,    3118
     436,    3974,    3973,    4029,    4028,    3064,    3063,    3118,    3117
     437,    3975,    3974,    4028,    4027,    3065,    3064,    3117,    3116
     438,    3976,    3975,    4027,    4026,    3066,    3065,    3116,    3115
     439,    3977,    3976,    4026,    4025,    3067,    3066,    3115,    3114
     440,    3978,    3977,    4025,    4024,    3068,    3067,    3114,    3113
     441,    3979,    3978,    4024,    4023,    3069,    3068,    3113,    3112
     442,    3980,    3979,    4023,    4022,    3070,    3069,    3112,    3111
     443,    3981,    3980,    4022,    4021,    3071,    3070,    3111,    3110
     444,    3982,    3981,    4021,    4020,    3072,    3071,    3110,    3109
     445,    3983,    3982,    4020,    4019,    3073,    3072,    3109,    3108
     446,    3984,    3983,    4019,    4018,    3074,    3073,    3108,    3107
     447,    3985,    3984,    4018,    4017,    3075,    3074,    3107,    3106
     448,    3986,    3985,    4017,    4016,    3076,    3075,    3106,    3105
     449,    3987,    3986,    4016,    4015,    3077,    3076,    3105,    3104
     450,    3988,    3987,    4015,    4014,    3078,    3077,    3104,    3103
     451,    3950,    3988,    4014,    4006,    3049,    3078,    3103,    3050
     452,    3922,    3921,    3998,    4013,    3042,    3041,    3058,    3102
     453,    3923,    3922,    4013,    4012,    3043,    3042,    3102,    3101
     454,    3924,    3923,    4012,    4011,    3044,    3043,    3101,    3100
     455,    3925,    3924,    4011,    4010,    3045,    3044,    3100,    3099
     456,    3926,    3925,    4010,    4009,    3046,    3045,    3099,    3098
     457,    3927,    3926,    4009,    4008,    3047,    3046,    3098,    3097
     458,    3928,    3927,    4008,    4007,    3048,    3047,    3097,    3096
     459,    2620,    3928,    4007,    2628,    2595,    3048,    3096,    2596
     460,    4324,    4303,    4305,    4323,    4165,    4144,    4146,    4164
     461,    4323,    4319,    4320,    4324,    4164,    4160,    4161,    4165
     462,    4316,    4302,    4303,    4324,    4157,    4143,    4144,    4165
     463,    4315,    4316,    4324,    4320,    4156,    4157,    4165,    4161
     464,    4300,    4301,    4319,    4323,    4141,    4142,    4160,    4164
     465,    4299,    4300,    4323,    4305,    4140,    4141,    4164,    4146
     466,    4298,    4299,    4305,    4304,    4139,    4140,    4146,    4145
     467,    4297,    4298,    4304,    4306,    4138,    4139,    4145,    4147
     468,    4296,    4297,    4306,    4307,    4137,    4138,    4147,    4148
     469,    4295,    4296,    4307,    4308,    4136,    4137,    4148,    4149
     470,    4294,    4295,    4308,    4309,    4135,    4136,    4149,    4150
     471,    4312,    4313,    4322,    4321,    4153,    4154,    4163,    4162
     472,    4318,    4321,    4322,    4317,    4159,    4162,    4163,    4158
     473,    4314,    4317,    4322,    4313,    4155,    4158,    4163,    4154
     474,    4293,    4294,    4309,    4310,    4134,    4135,    4150,    4151
     475,    4292,    4293,    4310,    4311,    4133,    4134,    4151,    4152
     476,    4291,    4292,    4311,    4312,    4132,    4133,    4152,    4153
     477,    4290,    4291,    4312,    4321,    4131,    4132,    4153,    4162
     478,    4289,    4290,    4321,    4318,    4130,    4131,    4162,    4159
     479,    4283,    4284,    4315,    4320,    4124,    4125,    4156,    4161
     480,    4282,    4283,    4320,    4319,    4123,    4124,    4161,    4160
     481,    4281,    4282,    4319,    4301,    4122,    4123,    4160,    4142
     482,    4287,    4288,    4289,    4318,    4128,    4129,    4130,    4159
     483,    4286,    4287,    4318,    4317,    4127,    4128,    4159,    4158
     484,    4285,    4286,    4317,    4314,    4126,    4127,    4158,    4155
     485,    4266,    4267,    4302,    4316,    4107,    4108,    4143,    4157
     486,    4265,    4266,    4316,    4315,    4106,    4107,    4157,    4156
     487,    4264,    4265,    4315,    4284,    4105,    4106,    4156,    4125
     488,    4279,    4280,    4285,    4314,    4120,    4121,    4126,    4155
     489,    4278,    4279,    4314,    4313,    4119,    4120,    4155,    4154
     490,    4277,    4278,    4313,    4312,    4118,    4119,    4154,    4153
     491,    4276,    4277,    4312,    4311,    4117,    4118,    4153,    4152
     492,    4275,    4276,    4311,    4310,    4116,    4117,    4152,    4151
     493,    4274,    4275,    4310,    4309,    4115,    4116,    4151,    4150
     494,    4273,    4274,    4309,    4308,    4114,    4115,    4150,    4149
     495,    4272,    4273,    4308,    4307,    4113,    4114,    4149,    4148
     496,    4270,    4272,    4307,    4306,    4111,    4113,    4148,    4147
     497,    4271,    4270,    4306,    4304,    4112,    4111,    4147,    4145
     498,    4271,    4304,    4305,    4303,    4112,    4145,    4146,    4144
     499,    4269,    4271,    4303,    4302,    4110,    4112,    4144,    4143
     500,    4268,    4269,    4302,    4267,    4109,    4110,    4143,    4108
     501,    4262,    4263,    4281,    4301,    4103,    4104,    4122,    4142
     502,    4261,    4262,    4301,    4300,    4102,    4103,    4142,    4141
     503,    4260,    4261,    4300,    4299,    4101,    4102,    4141,    4140
     504,    4259,    4260,    4299,    4298,    4100,    4101,    4140,    4139
     505,    4258,    4259,    4298,    4297,    4099,    4100,    4139,    4138
     506,    4257,    4258,    4297,    4296,    4098,    4099,    4138,    4137
     507,    4256,    4257,    4296,    4295,    4097,    4098,    4137,    4136
     508,    4255,    4256,    4295,    4294,    4096,    4097,    4136,    4135
     509,    4254,    4255,    4294,    4293,    4095,    4096,    4135,    4134
     510,    4253,    4254,    4293,    4292,    4094,    4095,    4134,    4133
     511,    4252,    4253,    4292,    4291,    4093,    4094,    4133,    4132
     512,    4251,    4252,    4291,    4290,    4092,    4093,    4132,    4131
     513,    4250,    4251,    4290,    4289,    4091,    4092,    4131,    4130
     514,    4249,    4250,    4289,    4288,    4090,    4091,    4130,    4129
     515,    4247,    4248,    4249,    4288,    4088,    4089,    4090,    4129
     516,    4246,    4247,    4288,    4287,    4087,    4088,    4129,    4128
     517,    4245,    4246,    4287,    4286,    4086,    4087,    4128,    4127
     518,    4244,    4245,    4286,    4285,    4085,    4086,    4127,    4126
     519,    4243,    4244,    4285,    4280,    4084,    4085,    4126,    4121
     520,    4241,    4242,    4264,    4284,    4082,    4083,    4105,    4125
     521,    4240,    4241,    4284,    4283,    4081,    4082,    4125,    4124
     522,    4239,    4240,    4283,    4282,    4080,    4081,    4124,    4123
     523,    4238,    4239,    4282,    4281,    4079,    4080,    4123,    4122
     524,    4237,    4238,    4281,    4263,    4078,    4079,    4122,    4104
     525,    4235,    4236,    4243,    4280,    4076,    4077,    4084,    4121
     526,    4234,    4235,    4280,    4279,    4075,    4076,    4121,    4120
     527,    4233,    4234,    4279,    4278,    4074,    4075,    4120,    4119
     528,    4232,    4233,    4278,    4277,    4073,    4074,    4119,    4118
     529,    4231,    4232,    4277,    4276,    4072,    4073,    4118,    4117
     530,    4230,    4231,    4276,    4275,    4071,    4072,    4117,    4116
     531,    4229,    4230,    4275,    4274,    4070,    4071,    4116,    4115
     532,    4228,    4229,    4274,    4273,    4069,    4070,    4115,    4114
     533,    4226,    4228,    4273,    4272,    4067,    4069,    4114,    4113
     534,    4227,    4226,    4272,    4270,    4068,    4067,    4113,    4111
     535,    4227,    4270,    4271,    4269,    4068,    4111,    4112,    4110
     536,    4225,    4227,    4269,    4268,    4066,    4068,    4110,    4109
     537,    4223,    4224,    4225,    4268,    4064,    4065,    4066,    4109
     538,    4222,    4223,    4268,    4267,    4063,    4064,    4109,    4108
     539,    4221,    4222,    4267,    4266,    4062,    4063,    4108,    4107
     540,    4220,    4221,    4266,    4265,    4061,    4062,    4107,    4106
     541,    4219,    4220,    4265,    4264,    4060,    4061,    4106,    4105
     542,    4218,    4219,    4264,    4242,    4059,    4060,    4105,    4083
     543,    4189,    4190,    4237,    4263,    4030,    4031,    4078,    4104
     544,    4188,    4189,    4263,    4262,    4029,    4030,    4104,    4103
     545,    4187,    4188,    4262,    4261,    4028,    4029,    4103,    4102
     546,    4186,    4187,    4261,    4260,    4027,    4028,    4102,    4101
     547,    4185,    4186,    4260,    4259,    4026,    4027,    4101,    4100
     548,    4184,    4185,    4259,    4258,    4025,    4026,    4100,    4099
     549,    4183,    4184,    4258,    4257,    4024,    4025,    4099,    4098
     550,    4182,    4183,    4257,    4256,    4023,    4024,    4098,    4097
     551,    4181,    4182,    4256,    4255,    4022,    4023,    4097,    4096
     552,    4180,    4181,    4255,    4254,    4021,    4022,    4096,    4095
     553,    4179,    4180,    4254,    4253,    4020,    4021,    4095,    4094
     554,    4178,    4179,    4253,    4252,    4019,    4020,    4094,    4093
     555,    4177,    4178,    4252,    4251,    4018,    4019,    4093,    4092
     556,    4176,    4177,    4251,    4250,    4017,    4018,    4092,    4091
     557,    4175,    4176,    4250,    4249,    4016,    4017,    4091,    4090
     558,    4174,    4175,    4249,    4248,    4015,    4016,    4090,    4089
     559,    4205,    4173,    4174,    4248,    4046,    4014,    4015,    4089
     560,    4204,    4205,    4248,    4247,    4045,    4046,    4089,    4088
     561,    4203,    4204,    4247,    4246,    4044,    4045,    4088,    4087
     562,    4202,    4203,    4246,    4245,    4043,    4044,    4087,    4086
     563,    4201,    4202,    4245,    4244,    4042,    4043,    4086,    4085
     564,    4200,    4201,    4244,    4243,    4041,    4042,    4085,    4084
     565,    4199,    4200,    4243,    4236,    4040,    4041,    4084,    4077
     566,    4211,    4212,    4218,    4242,    4052,    4053,    4059,    4083
     567,    4210,    4211,    4242,    4241,    4051,    4052,    4083,    4082
     568,    4209,    4210,    4241,    4240,    4050,    4051,    4082,    4081
     569,    4208,    4209,    4240,    4239,    4049,    4050,    4081,    4080
     570,    4207,    4208,    4239,    4238,    4048,    4049,    4080,    4079
     571,    4206,    4207,    4238,    4237,    4047,    4048,    4079,    4078
     572,    4191,    4206,    4237,    4190,    4032,    4047,    4078,    4031
     573,    4171,    4172,    4199,    4236,    4012,    4013,    4040,    4077
     574,    4170,    4171,    4236,    4235,    4011,    4012,    4077,    4076
     575,    4169,    4170,    4235,    4234,    4010,    4011,    4076,    4075
     576,    4168,    4169,    4234,    4233,    4009,    4010,    4075,    4074
     577,    4167,    4168,    4233,    4232,    4008,    4009,    4074,    4073
     578,    4166,    4167,    4232,    4231,    4007,    4008,    4073,    4072
     579,    4217,    4166,    4231,    4230,    4058,    4007,    4072,    4071
     580,    4216,    4217,    4230,    4229,    4057,    4058,    4071,    4070
     581,    4214,    4216,    4229,    4228,    4055,    4057,    4070,    4069
     582,    4215,    4214,    4228,    4226,    4056,    4055,    4069,    4067
     583,    4215,    4226,    4227,    4225,    4056,    4067,    4068,    4066
     584,    4213,    4215,    4225,    4224,    4054,    4056,    4066,    4065
     585,    4198,    4213,    4224,    4223,    4039,    4054,    4065,    4064
     586,    4197,    4198,    4223,    4222,    4038,    4039,    4064,    4063
     587,    4196,    4197,    4222,    4221,    4037,    4038,    4063,    4062
     588,    4195,    4196,    4221,    4220,    4036,    4037,    4062,    4061
     589,    4194,    4195,    4220,    4219,    4035,    4036,    4061,    4060
     590,    4193,    4194,    4219,    4218,    4034,    4035,    4060,    4059
     591,    4192,    4193,    4218,    4212,    4033,    4034,    4059,    4053
     592,    2624,    2623,    4166,    4217,    2629,    2628,    4007,    4058
     593,    2625,    2624,    4217,    4216,    2630,    2629,    4058,    4057
     594,    2626,    2625,    4216,    4214,    2631,    2630,    4057,    4055
     595,    2626,    4214,    4215,    4213,    2631,    4055,    4056,    4054
     596,    2627,    2626,    4213,    4198,    2632,    2631,    4054,    4039
     597,    3932,    3931,    4192,    4212,    3941,    3940,    4033,    4053
     598,    3933,    3932,    4212,    4211,    3942,    3941,    4053,    4052
     599,    3934,    3933,    4211,    4210,    3943,    3942,    4052,    4051
     600,    3935,    3934,    4210,    4209,    3944,    3943,    4051,    4050
     601,    3936,    3935,    4209,    4208,    3945,    3944,    4050,    4049
     602,    3937,    3936,    4208,    4207,    3946,    3945,    4049,    4048
     603,    3938,    3937,    4207,    4206,    3947,    3946,    4048,    4047
     604,    3939,    3938,    4206,    4191,    3948,    3947,    4047,    4032
     605,    3996,    3997,    4173,    4205,    4005,    4006,    4014,    4046
     606,    3995,    3996,    4205,    4204,    4004,    4005,    4046,    4045
     607,    3994,    3995,    4204,    4203,    4003,    4004,    4045,    4044
     608,    3993,    3994,    4203,    4202,    4002,    4003,    4044,    4043
     609,    3992,    3993,    4202,    4201,    4001,    4002,    4043,    4042
     610,    3991,    3992,    4201,    4200,    4000,    4001,    4042,    4041
     611,    3990,    3991,    4200,    4199,    3999,    4000,    4041,    4040
     612,    3989,    3990,    4199,    4172,    3998,    3999,    4040,    4013
     613,    3905,    2621,    2627,    4198,    3906,    2622,    2632,    4039
     614,    3904,    3905,    4198,    4197,    3907,    3906,    4039,    4038
     615,    3903,    3904,    4197,    4196,    3908,    3907,    4038,    4037
     616,    3902,    3903,    4196,    4195,    3909,    3908,    4037,    4036
     617,    3901,    3902,    4195,    4194,    3910,    3909,    4036,    4035
     618,    3900,    3901,    4194,    4193,    3911,    3910,    4035,    4034
     619,    3899,    3900,    4193,    4192,    3912,    3911,    4034,    4033
     620,    3897,    3899,    4192,    3931,    3898,    3912,    4033,    3940
     621,    3969,    3929,    3939,    4191,    3970,    3930,    3948,    4032
     622,    3968,    3969,    4191,    4190,    3971,    3970,    4032,    4031
     623,    3967,    3968,    4190,    4189,    3972,    3971,    4031,    4030
     624,    3966,    3967,    4189,    4188,    3973,    3972,    4030,    4029
     625,    3965,    3966,    4188,    4187,    3974,    3973,    4029,    4028
     626,    3964,    3965,    4187,    4186,    3975,    3974,    4028,    4027
     627,    3963,    3964,    4186,    4185,    3976,    3975,    4027,    4026
     628,    3962,    3963,    4185,    4184,    3977,    3976,    4026,    4025
     629,    3961,    3962,    4184,    4183,    3978,    3977,    4025,    4024
     630,    3960,    3961,    4183,    4182,    3979,    3978,    4024,    4023
     631,    3959,    3960,    4182,    4181,    3980,    3979,    4023,    4022
     632,    3958,    3959,    4181,    4180,    3981,    3980,    4022,    4021
     633,    3957,    3958,    4180,    4179,    3982,    3981,    4021,    4020
     634,    3956,    3957,    4179,    4178,    3983,    3982,    4020,    4019
     635,    3955,    3956,    4178,    4177,    3984,    3983,    4019,    4018
     636,    3954,    3955,    4177,    4176,    3985,    3984,    4018,    4017
     637,    3953,    3954,    4176,    4175,    3986,    3985,    4017,    4016
     638,    3952,    3953,    4175,    4174,    3987,    3986,    4016,    4015
     639,    3951,    3952,    4174,    4173,    3988,    3987,    4015,    4014
     640,    3949,    3951,    4173,    3997,    3950,    3988,    4014,    4006
     641,    3920,    3913,    3989,    4172,    3922,    3921,    3998,    4013
     642,    3919,    3920,    4172,    4171,    3923,    3922,    4013,    4012
     643,    3918,    3919,    4171,    4170,    3924,    3923,    4012,    4011
     644,    3917,    3918,    4170,    4169,    3925,    3924,    4011,    4010
     645,    3916,    3917,    4169,    4168,    3926,    3925,    4010,    4009
     646,    3915,    3916,    4168,    4167,    3927,    3926,    4009,    4008
     647,    3914,    3915,    4167,    4166,    3928,    3927,    4008,    4007
     648,    2619,    3914,    4166,    2623,    2620,    3928,    4007,    2628
     649,    3254,    3233,    3234,    3253,    3578,    3557,    3558,    3577
     650,    3253,    3246,    3247,    3254,    3577,    3573,    3574,    3578
     651,    3243,    3232,    3233,    3254,    3570,    3556,    3557,    3578
     652,    3242,    3243,    3254,    3247,    3569,    3570,    3578,    3574
     653,    3230,    3231,    3246,    3253,    3554,    3555,    3573,    3577
     654,    3229,    3230,    3253,    3234,    3553,    3554,    3577,    3558
     655,    3228,    3229,    3234,    3235,    3552,    3553,    3558,    3559
     656,    3227,    3228,    3235,    3236,    3551,    3552,    3559,    3560
     657,    3226,    3227,    3236,    3237,    3550,    3551,    3560,    3561
     658,    3225,    3226,    3237,    3238,    3549,    3550,    3561,    3562
     659,    3224,    3225,    3238,    3239,    3548,    3549,    3562,    3563
     660,    3249,    3240,    3252,    3248,    3566,    3567,    3576,    3575
     661,    3245,    3248,    3252,    3244,    3572,    3575,    3576,    3571
     662,    3241,    3244,    3252,    3240,    3568,    3571,    3576,    3567
     663,    3223,    3224,    3239,    3251,    3547,    3548,    3563,    3564
     664,    3222,    3223,    3251,    3250,    3546,    3547,    3564,    3565
     665,    3221,    3222,    3250,    3249,    3545,    3546,    3565,    3566
     666,    3220,    3221,    3249,    3248,    3544,    3545,    3566,    3575
     667,    3219,    3220,    3248,    3245,    3543,    3544,    3575,    3572
     668,    3213,    3214,    3242,    3247,    3537,    3538,    3569,    3574
     669,    3212,    3213,    3247,    3246,    3536,    3537,    3574,    3573
     670,    3211,    3212,    3246,    3231,    3535,    3536,    3573,    3555
     671,    3217,    3218,    3219,    3245,    3541,    3542,    3543,    3572
     672,    3216,    3217,    3245,    3244,    3540,    3541,    3572,    3571
     673,    3215,    3216,    3244,    3241,    3539,    3540,    3571,    3568
     674,    3196,    3197,    3232,    3243,    3520,    3521,    3556,    3570
     675,    3195,    3196,    3243,    3242,    3519,    3520,    3570,    3569
     676,    3194,    3195,    3242,    3214,    3518,    3519,    3569,    3538
     677,    3209,    3210,    3215,    3241,    3533,    3534,    3539,    3568
     678,    3208,    3209,    3241,    3240,    3532,    3533,    3568,    3567
     679,    3207,    3208,    3240,    3249,    3531,    3532,    3567,    3566
     680,    3206,    3207,    3249,    3250,    3530,    3531,    3566,    3565
     681,    3205,    3206,    3250,    3251,    3529,    3530,    3565,    3564
     682,    3204,    3205,    3251,    3239,    3528,    3529,    3564,    3563
     683,    3203,    3204,    3239,    3238,    3527,    3528,    3563,    3562
     684,    3202,    3203,    3238,    3237,    3526,    3527,    3562,    3561
     685,    3201,    3202,    3237,    3236,    3525,    3526,    3561,    3560
     686,    3200,    3201,    3236,    3235,    3524,    3525,    3560,    3559
     687,    3200,    3235,    3234,    3233,    3524,    3559,    3558,    3557
     688,    3199,    3200,    3233,    3232,    3523,    3524,    3557,    3556
     689,    3198,    3199,    3232,    3197,    3522,    3523,    3556,    3521
     690,    3192,    3193,    3211,    3231,    3516,    3517,    3535,    3555
     691,    3191,    3192,    3231,    3230,    3515,    3516,    3555,    3554
     692,    3190,    3191,    3230,    3229,    3514,    3515,    3554,    3553
     693,    3189,    3190,    3229,    3228,    3513,    3514,    3553,    3552
     694,    3188,    3189,    3228,    3227,    3512,    3513,    3552,    3551
     695,    3187,    3188,    3227,    3226,    3511,    3512,    3551,    3550
     696,    3186,    3187,    3226,    3225,    3510,    3511,    3550,    3549
     697,    3185,    3186,    3225,    3224,    3509,    3510,    3549,    3548
     698,    3184,    3185,    3224,    3223,    3508,    3509,    3548,    3547
     699,    3183,    3184,    3223,    3222,    3507,    3508,    3547,    3546
     700,    3182,    3183,    3222,    3221,    3506,    3507,    3546,    3545
     701,    3181,    3182,    3221,    3220,    3505,    3506,    3545,    3544
     702,    3180,    3181,    3220,    3219,    3504,    3505,    3544,    3543
     703,    3179,    3180,    3219,    3218,    3503,    3504,    3543,    3542
     704,    3177,    3178,    3179,    3218,    3501,    3502,    3503,    3542
     705,    3176,    3177,    3218,    3217,    3500,    3501,    3542,    3541
     706,    3175,    3176,    3217,    3216,    3499,    3500,    3541,    3540
     707,    3174,    3175,    3216,    3215,    3498,    3499,    3540,    3539
     708,    3173,    3174,    3215,    3210,    3497,    3498,    3539,    3534
     709,    3171,    3172,    3194,    3214,    3495,    3496,    3518,    3538
     710,    3170,    3171,    3214,    3213,    3494,    3495,    3538,    3537
     711,    3169,    3170,    3213,    3212,    3493,    3494,    3537,    3536
     712,    3168,    3169,    3212,    3211,    3492,    3493,    3536,    3535
     713,    3167,    3168,    3211,    3193,    3491,    3492,    3535,    3517
     714,    3165,    3166,    3173,    3210,    3489,    3490,    3497,    3534
     715,    3164,    3165,    3210,    3209,    3488,    3489,    3534,    3533
     716,    3163,    3164,    3209,    3208,    3487,    3488,    3533,    3532
     717,    3162,    3163,    3208,    3207,    3486,    3487,    3532,    3531
     718,    3161,    3162,    3207,    3206,    3485,    3486,    3531,    3530
     719,    3160,    3161,    3206,    3205,    3484,    3485,    3530,    3529
     720,    3159,    3160,    3205,    3204,    3483,    3484,    3529,    3528
     721,    3158,    3159,    3204,    3203,    3482,    3483,    3528,    3527
     722,    3157,    3158,    3203,    3202,    3481,    3482,    3527,    3526
     723,    3156,    3157,    3202,    3201,    3480,    3481,    3526,    3525
     724,    3156,    3201,    3200,    3199,    3480,    3525,    3524,    3523
     725,    3155,    3156,    3199,    3198,    3479,    3480,    3523,    3522
     726,    3153,    3154,    3155,    3198,    3477,    3478,    3479,    3522
     727,    3152,    3153,    3198,    3197,    3476,    3477,    3522,    3521
     728,    3151,    3152,    3197,    3196,    3475,    3476,    3521,    3520
     729,    3150,    3151,    3196,    3195,    3474,    3475,    3520,    3519
     730,    3149,    3150,    3195,    3194,    3473,    3474,    3519,    3518
     731,    3148,    3149,    3194,    3172,    3472,    3473,    3518,    3496
     732,    3119,    3120,    3167,    3193,    3443,    3444,    3491,    3517
     733,    3118,    3119,    3193,    3192,    3442,    3443,    3517,    3516
     734,    3117,    3118,    3192,    3191,    3441,    3442,    3516,    3515
     735,    3116,    3117,    3191,    3190,    3440,    3441,    3515,    3514
     736,    3115,    3116,    3190,    3189,    3439,    3440,    3514,    3513
     737,    3114,    3115,    3189,    3188,    3438,    3439,    3513,    3512
     738,    3113,    3114,    3188,    3187,    3437,    3438,    3512,    3511
     739,    3112,    3113,    3187,    3186,    3436,    3437,    3511,    3510
     740,    3111,    3112,    3186,    3185,    3435,    3436,    3510,    3509
     741,    3110,    3111,    3185,    3184,    3434,    3435,    3509,    3508
     742,    3109,    3110,    3184,    3183,    3433,    3434,    3508,    3507
     743,    3108,    3109,    3183,    3182,    3432,    3433,    3507,    3506
     744,    3107,    3108,    3182,    3181,    3431,    3432,    3506,    3505
     745,    3106,    3107,    3181,    3180,    3430,    3431,    3505,    3504
     746,    3105,    3106,    3180,    3179,    3429,    3430,    3504,    3503
     747,    3104,    3105,    3179,    3178,    3428,    3429,    3503,    3502
     748,    3135,    3103,    3104,    3178,    3459,    3427,    3428,    3502
     749,    3134,    3135,    3178,    3177,    3458,    3459,    3502,    3501
     750,    3133,    3134,    3177,    3176,    3457,    3458,    3501,    3500
     751,    3132,    3133,    3176,    3175,    3456,    3457,    3500,    3499
     752,    3131,    3132,    3175,    3174,    3455,    3456,    3499,    3498
     753,    3130,    3131,    3174,    3173,    3454,    3455,    3498,    3497
     754,    3129,    3130,    3173,    3166,    3453,    3454,    3497,    3490
     755,    3141,    3142,    3148,    3172,    3465,    3466,    3472,    3496
     756,    3140,    3141,    3172,    3171,    3464,    3465,    3496,    3495
     757,    3139,    3140,    3171,    3170,    3463,    3464,    3495,    3494
     758,    3138,    3139,    3170,    3169,    3462,    3463,    3494,    3493
     759,    3137,    3138,    3169,    3168,    3461,    3462,    3493,    3492
     760,    3136,    3137,    3168,    3167,    3460,    3461,    3492,    3491
     761,    3121,    3136,    3167,    3120,    3445,    3460,    3491,    3444
     762,    3101,    3102,    3129,    3166,    3425,    3426,    3453,    3490
     763,    3100,    3101,    3166,    3165,    3424,    3425,    3490,    3489
     764,    3099,    3100,    3165,    3164,    3423,    3424,    3489,    3488
     765,    3098,    3099,    3164,    3163,    3422,    3423,    3488,    3487
     766,    3097,    3098,    3163,    3162,    3421,    3422,    3487,    3486
     767,    3096,    3097,    3162,    3161,    3420,    3421,    3486,    3485
     768,    3147,    3096,    3161,    3160,    3471,    3420,    3485,    3484
     769,    3146,    3147,    3160,    3159,    3470,    3471,    3484,    3483
     770,    3145,    3146,    3159,    3158,    3469,    3470,    3483,    3482
     771,    3144,    3145,    3158,    3157,    3468,    3469,    3482,    3481
     772,    3144,    3157,    3156,    3155,    3468,    3481,    3480,    3479
     773,    3143,    3144,    3155,    3154,    3467,    3468,    3479,    3478
     774,    3128,    3143,    3154,    3153,    3452,    3467,    3478,    3477
     775,    3127,    3128,    3153,    3152,    3451,    3452,    3477,    3476
     776,    3126,    3127,    3152,    3151,    3450,    3451,    3476,    3475
     777,    3125,    3126,    3151,    3150,    3449,    3450,    3475,    3474
     778,    3124,    3125,    3150,    3149,    3448,    3449,    3474,    3473
     779,    3123,    3124,    3149,    3148,    3447,    3448,    3473,    3472
     780,    3122,    3123,    3148,    3142,    3446,    3447,    3472,    3466
     781,    2597,    2596,    3096,    3147,    2616,    2618,    3420,    3471
     782,    2598,    2597,    3147,    3146,    2614,    2616,    3471,    3470
     783,    2599,    2598,    3146,    3145,    2612,    2614,    3470,    3469
     784,    2599,    3145,    3144,    3143,    2612,    3469,    3468,    3467
     785,    2600,    2599,    3143,    3128,    2610,    2612,    3467,    3452
     786,    3081,    3080,    3122,    3142,    3404,    3402,    3446,    3466
     787,    3082,    3081,    3142,    3141,    3406,    3404,    3466,    3465
     788,    3083,    3082,    3141,    3140,    3408,    3406,    3465,    3464
     789,    3084,    3083,    3140,    3139,    3410,    3408,    3464,    3463
     790,    3085,    3084,    3139,    3138,    3412,    3410,    3463,    3462
     791,    3086,    3085,    3138,    3137,    3414,    3412,    3462,    3461
     792,    3087,    3086,    3137,    3136,    3416,    3414,    3461,    3460
     793,    3088,    3087,    3136,    3121,    3418,    3416,    3460,    3445
     794,    3051,    3050,    3103,    3135,    3330,    3332,    3427,    3459
     795,    3052,    3051,    3135,    3134,    3328,    3330,    3459,    3458
     796,    3053,    3052,    3134,    3133,    3326,    3328,    3458,    3457
     797,    3054,    3053,    3133,    3132,    3324,    3326,    3457,    3456
     798,    3055,    3054,    3132,    3131,    3322,    3324,    3456,    3455
     799,    3056,    3055,    3131,    3130,    3320,    3322,    3455,    3454
     800,    3057,    3056,    3130,    3129,    3318,    3320,    3454,    3453
     801,    3058,    3057,    3129,    3102,    3316,    3318,    3453,    3426
     802,    3089,    2591,    2600,    3128,    3295,    2593,    2610,    3452
     803,    3090,    3089,    3128,    3127,    3294,    3295,    3452,    3451
     804,    3091,    3090,    3127,    3126,    3293,    3294,    3451,    3450
     805,    3092,    3091,    3126,    3125,    3292,    3293,    3450,    3449
     806,    3093,    3092,    3125,    3124,    3291,    3292,    3449,    3448
     807,    3094,    3093,    3124,    3123,    3290,    3291,    3448,    3447
     808,    3095,    3094,    3123,    3122,    3289,    3290,    3447,    3446
     809,    3079,    3095,    3122,    3080,    3288,    3289,    3446,    3402
     810,    3060,    3059,    3088,    3121,    3373,    3334,    3418,    3445
     811,    3061,    3060,    3121,    3120,    3372,    3373,    3445,    3444
     812,    3062,    3061,    3120,    3119,    3371,    3372,    3444,    3443
     813,    3063,    3062,    3119,    3118,    3370,    3371,    3443,    3442
     814,    3064,    3063,    3118,    3117,    3369,    3370,    3442,    3441
     815,    3065,    3064,    3117,    3116,    3368,    3369,    3441,    3440
     816,    3066,    3065,    3116,    3115,    3367,    3368,    3440,    3439
     817,    3067,    3066,    3115,    3114,    3366,    3367,    3439,    3438
     818,    3068,    3067,    3114,    3113,    3365,    3366,    3438,    3437
     819,    3069,    3068,    3113,    3112,    3364,    3365,    3437,    3436
     820,    3070,    3069,    3112,    3111,    3363,    3364,    3436,    3435
     821,    3071,    3070,    3111,    3110,    3362,    3363,    3435,    3434
     822,    3072,    3071,    3110,    3109,    3361,    3362,    3434,    3433
     823,    3073,    3072,    3109,    3108,    3360,    3361,    3433,    3432
     824,    3074,    3073,    3108,    3107,    3359,    3360,    3432,    3431
     825,    3075,    3074,    3107,    3106,    3358,    3359,    3431,    3430
     826,    3076,    3075,    3106,    3105,    3357,    3358,    3430,    3429
     827,    3077,    3076,    3105,    3104,    3356,    3357,    3429,    3428
     828,    3078,    3077,    3104,    3103,    3355,    3356,    3428,    3427
     829,    3049,    3078,    3103,    3050,    3305,    3355,    3427,    3332
     830,    3042,    3041,    3058,    3102,    3271,    3256,    3316,    3426
     831,    3043,    3042,    3102,    3101,    3270,    3271,    3426,    3425
     832,    3044,    3043,    3101,    3100,    3269,    3270,    3425,    3424
     833,    3045,    3044,    3100,    3099,    3268,    3269,    3424,    3423
     834,    3046,    3045,    3099,    3098,    3267,    3268,    3423,    3422
     835,    3047,    3046,    3098,    3097,    3266,    3267,    3422,    3421
     836,    3048,    3047,    3097,    3096,    3265,    3266,    3421,    3420
     837,    2595,    3048,    3096,    2596,    2603,    3265,    3420,    2618
     838,    3578,    3557,    3558,    3577,    3737,    3716,    3717,    3736
     839,    3577,    3573,    3574,    3578,    3736,    3732,    3733,    3737
     840,    3570,    3556,    3557,    3578,    3729,    3715,    3716,    3737
     841,    3569,    3570,    3578,    3574,    3728,    3729,    3737,    3733
     842,    3554,    3555,    3573,    3577,    3713,    3714,    3732,    3736
     843,    3553,    3554,    3577,    3558,    3712,    3713,    3736,    3717
     844,    3552,    3553,    3558,    3559,    3711,    3712,    3717,    3718
     845,    3551,    3552,    3559,    3560,    3710,    3711,    3718,    3719
     846,    3550,    3551,    3560,    3561,    3709,    3710,    3719,    3720
     847,    3549,    3550,    3561,    3562,    3708,    3709,    3720,    3721
     848,    3548,    3549,    3562,    3563,    3707,    3708,    3721,    3722
     849,    3566,    3567,    3576,    3575,    3725,    3726,    3735,    3734
     850,    3572,    3575,    3576,    3571,    3731,    3734,    3735,    3730
     851,    3568,    3571,    3576,    3567,    3727,    3730,    3735,    3726
     852,    3547,    3548,    3563,    3564,    3706,    3707,    3722,    3723
     853,    3546,    3547,    3564,    3565,    3705,    3706,    3723,    3724
     854,    3545,    3546,    3565,    3566,    3704,    3705,    3724,    3725
     855,    3544,    3545,    3566,    3575,    3703,    3704,    3725,    3734
     856,    3543,    3544,    3575,    3572,    3702,    3703,    3734,    3731
     857,    3537,    3538,    3569,    3574,    3696,    3697,    3728,    3733
     858,    3536,    3537,    3574,    3573,    3695,    3696,    3733,    3732
     859,    3535,    3536,    3573,    3555,    3694,    3695,    3732,    3714
     860,    3541,    3542,    3543,    3572,    3700,    3701,    3702,    3731
     861,    3540,    3541,    3572,    3571,    3699,    3700,    3731,    3730
     862,    3539,    3540,    3571,    3568,    3698,    3699,    3730,    3727
     863,    3520,    3521,    3556,    3570,    3679,    3680,    3715,    3729
     864,    3519,    3520,    3570,    3569,    3678,    3679,    3729,    3728
     865,    3518,    3519,    3569,    3538,    3677,    3678,    3728,    3697
     866,    3533,    3534,    3539,    3568,    3692,    3693,    3698,    3727
     867,    3532,    3533,    3568,    3567,    3691,    3692,    3727,    3726
     868,    3531,    3532,    3567,    3566,    3690,    3691,    3726,    3725
     869,    3530,    3531,    3566,    3565,    3689,    3690,    3725,    3724
     870,    3529,    3530,    3565,    3564,    3688,    3689,    3724,    3723
     871,    3528,    3529,    3564,    3563,    3687,    3688,    3723,    3722
     872,    3527,    3528,    3563,    3562,    3686,    3687,    3722,    3721
     873,    3526,    3527,    3562,    3561,    3685,    3686,    3721,    3720
     874,    3525,    3526,    3561,    3560,    3684,    3685,    3720,    3719
     875,    3524,    3525,    3560,    3559,    3683,    3684,    3719,    3718
     876,    3524,    3559,    3558,    3557,    3683,    3718,    3717,    3716
     877,    3523,    3524,    3557,    3556,    3682,    3683,    3716,    3715
     878,    3522,    3523,    3556,    3521,    3681,    3682,    3715,    3680
     879,    3516,    3517,    3535,    3555,    3675,    3676,    3694,    3714
     880,    3515,    3516,    3555,    3554,    3674,    3675,    3714,    3713
     881,    3514,    3515,    3554,    3553,    3673,    3674,    3713,    3712
     882,    3513,    3514,    3553,    3552,    3672,    3673,    3712,    3711
     883,    3512,    3513,    3552,    3551,    3671,    3672,    3711,    3710
     884,    3511,    3512,    3551,    3550,    3670,    3671,    3710,    3709
     885,    3510,    3511,    3550,    3549,    3669,    3670,    3709,    3708
     886,    3509,    3510,    3549,    3548,    3668,    3669,    3708,    3707
     887,    3508,    3509,    3548,    3547,    3667,    3668,    3707,    3706
     888,    3507,    3508,    3547,    3546,    3666,    3667,    3706,    3705
     889,    3506,    3507,    3546,    3545,    3665,    3666,    3705,    3704
     890,    3505,    3506,    3545,    3544,    3664,    3665,    3704,    3703
     891,    3504,    3505,    3544,    3543,    3663,    3664,    3703,    3702
     892,    3503,    3504,    3543,    3542,    3662,    3663,    3702,    3701
     893,    3501,    3502,    3503,    3542,    3660,    3661,    3662,    3701
     894,    3500,    3501,    3542,    3541,    3659,    3660,    3701,    3700
     895,    3499,    3500,    3541,    3540,    3658,    3659,    3700,    3699
     896,    3498,    3499,    3540,    3539,    3657,    3658,    3699,    3698
     897,    3497,    3498,    3539,    3534,    3656,    3657,    3698,    3693
     898,    3495,    3496,    3518,    3538,    3654,    3655,    3677,    3697
     899,    3494,    3495,    3538,    3537,    3653,    3654,    3697,    3696
     900,    3493,    3494,    3537,    3536,    3652,    3653,    3696,    3695
     901,    3492,    3493,    3536,    3535,    3651,    3652,    3695,    3694
     902,    3491,    3492,    3535,    3517,    3650,    3651,    3694,    3676
     903,    3489,    3490,    3497,    3534,    3648,    3649,    3656,    3693
     904,    3488,    3489,    3534,    3533,    3647,    3648,    3693,    3692
     905,    3487,    3488,    3533,    3532,    3646,    3647,    3692,    3691
     906,    3486,    3487,    3532,    3531,    3645,    3646,    3691,    3690
     907,    3485,    3486,    3531,    3530,    3644,    3645,    3690,    3689
     908,    3484,    3485,    3530,    3529,    3643,    3644,    3689,    3688
     909,    3483,    3484,    3529,    3528,    3642,    3643,    3688,    3687
     910,    3482,    3483,    3528,    3527,    3641,    3642,    3687,    3686
     911,    3481,    3482,    3527,    3526,    3640,    3641,    3686,    3685
     912,    3480,    3481,    3526,    3525,    3639,    3640,    3685,    3684
     913,    3480,    3525,    3524,    3523,    3639,    3684,    3683,    3682
     914,    3479,    3480,    3523,    3522,    3638,    3639,    3682,    3681
     915,    3477,    3478,    3479,    3522,    3636,    3637,    3638,    3681
     916,    3476,    3477,    3522,    3521,    3635,    3636,    3681,    3680
     917,    3475,    3476,    3521,    3520,    3634,    3635,    3680,    3679
     918,    3474,    3475,    3520,    3519,    3633,    3634,    3679,    3678
     919,    3473,    3474,    3519,    3518,    3632,    3633,    3678,    3677
     920,    3472,    3473,    3518,    3496,    3631,    3632,    3677,    3655
     921,    3443,    3444,    3491,    3517,    3602,    3603,    3650,    3676
     922,    3442,    3443,    3517,    3516,    3601,    3602,    3676,    3675
     923,    3441,    3442,    3516,    3515,    3600,    3601,    3675,    3674
     924,    3440,    3441,    3515,    3514,    3599,    3600,    3674,    3673
     925,    3439,    3440,    3514,    3513,    3598,    3599,    3673,    3672
     926,    3438,    3439,    3513,    3512,    3597,    3598,    3672,    3671
     927,    3437,    3438,    3512,    3511,    3596,    3597,    3671,    3670
     928,    3436,    3437,    3511,    3510,    3595,    3596,    3670,    3669
     929,    3435,    3436,    3510,    3509,    3594,    3595,    3669,    3668
     930,    3434,    3435,    3509,    3508,    3593,    3594,    3668,    3667
     931,    3433,    3434,    3508,    3507,    3592,    3593,    3667,    3666
     932,    3432,    3433,    3507,    3506,    3591,    3592,    3666,    3665
     933,    3431,    3432,    3506,    3505,    3590,    3591,    3665,    3664
     934,    3430,    3431,    3505,    3504,    3589,    3590,    3664,    3663
     935,    3429,    3430,    3504,    3503,    3588,    3589,    3663,    3662
     936,    3428,    3429,    3503,    3502,    3587,    3588,    3662,    3661
     937,    3459,    3427,    3428,    3502,    3618,    3586,    3587,    3661
     938,    3458,    3459,    3502,    3501,    3617,    3618,    3661,    3660
     939,    3457,    3458,    3501,    3500,    3616,    3617,    3660,    3659
     940,    3456,    3457,    3500,    3499,    3615,    3616,    3659,    3658
     941,    3455,    3456,    3499,    3498,    3614,    3615,    3658,    3657
     942,    3454,    3455,    3498,    3497,    3613,    3614,    3657,    3656
     943,    3453,    3454,    3497,    3490,    3612,    3613,    3656,    3649
     944,    3465,    3466,    3472,    3496,    3624,    3625,    3631,    3655
     945,    3464,    3465,    3496,    3495,    3623,    3624,    3655,    3654
     946,    3463,    3464,    3495,    3494,    3622,    3623,    3654,    3653
     947,    3462,    3463,    3494,    3493,    3621,    3622,    3653,    3652
     948,    3461,    3462,    3493,    3492,    3620,    3621,    3652,    3651
     949,    3460,    3461,    3492,    3491,    3619,    3620,    3651,    3650
     950,    3445,    3460,    3491,    3444,    3604,    3619,    3650,    3603
     951,    3425,    3426,    3453,    3490,    3584,    3585,    3612,    3649
     952,    3424,    3425,    3490,    3489,    3583,    3584,    3649,    3648
     953,    3423,    3424,    3489,    3488,    3582,    3583,    3648,    3647
     954,    3422,    3423,    3488,    3487,    3581,    3582,    3647,    3646
     955,    3421,    3422,    3487,    3486,    3580,    3581,    3646,    3645
     956,    3420,    3421,    3486,    3485,    3579,    3580,    3645,    3644
     957,    3471,    3420,    3485,    3484,    3630,    3579,    3644,    3643
     958,    3470,    3471,    3484,    3483,    3629,    3630,    3643,    3642
     959,    3469,    3470,    3483,    3482,    3628,    3629,    3642,    3641
     960,    3468,    3469,    3482,    3481,    3627,    3628,    3641,    3640
     961,    3468,    3481,    3480,    3479,    3627,    3640,    3639,    3638
     962,    3467,    3468,    3479,    3478,    3626,    3627,    3638,    3637
     963,    3452,    3467,    3478,    3477,    3611,    3626,    3637,    3636
     964,    3451,    3452,    3477,    3476,    3610,    3611,    3636,    3635
     965,    3450,    3451,    3476,    3475,    3609,    3610,    3635,    3634
     966,    3449,    3450,    3475,    3474,    3608,    3609,    3634,    3633
     967,    3448,    3449,    3474,    3473,    3607,    3608,    3633,    3632
     968,    3447,    3448,    3473,    3472,    3606,    3607,    3632,    3631
     969,    3446,    3447,    3472,    3466,    3605,    3606,    3631,    3625
     970,    2616,    2618,    3420,    3471,    2615,    2617,    3579,    3630
     971,    2614,    2616,    3471,    3470,    2613,    2615,    3630,    3629
     972,    2612,    2614,    3470,    3469,    2611,    2613,    3629,    3628
     973,    2612,    3469,    3468,    3467,    2611,    3628,    3627,    3626
     974,    2610,    2612,    3467,    3452,    2609,    2611,    3626,    3611
     975,    3404,    3402,    3446,    3466,    3405,    3403,    3605,    3625
     976,    3406,    3404,    3466,    3465,    3407,    3405,    3625,    3624
     977,    3408,    3406,    3465,    3464,    3409,    3407,    3624,    3623
     978,    3410,    3408,    3464,    3463,    3411,    3409,    3623,    3622
     979,    3412,    3410,    3463,    3462,    3413,    3411,    3622,    3621
     980,    3414,    3412,    3462,    3461,    3415,    3413,    3621,    3620
     981,    3416,    3414,    3461,    3460,    3417,    3415,    3620,    3619
     982,    3418,    3416,    3460,    3445,    3419,    3417,    3619,    3604
     983,    3330,    3332,    3427,    3459,    3329,    3331,    3586,    3618
     984,    3328,    3330,    3459,    3458,    3327,    3329,    3618,    3617
     985,    3326,    3328,    3458,    3457,    3325,    3327,    3617,    3616
     986,    3324,    3326,    3457,    3456,    3323,    3325,    3616,    3615
     987,    3322,    3324,    3456,    3455,    3321,    3323,    3615,    3614
     988,    3320,    3322,    3455,    3454,    3319,    3321,    3614,    3613
     989,    3318,    3320,    3454,    3453,    3317,    3319,    3613,    3612
     990,    3316,    3318,    3453,    3426,    3315,    3317,    3612,    3585
     991,    3295,    2593,    2610,    3452,    3302,    2594,    2609,    3611
     992,    3294,    3295,    3452,    3451,    3301,    3302,    3611,    3610
     993,    3293,    3294,    3451,    3450,    3300,    3301,    3610,    3609
     994,    3292,    3293,    3450,    3449,    3299,    3300,    3609,    3608
     995,    3291,    3292,    3449,    3448,    3298,    3299,    3608,    3607
     996,    3290,    3291,    3448,    3447,    3297,    3298,    3607,    3606
     997,    3289,    3290,    3447,    3446,    3296,    3297,    3606,    3605
     998,    3288,    3289,    3446,    3402,    3287,    3296,    3605,    3403
     999,    3373,    3334,    3418,    3445,    3392,    3335,    3419,    3604
    1000,    3372,    3373,    3445,    3444,    3391,    3392,    3604,    3603
    1001,    3371,    3372,    3444,    3443,    3390,    3391,    3603,    3602
    1002,    3370,    3371,    3443,    3442,    3389,    3390,    3602,    3601
    1003,    3369,    3370,    3442,    3441,    3388,    3389,    3601,    3600
    1004,    3368,    3369,    3441,    3440,    3387,    3388,    3600,    3599
    1005,    3367,    3368,    3440,    3439,    3386,    3387,    3599,    3598
    1006,    3366,    3367,    3439,    3438,    3385,    3386,    3598,    3597
    1007,    3365,    3366,    3438,    3437,    3384,    3385,    3597,    3596
    1008,    3364,    3365,    3437,    3436,    3383,    3384,    3596,    3595
    1009,    3363,    3364,    3436,    3435,    3382,    3383,    3595,    3594
    1010,    3362,    3363,    3435,    3434,    3381,    3382,    3594,    3593
    1011,    3361,    3362,    3434,    3433,    3380,    3381,    3593,    3592
    1012,    3360,    3361,    3433,    3432,    3379,    3380,    3592,    3591
    1013,    3359,    3360,    3432,    3431,    3378,    3379,    3591,    3590
    1014,    3358,    3359,    3431,    3430,    3377,    3378,    3590,    3589
    1015,    3357,    3358,    3430,    3429,    3376,    3377,    3589,    3588
    1016,    3356,    3357,    3429,    3428,    3375,    3376,    3588,    3587
    1017,    3355,    3356,    3428,    3427,    3374,    3375,    3587,    3586
    1018,    3305,    3355,    3427,    3332,    3304,    3374,    3586,    3331
    1019,    3271,    3256,    3316,    3426,    3278,    3257,    3315,    3585
    1020,    3270,    3271,    3426,    3425,    3277,    3278,    3585,    3584
    1021,    3269,    3270,    3425,    3424,    3276,    3277,    3584,    3583
    1022,    3268,    3269,    3424,    3423,    3275,    3276,    3583,    3582
    1023,    3267,    3268,    3423,    3422,    3274,    3275,    3582,    3581
    1024,    3266,    3267,    3422,    3421,    3273,    3274,    3581,    3580
    1025,    3265,    3266,    3421,    3420,    3272,    3273,    3580,    3579
    1026,    2603,    3265,    3420,    2618,    2602,    3272,    3579,    2617
    1027,    3737,    3716,    3717,    3736,    3896,    3875,    3876,    3895
    1028,    3736,    3732,    3733,    3737,    3895,    3891,    3892,    3896
    1029,    3729,    3715,    3716,    3737,    3888,    3874,    3875,    3896
    1030,    3728,    3729,    3737,    3733,    3887,    3888,    3896,    3892
    1031,    3713,    3714,    3732,    3736,    3872,    3873,    3891,    3895
    1032,    3712,    3713,    3736,    3717,    3871,    3872,    3895,    3876
    1033,    3711,    3712,    3717,    3718,    3870,    3871,    3876,    3877
    1034,    3710,    3711,    3718,    3719,    3869,    3870,    3877,    3878
    1035,    3709,    3710,    3719,    3720,    3868,    3869,    3878,    3879
    1036,    3708,    3709,    3720,    3721,    3867,    3868,    3879,    3880
    1037,    3707,    3708,    3721,    3722,    3866,    3867,    3880,    3881
    1038,    3725,    3726,    3735,    3734,    3884,    3885,    3894,    3893
    1039,    3731,    3734,    3735,    3730,    3890,    3893,    3894,    3889
    1040,    3727,    3730,    3735,    3726,    3886,    3889,    3894,    3885
    1041,    3706,    3707,    3722,    3723,    3865,    3866,    3881,    3882
    1042,    3705,    3706,    3723,    3724,    3864,    3865,    3882,    3883
    1043,    3704,    3705,    3724,    3725,    3863,    3864,    3883,    3884
    1044,    3703,    3704,    3725,    3734,    3862,    3863,    3884,    3893
    1045,    3702,    3703,    3734,    3731,    3861,    3862,    3893,    3890
    1046,    3696,    3697,    3728,    3733,    3855,    3856,    3887,    3892
    1047,    3695,    3696,    3733,    3732,    3854,    3855,    3892,    3891
    1048,    3694,    3695,    3732,    3714,    3853,    3854,    3891,    3873
    1049,    3700,    3701,    3702,    3731,    3859,    3860,    3861,    3890
    1050,    3699,    3700,    3731,    3730,    3858,    3859,    3890,    3889
    1051,    3698,    3699,    3730,    3727,    3857,    3858,    3889,    3886
    1052,    3679,    3680,    3715,    3729,    3838,    3839,    3874,    3888
    1053,    3678,    3679,    3729,    3728,    3837,    3838,    3888,    3887
    1054,    3677,    3678,    3728,    3697,    3836,    3837,    3887,    3856
    1055,    3692,    3693,    3698,    3727,    3851,    3852,    3857,    3886
    1056,    3691,    3692,    3727,    3726,    3850,    3851,    3886,    3885
    1057,    3690,    3691,    3726,    3725,    3849,    3850,    3885,    3884
    1058,    3689,    3690,    3725,    3724,    3848,    3849,    3884,    3883
    1059,    3688,    3689,    3724,    3723,    3847,    3848,    3883,    3882
    1060,    3687,    3688,    3723,    3722,    3846,    3847,    3882,    3881
    1061,    3686,    3687,    3722,    3721,    3845,    3846,    3881,    3880
    1062,    3685,    3686,    3721,    3720,    3844,    3845,    3880,    3879
    1063,    3684,    3685,    3720,    3719,    3843,    3844,    3879,    3878
    1064,    3683,    3684,    3719,    3718,    3842,    3843,    3878,    3877
    1065,    3683,    3718,    3717,    3716,    3842,    3877,    3876,    3875
    1066,    3682,    3683,    3716,    3715,    3841,    3842,    3875,    3874
    1067,    3681,    3682,    3715,    3680,    3840,    3841,    3874,    3839
    1068,    3675,    3676,    3694,    3714,    3834,    3835,    3853,    3873
    1069,    3674,    3675,    3714,    3713,    3833,    3834,    3873,    3872
    1070,    3673,    3674,    3713,    3712,    3832,    3833,    3872,    3871
    1071,    3672,    3673,    3712,    3711,    3831,    3832,    3871,    3870
    1072,    3671,    3672,    3711,    3710,    3830,    3831,    3870,    3869
    1073,    3670,    3671,    3710,    3709,    3829,    3830,    3869,    3868
    1074,    3669,    3670,    3709,    3708,    3828,    3829,    3868,    3867
    1075,    3668,    3669,    3708,    3707,    3827,    3828,    3867,    3866
    1076,    3667,    3668,    3707,    3706,    3826,    3827,    3866,    3865
    1077,    3666,    3667,    3706,    3705,    3825,    3826,    3865,    3864
    1078,    3665,    3666,    3705,    3704,    3824,    3825,    3864,    3863
    1079,    3664,    3665,    3704,    3703,    3823,    3824,    3863,    3862
    1080,    3663,    3664,    3703,    3702,    3822,    3823,    3862,    3861
    1081,    3662,    3663,    3702,    3701,    3821,    3822,    3861,    3860
    1082,    3660,    3661,    3662,    3701,    3819,    3820,    3821,    3860
    1083,    3659,    3660,    3701,    3700,    3818,    3819,    3860,    3859
    1084,    3658,    3659,    3700,    3699,    3817,    3818,    3859,    3858
    1085,    3657,    3658,    3699,    3698,    3816,    3817,    3858,    3857
    1086,    3656,    3657,    3698,    3693,    3815,    3816,    3857,    3852
    1087,    3654,    3655,    3677,    3697,    3813,    3814,    3836,    3856
    1088,    3653,    3654,    3697,    3696,    3812,    3813,    3856,    3855
    1089,    3652,    3653,    3696,    3695,    3811,    3812,    3855,    3854
    1090,    3651,    3652,    3695,    3694,    3810,    3811,    3854,    3853
    1091,    3650,    3651,    3694,    3676,    3809,    3810,    3853,    3835
    1092,    3648,    3649,    3656,    3693,    3807,    3808,    3815,    3852
    1093,    3647,    3648,    3693,    3692,    3806,    3807,    3852,    3851
    1094,    3646,    3647,    3692,    3691,    3805,    3806,    3851,    3850
    1095,    3645,    3646,    3691,    3690,    3804,    3805,    3850,    3849
    1096,    3644,    3645,    3690,    3689,    3803,    3804,    3849,    3848
    1097,    3643,    3644,    3689,    3688,    3802,    3803,    3848,    3847
    1098,    3642,    3643,    3688,    3687,    3801,    3802,    3847,    3846
    1099,    3641,    3642,    3687,    3686,    3800,    3801,    3846,    3845
    1100,    3640,    3641,    3686,    3685,    3799,    3800,    3845,    3844
    1101,    3639,    3640,    3685,    3684,    3798,    3799,    3844,    3843
    1102,    3639,    3684,    3683,    3682,    3798,    3843,    3842,    3841
    1103,    3638,    3639,    3682,    3681,    3797,    3798,    3841,    3840
    1104,    3636,    3637,    3638,    3681,    3795,    3796,    3797,    3840
    1105,    3635,    3636,    3681,    3680,    3794,    3795,    3840,    3839
    1106,    3634,    3635,    3680,    3679,    3793,    3794,    3839,    3838
    1107,    3633,    3634,    3679,    3678,    3792,    3793,    3838,    3837
    1108,    3632,    3633,    3678,    3677,    3791,    3792,    3837,    3836
    1109,    3631,    3632,    3677,    3655,    3790,    3791,    3836,    3814
    1110,    3602,    3603,    3650,    3676,    3761,    3762,    3809,    3835
    1111,    3601,    3602,    3676,    3675,    3760,    3761,    3835,    3834
    1112,    3600,    3601,    3675,    3674,    3759,    3760,    3834,    3833
    1113,    3599,    3600,    3674,    3673,    3758,    3759,    3833,    3832
    1114,    3598,    3599,    3673,    3672,    3757,    3758,    3832,    3831
    1115,    3597,    3598,    3672,    3671,    3756,    3757,    3831,    3830
    1116,    3596,    3597,    3671,    3670,    3755,    3756,    3830,    3829
    1117,    3595,    3596,    3670,    3669,    3754,    3755,    3829,    3828
    1118,    3594,    3595,    3669,    3668,    3753,    3754,    3828,    3827
    1119,    3593,    3594,    3668,    3667,    3752,    3753,    3827,    3826
    1120,    3592,    3593,    3667,    3666,    3751,    3752,    3826,    3825
    1121,    3591,    3592,    3666,    3665,    3750,    3751,    3825,    3824
    1122,    3590,    3591,    3665,    3664,    3749,    3750,    3824,    3823
    1123,    3589,    3590,    3664,    3663,    3748,    3749,    3823,    3822
    1124,    3588,    3589,    3663,    3662,    3747,    3748,    3822,    3821
    1125,    3587,    3588,    3662,    3661,    3746,    3747,    3821,    3820
    1126,    3618,    3586,    3587,    3661,    3777,    3745,    3746,    3820
    1127,    3617,    3618,    3661,    3660,    3776,    3777,    3820,    3819
    1128,    3616,    3617,    3660,    3659,    3775,    3776,    3819,    3818
    1129,    3615,    3616,    3659,    3658,    3774,    3775,    3818,    3817
    1130,    3614,    3615,    3658,    3657,    3773,    3774,    3817,    3816
    1131,    3613,    3614,    3657,    3656,    3772,    3773,    3816,    3815
    1132,    3612,    3613,    3656,    3649,    3771,    3772,    3815,    3808
    1133,    3624,    3625,    3631,    3655,    3783,    3784,    3790,    3814
    1134,    3623,    3624,    3655,    3654,    3782,    3783,    3814,    3813
    1135,    3622,    3623,    3654,    3653,    3781,    3782,    3813,    3812
    1136,    3621,    3622,    3653,    3652,    3780,    3781,    3812,    3811
    1137,    3620,    3621,    3652,    3651,    3779,    3780,    3811,    3810
    1138,    3619,    3620,    3651,    3650,    3778,    3779,    3810,    3809
    1139,    3604,    3619,    3650,    3603,    3763,    3778,    3809,    3762
    1140,    3584,    3585,    3612,    3649,    3743,    3744,    3771,    3808
    1141,    3583,    3584,    3649,    3648,    3742,    3743,    3808,    3807
    1142,    3582,    3583,    3648,    3647,    3741,    3742,    3807,    3806
    1143,    3581,    3582,    3647,    3646,    3740,    3741,    3806,    3805
    1144,    3580,    3581,    3646,    3645,    3739,    3740,    3805,    3804
    1145,    3579,    3580,    3645,    3644,    3738,    3739,    3804,    3803
    1146,    3630,    3579,    3644,    3643,    3789,    3738,    3803,    3802
    1147,    3629,    3630,    3643,    3642,    3788,    3789,    3802,    3801
    1148,    3628,    3629,    3642,    3641,    3787,    3788,    3801,    3800
    1149,    3627,    3628,    3641,    3640,    3786,    3787,    3800,    3799
    1150,    3627,    3640,    3639,    3638,    3786,    3799,    3798,    3797
    1151,    3626,    3627,    3638,    3637,    3785,    3786,    3797,    3796
    1152,    3611,    3626,    3637,    3636,    3770,    3785,    3796,    3795
    1153,    3610,    3611,    3636,    3635,    3769,    3770,    3795,    3794
    1154,    3609,    3610,    3635,    3634,    3768,    3769,    3794,    3793
    1155,    3608,    3609,    3634,    3633,    3767,    3768,    3793,    3792
    1156,    3607,    3608,    3633,    3632,    3766,    3767,    3792,    3791
    1157,    3606,    3607,    3632,    3631,    3765,    3766,    3791,    3790
    1158,    3605,    3606,    3631,    3625,    3764,    3765,    3790,    3784
    1159,    2615,    2617,    3579,    3630,    2605,    2604,    3738,    3789
    1160,    2613,    2615,    3630,    3629,    2606,    2605,    3789,    3788
    1161,    2611,    2613,    3629,    3628,    2607,    2606,    3788,    3787
    1162,    2611,    3628,    3627,    3626,    2607,    3787,    3786,    3785
    1163,    2609,    2611,    3626,    3611,    2608,    2607,    3785,    3770
    1164,    3405,    3403,    3605,    3625,    3394,    3393,    3764,    3784
    1165,    3407,    3405,    3625,    3624,    3395,    3394,    3784,    3783
    1166,    3409,    3407,    3624,    3623,    3396,    3395,    3783,    3782
    1167,    3411,    3409,    3623,    3622,    3397,    3396,    3782,    3781
    1168,    3413,    3411,    3622,    3621,    3398,    3397,    3781,    3780
    1169,    3415,    3413,    3621,    3620,    3399,    3398,    3780,    3779
    1170,    3417,    3415,    3620,    3619,    3400,    3399,    3779,    3778
    1171,    3419,    3417,    3619,    3604,    3401,    3400,    3778,    3763
    1172,    3329,    3331,    3586,    3618,    3313,    3314,    3745,    3777
    1173,    3327,    3329,    3618,    3617,    3312,    3313,    3777,    3776
    1174,    3325,    3327,    3617,    3616,    3311,    3312,    3776,    3775
    1175,    3323,    3325,    3616,    3615,    3310,    3311,    3775,    3774
    1176,    3321,    3323,    3615,    3614,    3309,    3310,    3774,    3773
    1177,    3319,    3321,    3614,    3613,    3308,    3309,    3773,    3772
    1178,    3317,    3319,    3613,    3612,    3307,    3308,    3772,    3771
    1179,    3315,    3317,    3612,    3585,    3306,    3307,    3771,    3744
    1180,    3302,    2594,    2609,    3611,    3280,    2592,    2608,    3770
    1181,    3301,    3302,    3611,    3610,    3281,    3280,    3770,    3769
    1182,    3300,    3301,    3610,    3609,    3282,    3281,    3769,    3768
    1183,    3299,    3300,    3609,    3608,    3283,    3282,    3768,    3767
    1184,    3298,    3299,    3608,    3607,    3284,    3283,    3767,    3766
    1185,    3297,    3298,    3607,    3606,    3285,    3284,    3766,    3765
    1186,    3296,    3297,    3606,    3605,    3286,    3285,    3765,    3764
    1187,    3287,    3296,    3605,    3403,    3279,    3286,    3764,    3393
    1188,    3392,    3335,    3419,    3604,    3336,    3333,    3401,    3763
    1189,    3391,    3392,    3604,    3603,    3337,    3336,    3763,    3762
    1190,    3390,    3391,    3603,    3602,    3338,    3337,    3762,    3761
    1191,    3389,    3390,    3602,    3601,    3339,    3338,    3761,    3760
    1192,    3388,    3389,    3601,    3600,    3340,    3339,    3760,    3759
    1193,    3387,    3388,    3600,    3599,    3341,    3340,    3759,    3758
    1194,    3386,    3387,    3599,    3598,    3342,    3341,    3758,    3757
    1195,    3385,    3386,    3598,    3597,    3343,    3342,    3757,    3756
    1196,    3384,    3385,    3597,    3596,    3344,    3343,    3756,    3755
    1197,    3383,    3384,    3596,    3595,    3345,    3344,    3755,    3754
    1198,    3382,    3383,    3595,    3594,    3346,    3345,    3754,    3753
    1199,    3381,    3382,    3594,    3593,    3347,    3346,    3753,    3752
    1200,    3380,    3381,    3593,    3592,    3348,    3347,    3752,    3751
    1201,    3379,    3380,    3592,    3591,    3349,    3348,    3751,    3750
    1202,    3378,    3379,    3591,    3590,    3350,    3349,    3750,    3749
    1203,    3377,    3378,    3590,    3589,    3351,    3350,    3749,    3748
    1204,    3376,    3377,    3589,    3588,    3352,    3351,    3748,    3747
    1205,    3375,    3376,    3588,    3587,    3353,    3352,    3747,    3746
    1206,    3374,    3375,    3587,    3586,    3354,    3353,    3746,    3745
    1207,    3304,    3374,    3586,    3331,    3303,    3354,    3745,    3314
    1208,    3278,    3257,    3315,    3585,    3258,    3255,    3306,    3744
    1209,    3277,    3278,    3585,    3584,    3259,    3258,    3744,    3743
    1210,    3276,    3277,    3584,    3583,    3260,    3259,    3743,    3742
    1211,    3275,    3276,    3583,    3582,    3261,    3260,    3742,    3741
    1212,    3274,    3275,    3582,    3581,    3262,    3261,    3741,    3740
    1213,    3273,    3274,    3581,    3580,    3263,    3262,    3740,    3739
    1214,    3272,    3273,    3580,    3579,    3264,    3263,    3739,    3738
    1215,    2602,    3272,    3579,    2617,    2601,    3264,    3738,    2604
*ELEMENT, TYPE=COH3D8, ELSET=mortar
    1216,    6074,    6157,    6462,    6098,    6047,    6156,    6289,    6049
    1217,    6157,    6158,    6438,    6462,    6156,    6155,    6265,    6289
    1218,    6158,    6159,    6414,    6438,    6155,    6154,    6241,    6265
    1219,    6159,    6160,    6390,    6414,    6154,    6153,    6217,    6241
    1220,    6160,    6161,    6366,    6390,    6153,    6152,    6193,    6217
    1221,    6161,    6162,    6342,    6366,    6152,    6151,    6169,    6193
    1222,    6162,    6125,    6127,    6342,    6151,    6100,    6124,    6169
    1223,    6098,    6462,    6461,    6097,    6049,    6289,    6290,    6050
    1224,    6462,    6438,    6437,    6461,    6289,    6265,    6266,    6290
    1225,    6438,    6414,    6413,    6437,    6265,    6241,    6242,    6266
    1226,    6414,    6390,    6389,    6413,    6241,    6217,    6218,    6242
    1227,    6390,    6366,    6365,    6389,    6217,    6193,    6194,    6218
    1228,    6366,    6342,    6341,    6365,    6193,    6169,    6170,    6194
    1229,    6342,    6127,    6128,    6341,    6169,    6124,    6123,    6170
    1230,    6097,    6461,    6460,    6096,    6050,    6290,    6291,    6051
    1231,    6461,    6437,    6436,    6460,    6290,    6266,    6267,    6291
    1232,    6437,    6413,    6412,    6436,    6266,    6242,    6243,    6267
    1233,    6413,    6389,    6388,    6412,    6242,    6218,    6219,    6243
    1234,    6389,    6365,    6364,    6388,    6218,    6194,    6195,    6219
    1235,    6365,    6341,    6340,    6364,    6194,    6170,    6171,    6195
    1236,    6341,    6128,    6129,    6340,    6170,    6123,    6122,    6171
    1237,    6096,    6460,    6459,    6095,    6051,    6291,    6292,    6052
    1238,    6460,    6436,    6435,    6459,    6291,    6267,    6268,    6292
    1239,    6436,    6412,    6411,    6435,    6267,    6243,    6244,    6268
    1240,    6412,    6388,    6387,    6411,    6243,    6219,    6220,    6244
    1241,    6388,    6364,    6363,    6387,    6219,    6195,    6196,    6220
    1242,    6364,    6340,    6339,    6363,    6195,    6171,    6172,    6196
    1243,    6340,    6129,    6130,    6339,    6171,    6122,    6121,    6172
    1244,    6095,    6459,    6458,    6094,    6052,    6292,    6293,    6053
    1245,    6459,    6435,    6434,    6458,    6292,    6268,    6269,    6293
    1246,    6435,    6411,    6410,    6434,    6268,    6244,    6245,    6269
    1247,    6411,    6387,    6386,    6410,    6244,    6220,    6221,    6245
    1248,    6387,    6363,    6362,    6386,    6220,    6196,    6197,    6221
    1249,    6363,    6339,    6338,    6362,    6196,    6172,    6173,    6197
    1250,    6339,    6130,    6131,    6338,    6172,    6121,    6120,    6173
    1251,    6094,    6458,    6457,    6093,    6053,    6293,    6294,    6054
    1252,    6458,    6434,    6433,    6457,    6293,    6269,    6270,    6294
    1253,    6434,    6410,    6409,    6433,    6269,    6245,    6246,    6270
    1254,    6410,    6386,    6385,    6409,    6245,    6221,    6222,    6246
    1255,    6386,    6362,    6361,    6385,    6221,    6197,    6198,    6222
    1256,    6362,    6338,    6337,    6361,    6197,    6173,    6174,    6198
    1257,    6338,    6131,    6132,    6337,    6173,    6120,    6119,    6174
    1258,    6093,    6457,    6456,    6092,    6054,    6294,    6295,    6055
    1259,    6457,    6433,    6432,    6456,    6294,    6270,    6271,    6295
    1260,    6433,    6409,    6408,    6432,    6270,    6246,    6247,    6271
    1261,    6409,    6385,    6384,    6408,    6246,    6222,    6223,    6247
    1262,    6385,    6361,    6360,    6384,    6222,    6198,    6199,    6223
    1263,    6361,    6337,    6336,    6360,    6198,    6174,    6175,    6199
    1264,    6337,    6132,    6133,    6336,    6174,    6119,    6118,    6175
    1265,    6092,    6456,    6455,    6091,    6055,    6295,    6296,    6056
    1266,    6456,    6432,    6431,    6455,    6295,    6271,    6272,    6296
    1267,    6432,    6408,    6407,    6431,    6271,    6247,    6248,    6272
    1268,    6408,    6384,    6383,    6407,    6247,    6223,    6224,    6248
    1269,    6384,    6360,    6359,    6383,    6223,    6199,    6200,    6224
    1270,    6360,    6336,    6335,    6359,    6199,    6175,    6176,    6200
    1271,    6336,    6133,    6134,    6335,    6175,    6118,    6117,    6176
    1272,    6091,    6455,    6454,    6090,    6056,    6296,    6297,    6057
    1273,    6455,    6431,    6430,    6454,    6296,    6272,    6273,    6297
    1274,    6431,    6407,    6406,    6430,    6272,    6248,    6249,    6273
    1275,    6407,    6383,    6382,    6406,    6248,    6224,    6225,    6249
    1276,    6383,    6359,    6358,    6382,    6224,    6200,    6201,    6225
    1277,    6359,    6335,    6334,    6358,    6200,    6176,    6177,    6201
    1278,    6335,    6134,    6135,    6334,    6176,    6117,    6116,    6177
    1279,    6090,    6454,    6453,    6089,    6057,    6297,    6298,    6058
    1280,    6454,    6430,    6429,    6453,    6297,    6273,    6274,    6298
    1281,    6430,    6406,    6405,    6429,    6273,    6249,    6250,    6274
    1282,    6406,    6382,    6381,    6405,    6249,    6225,    6226,    6250
    1283,    6382,    6358,    6357,    6381,    6225,    6201,    6202,    6226
    1284,    6358,    6334,    6333,    6357,    6201,    6177,    6178,    6202
    1285,    6334,    6135,    6136,    6333,    6177,    6116,    6115,    6178
    1286,    6089,    6453,    6452,    6088,    6058,    6298,    6299,    6059
    1287,    6453,    6429,    6428,    6452,    6298,    6274,    6275,    6299
    1288,    6429,    6405,    6404,    6428,    6274,    6250,    6251,    6275
    1289,    6405,    6381,    6380,    6404,    6250,    6226,    6227,    6251
    1290,    6381,    6357,    6356,    6380,    6226,    6202,    6203,    6227
    1291,    6357,    6333,    6332,    6356,    6202,    6178,    6179,    6203
    1292,    6333,    6136,    6137,    6332,    6178,    6115,    6114,    6179
    1293,    6088,    6452,    6451,    6087,    6059,    6299,    6300,    6060
    1294,    6452,    6428,    6427,    6451,    6299,    6275,    6276,    6300
    1295,    6428,    6404,    6403,    6427,    6275,    6251,    6252,    6276
    1296,    6404,    6380,    6379,    6403,    6251,    6227,    6228,    6252
    1297,    6380,    6356,    6355,    6379,    6227,    6203,    6204,    6228
    1298,    6356,    6332,    6331,    6355,    6203,    6179,    6180,    6204
    1299,    6332,    6137,    6138,    6331,    6179,    6114,    6113,    6180
    1300,    6087,    6451,    6450,    6086,    6060,    6300,    6301,    6061
    1301,    6451,    6427,    6426,    6450,    6300,    6276,    6277,    6301
    1302,    6427,    6403,    6402,    6426,    6276,    6252,    6253,    6277
    1303,    6403,    6379,    6378,    6402,    6252,    6228,    6229,    6253
    1304,    6379,    6355,    6354,    6378,    6228,    6204,    6205,    6229
    1305,    6355,    6331,    6330,    6354,    6204,    6180,    6181,    6205
    1306,    6331,    6138,    6139,    6330,    6180,    6113,    6112,    6181
    1307,    6086,    6450,    6449,    6085,    6061,    6301,    6302,    6062
    1308,    6450,    6426,    6425,    6449,    6301,    6277,    6278,    6302
    1309,    6426,    6402,    6401,    6425,    6277,    6253,    6254,    6278
    1310,    6402,    6378,    6377,    6401,    6253,    6229,    6230,    6254
    1311,    6378,    6354,    6353,    6377,    6229,    6205,    6206,    6230
    1312,    6354,    6330,    6329,    6353,    6205,    6181,    6182,    6206
    1313,    6330,    6139,    6140,    6329,    6181,    6112,    6111,    6182
    1314,    6085,    6449,    6448,    6084,    6062,    6302,    6303,    6063
    1315,    6449,    6425,    6424,    6448,    6302,    6278,    6279,    6303
    1316,    6425,    6401,    6400,    6424,    6278,    6254,    6255,    6279
    1317,    6401,    6377,    6376,    6400,    6254,    6230,    6231,    6255
    1318,    6377,    6353,    6352,    6376,    6230,    6206,    6207,    6231
    1319,    6353,    6329,    6328,    6352,    6206,    6182,    6183,    6207
    1320,    6329,    6140,    6141,    6328,    6182,    6111,    6110,    6183
    1321,    6084,    6448,    6447,    6083,    6063,    6303,    6304,    6064
    1322,    6448,    6424,    6423,    6447,    6303,    6279,    6280,    6304
    1323,    6424,    6400,    6399,    6423,    6279,    6255,    6256,    6280
    1324,    6400,    6376,    6375,    6399,    6255,    6231,    6232,    6256
    1325,    6376,    6352,    6351,    6375,    6231,    6207,    6208,    6232
    1326,    6352,    6328,    6327,    6351,    6207,    6183,    6184,    6208
    1327,    6328,    6141,    6142,    6327,    6183,    6110,    6109,    6184
    1328,    6083,    6447,    6446,    6082,    6064,    6304,    6305,    6065
    1329,    6447,    6423,    6422,    6446,    6304,    6280,    6281,    6305
    1330,    6423,    6399,    6398,    6422,    6280,    6256,    6257,    6281
    1331,    6399,    6375,    6374,    6398,    6256,    6232,    6233,    6257
    1332,    6375,    6351,    6350,    6374,    6232,    6208,    6209,    6233
    1333,    6351,    6327,    6326,    6350,    6208,    6184,    6185,    6209
    1334,    6327,    6142,    6143,    6326,    6184,    6109,    6108,    6185
    1335,    6082,    6446,    6445,    6081,    6065,    6305,    6306,    6066
    1336,    6446,    6422,    6421,    6445,    6305,    6281,    6282,    6306
    1337,    6422,    6398,    6397,    6421,    6281,    6257,    6258,    6282
    1338,    6398,    6374,    6373,    6397,    6257,    6233,    6234,    6258
    1339,    6374,    6350,    6349,    6373,    6233,    6209,    6210,    6234
    1340,    6350,    6326,    6325,    6349,    6209,    6185,    6186,    6210
    1341,    6326,    6143,    6144,    6325,    6185,    6108,    6107,    6186
    1342,    6081,    6445,    6444,    6080,    6066,    6306,    6307,    6067
    1343,    6445,    6421,    6420,    6444,    6306,    6282,    6283,    6307
    1344,    6421,    6397,    6396,    6420,    6282,    6258,    6259,    6283
    1345,    6397,    6373,    6372,    6396,    6258,    6234,    6235,    6259
    1346,    6373,    6349,    6348,    6372,    6234,    6210,    6211,    6235
    1347,    6349,    6325,    6324,    6348,    6210,    6186,    6187,    6211
    1348,    6325,    6144,    6145,    6324,    6186,    6107,    6106,    6187
    1349,    6080,    6444,    6443,    6079,    6067,    6307,    6308,    6068
    1350,    6444,    6420,    6419,    6443,    6307,    6283,    6284,    6308
    1351,    6420,    6396,    6395,    6419,    6283,    6259,    6260,    6284
    1352,    6396,    6372,    6371,    6395,    6259,    6235,    6236,    6260
    1353,    6372,    6348,    6347,    6371,    6235,    6211,    6212,    6236
    1354,    6348,    6324,    6323,    6347,    6211,    6187,    6188,    6212
    1355,    6324,    6145,    6146,    6323,    6187,    6106,    6105,    6188
    1356,    6079,    6443,    6442,    6078,    6068,    6308,    6309,    6069
    1357,    6443,    6419,    6418,    6442,    6308,    6284,    6285,    6309
    1358,    6419,    6395,    6394,    6418,    6284,    6260,    6261,    6285
    1359,    6395,    6371,    6370,    6394,    6260,    6236,    6237,    6261
    1360,    6371,    6347,    6346,    6370,    6236,    6212,    6213,    6237
    1361,    6347,    6323,    6322,    6346,    6212,    6188,    6189,    6213
    1362,    6323,    6146,    6147,    6322,    6188,    6105,    6104,    6189
    1363,    6078,    6442,    6441,    6077,    6069,    6309,    6310,    6070
    1364,    6442,    6418,    6417,    6441,    6309,    6285,    6286,    6310
    1365,    6418,    6394,    6393,    6417,    6285,    6261,    6262,    6286
    1366,    6394,    6370,    6369,    6393,    6261,    6237,    6238,    6262
    1367,    6370,    6346,    6345,    6369,    6237,    6213,    6214,    6238
    1368,    6346,    6322,    6321,    6345,    6213,    6189,    6190,    6214
    1369,    6322,    6147,    6148,    6321,    6189,    6104,    6103,    6190
    1370,    6077,    6441,    6440,    6076,    6070,    6310,    6311,    6071
    1371,    6441,    6417,    6416,    6440,    6310,    6286,    6287,    6311
    1372,    6417,    6393,    6392,    6416,    6286,    6262,    6263,    6287
    1373,    6393,    6369,    6368,    6392,    6262,    6238,    6239,    6263
    1374,    6369,    6345,    6344,    6368,    6238,    6214,    6215,    6239
    1375,    6345,    6321,    6320,    6344,    6214,    6190,    6191,    6215
    1376,    6321,    6148,    6149,    6320,    6190,    6103,    6102,    6191
    1377,    6076,    6440,    6439,    6075,    6071,    6311,    6312,    6072
    1378,    6440,    6416,    6415,    6439,    6311,    6287,    6288,    6312
    1379,    6416,    6392,    6391,    6415,    6287,    6263,    6264,    6288
    1380,    6392,    6368,    6367,    6391,    6263,    6239,    6240,    6264
    1381,    6368,    6344,    6343,    6367,    6239,    6215,    6216,    6240
    1382,    6344,    6320,    6319,    6343,    6215,    6191,    6192,    6216
    1383,    6320,    6149,    6150,    6319,    6191,    6102,    6101,    6192
    1384,    6075,    6439,    6318,    6073,    6072,    6312,    6163,    6048
    1385,    6439,    6415,    6317,    6318,    6312,    6288,    6164,    6163
    1386,    6415,    6391,    6316,    6317,    6288,    6264,    6165,    6164
    1387,    6391,    6367,    6315,    6316,    6264,    6240,    6166,    6165
    1388,    6367,    6343,    6314,    6315,    6240,    6216,    6167,    6166
    1389,    6343,    6319,    6313,    6314,    6216,    6192,    6168,    6167
    1390,    6319,    6150,    6126,    6313,    6192,    6101,    6099,    6168
********************************** N O D E S E T S **********************************
*NSET, NSET=shear_loading
    3059,    3079,    3080,    3081,    3082,    3083,
    3084,    3085,    3086,    3087,    3088,    3279,
    3287,    3288,    3333,    3334,    3335,    3393,
    3394,    3395,    3396,    3397,    3398,    3399,
    3400,    3401,    3402,    3403,    3404,    3405,
    3406,    3407,    3408,    3409,    3410,    3411,
    3412,    3413,    3414,    3415,    3416,    3417,
    3418,    3419,    3897,    3898,    3929,    3930,
    3931,    3932,    3933,    3934,    3935,    3936,
    3937,    3938,    3939,    3940,    3941,    3942,
    3943,    3944,    3945,    3946,    3947,    3948,
*NSET, NSET=z_symm
    2576,    2578,    2579,    2580,    2592,    2595,
    2621,    2642,    2671,    2681,    2682,    2683,
    2684,    2685,    2686,    2687,    2688,    2689,
    2690,    2691,    2692,    2693,    2694,    2695,
    2696,    2697,    2698,    2699,    2700,    2701,
    2702,    2703,    2704,    2705,    2706,    2707,
    2708,    2709,    2710,    2711,    2712,    2713,
    2714,    2715,    2716,    2717,    2718,    2719,
    2720,    2721,    2722,    2723,    2724,    2725,
    2726,    2727,    2728,    2729,    2730,    2731,
    2732,    2733,    2734,    2735,    2736,    2737,
    2738,    2739,    2740,    2741,    2742,    2743,
    2744,    2745,    2746,    2747,    2748,    2749,
    2750,    2751,    2752,    2753,    2754,    2755,
    2756,    2757,    2758,    2759,    2760,    2761,
    2762,    2763,    2764,    2765,    2766,    2767,
    2768,    2769,    2770,    3041,    3042,    3043,
    3044,    3045,    3046,    3047,    3048,    3079,
    3089,    3090,    3091,    3092,    3093,    3094,
    3095,    3255,    3256,    3257,    3258,    3259,
    3260,    3261,    3262,    3263,    3264,    3265,
    3266,    3267,    3268,    3269,    3270,    3271,
    3272,    3273,    3274,    3275,    3276,    3277,
    3278,    3279,    3280,    3281,    3282,    3283,
    3284,    3285,    3286,    3287,    3288,    3289,
    3290,    3291,    3292,    3293,    3294,    3295,
    3296,    3297,    3298,    3299,    3300,    3301,
    3302,    3897,    3898,    3899,    3900,    3901,
    3902,    3903,    3904,    3905,    3906,    3907,
    3908,    3909,    3910,    3911,    3912,    3913,
    3914,    3915,    3916,    3917,    3918,    3919,
    3920,    3921,    3922,    3923,    3924,    3925,
    3926,    3927,    3928,    6047,    6048,    6073,
    6074,
********************************** S I D E S E T S **********************************
*ELSET, ELSET=plate_bottom_S1
     460,     461,     462,     463,     464,     465,     466,     467,     468,     469,
     470,     471,     472,     473,     474,     475,     476,     477,     478,     479,
     480,     481,     482,     483,     484,     485,     486,     487,     488,     489,
     490,     491,     492,     493,     494,     495,     496,     497,     498,     499,
     500,     501,     502,     503,     504,     505,     506,     507,     508,     509,
     510,     511,     512,     513,     514,     515,     516,     517,     518,     519,
     520,     521,     522,     523,     524,     525,     526,     527,     528,     529,
     530,     531,     532,     533,     534,     535,     536,     537,     538,     539,
     540,     541,     542,     543,     544,     545,     546,     547,     548,     549,
     550,     551,     552,     553,     554,     555,     556,     557,     558,     559,
     560,     561,     562,     563,     564,     565,     566,     567,     568,     569,
     570,     571,     572,     573,     574,     575,     576,     577,     578,     579,
     580,     581,     582,     583,     584,     585,     586,     587,     588,     589,
     590,     591,     592,     593,     594,     595,     596,     597,     598,     599,
     600,     601,     602,     603,     604,     605,     606,     607,     608,     609,
     610,     611,     612,     613,     614,     615,     616,     617,     618,     619,
     620,     621,     622,     623,     624,     625,     626,     627,     628,     629,
     630,     631,     632,     633,     634,     635,     636,     637,     638,     639,
     640,     641,     642,     643,     644,     645,     646,     647,     648
*SURFACE, NAME=plate_bottom
plate_bottom_S1, S1
*ELSET, ELSET=mortar_to_anchor_S1
    1216,    1217,    1218,    1219,    1220,    1221,    1222,    1223,    1224,    1225,
    1226,    1227,    1228,    1229,    1230,    1231,    1232,    1233,    1234,    1235,
    1236,    1237,    1238,    1239,    1240,    1241,    1242,    1243,    1244,    1245,
    1246,    1247,    1248,    1249,    1250,    1251,    1252,    1253,    1254,    1255,
    1256,    1257,    1258,    1259,    1260,    1261,    1262,    1263,    1264,    1265,
    1266,    1267,    1268,    1269,    1270,    1271,    1272,    1273,    1274,    1275,
    1276,    1277,    1278,    1279,    1280,    1281,    1282,    1283,    1284,    1285,
    1286,    1287,    1288,    1289,    1290,    1291,    1292,    1293,    1294,    1295,
    1296,    1297,    1298,    1299,    1300,    1301,    1302,    1303,    1304,    1305,
    1306,    1307,    1308,    1309,    1310,    1311,    1312,    1313,    1314,    1315,
    1316,    1317,    1318,    1319,    1320,    1321,    1322,    1323,    1324,    1325,
    1326,    1327,    1328,    1329,    1330,    1331,    1332,    1333,    1334,    1335,
    1336,    1337,    1338,    1339,    1340,    1341,    1342,    1343,    1344,    1345,
    1346,    1347,    1348,    1349,    1350,    1351,    1352,    1353,    1354,    1355,
    1356,    1357,    1358,    1359,    1360,    1361,    1362,    1363,    1364,    1365,
    1366,    1367,    1368,    1369,    1370,    1371,    1372,    1373,    1374,    1375,
    1376,    1377,    1378,    1379,    1380,    1381,    1382,    1383,    1384,    1385,
    1386,    1387,    1388,    1389,    1390
*SURFACE, NAME=mortar_to_anchor
mortar_to_anchor_S1, S1
*ELSET, ELSET=anchor_to_mortar_S3
       2,       3,       6,      11,      12,      15,      20,      21,      24,      29,
      30,      33,      38,      39,      42,      47,      48,      51,      56,      57,
      60,      65,      66,      69,      74,      75,      78,      83,      84,      87,
      92,      93,      96,     101,     102,     105,     110,     111,     114,     119,
     120,     123,     128,     129,     132,     137,     138,     141,     146,     147,
     150,     155,     156,     159,     164,     165,     168,     173,     174,     177,
     182,     183,     186,     191,     192,     195,     200,     201,     204,     209,
     210,     213,     218,     219,     222,     403,     404,     405,     407,     592,
     593,     594,     596,     781,     782,     783,     785,     970,     971,     972,
     974,    1159,    1160,    1161,    1163
*ELSET, ELSET=anchor_to_mortar_S4
       7,      16,      25,      34,      43,      52,      61,      70,      79,      88,
      97,     106,     115,     124,     133,     142,     151,     160,     169,     178,
     187,     196,     205,     214,     223,     424,     613,     802,     991,    1180
*ELSET, ELSET=anchor_to_mortar_S6
       4,       5,      13,      14,      22,      23,      31,      32,      40,      41,
      49,      50,      58,      59,      67,      68,      76,      77,      85,      86,
      94,      95,     103,     104,     112,     113,     121,     122,     130,     131,
     139,     140,     148,     149,     157,     158,     166,     167,     175,     176,
     184,     185,     193,     194,     202,     203,     211,     212,     220,     221,
     459,     648,     837,    1026,    1215
*SURFACE, NAME=anchor_to_mortar
anchor_to_mortar_S3, S3
anchor_to_mortar_S4, S4
anchor_to_mortar_S6, S6
*ELSET, ELSET=mortar_to_concrete_S2
    1216,    1217,    1218,    1219,    1220,    1221,    1222,    1223,    1224,    1225,
    1226,    1227,    1228,    1229,    1230,    1231,    1232,    1233,    1234,    1235,
    1236,    1237,    1238,    1239,    1240,    1241,    1242,    1243,    1244,    1245,
    1246,    1247,    1248,    1249,    1250,    1251,    1252,    1253,    1254,    1255,
    1256,    1257,    1258,    1259,    1260,    1261,    1262,    1263,    1264,    1265,
    1266,    1267,    1268,    1269,    1270,    1271,    1272,    1273,    1274,    1275,
    1276,    1277,    1278,    1279,    1280,    1281,    1282,    1283,    1284,    1285,
    1286,    1287,    1288,    1289,    1290,    1291,    1292,    1293,    1294,    1295,
    1296,    1297,    1298,    1299,    1300,    1301,    1302,    1303,    1304,    1305,
    1306,    1307,    1308,    1309,    1310,    1311,    1312,    1313,    1314,    1315,
    1316,    1317,    1318,    1319,    1320,    1321,    1322,    1323,    1324,    1325,
    1326,    1327,    1328,    1329,    1330,    1331,    1332,    1333,    1334,    1335,
    1336,    1337,    1338,    1339,    1340,    1341,    1342,    1343,    1344,    1345,
    1346,    1347,    1348,    1349,    1350,    1351,    1352,    1353,    1354,    1355,
    1356,    1357,    1358,    1359,    1360,    1361,    1362,    1363,    1364,    1365,
    1366,    1367,    1368,    1369,    1370,    1371,    1372,    1373,    1374,    1375,
    1376,    1377,    1378,    1379,    1380,    1381,    1382,    1383,    1384,    1385,
    1386,    1387,    1388,    1389,    1390
*SURFACE, NAME=mortar_to_concrete
mortar_to_concrete_S2, S2
