********************************** N O D E S **********************************
*NODE, NSET=ALLNODES
    4489,    0.000000e+00,    2.000000e+01,   -1.000000e+01
    4490,    0.000000e+00,    2.000000e+01,    0.000000e+00
    4491,    0.000000e+00,    2.000000e+01,   -7.500000e+00
    4492,    0.000000e+00,    2.000000e+01,   -5.000000e+00
    4493,    0.000000e+00,    2.000000e+01,   -2.500000e+00
    4494,    1.000000e+01,    2.000000e+01,    0.000000e+00
    4495,    8.000000e+00,    2.000000e+01,    0.000000e+00
    4496,    6.000000e+00,    2.000000e+01,    0.000000e+00
    4497,    4.000000e+00,    2.000000e+01,    0.000000e+00
    4498,    2.000000e+00,    2.000000e+01,    0.000000e+00
    4499,    2.225209e+00,    2.000000e+01,   -9.749279e+00
    4500,    4.338837e+00,    2.000000e+01,   -9.009689e+00
    4501,    6.234898e+00,    2.000000e+01,   -7.818315e+00
    4502,    7.818315e+00,    2.000000e+01,   -6.234898e+00
    4503,    9.009689e+00,    2.000000e+01,   -4.338837e+00
    4504,    9.749279e+00,    2.000000e+01,   -2.225209e+00
    4505,    6.840806e+00,    2.000000e+01,   -5.309894e+00
    4506,    1.975763e+00,    2.000000e+01,   -7.049762e+00
    4507,    3.866234e+00,    2.000000e+01,   -6.482100e+00
    4508,    5.525158e+00,    2.000000e+01,   -5.824169e+00
    4509,    7.639957e+00,    2.000000e+01,   -2.024445e+00
    4510,    7.178946e+00,    2.000000e+01,   -3.870615e+00
    4511,    1.903308e+00,    2.000000e+01,   -4.640728e+00
    4512,    1.908332e+00,    2.000000e+01,   -2.295249e+00
    4513,    3.753719e+00,    2.000000e+01,   -4.285651e+00
    4514,    3.833892e+00,    2.000000e+01,   -2.139020e+00
    4515,    5.509063e+00,    2.000000e+01,   -3.978288e+00
    4516,    5.714397e+00,    2.000000e+01,   -2.015197e+00
    4517,    0.000000e+00,    4.180000e+01,   -1.000000e+01
    4518,    0.000000e+00,    2.128235e+01,   -1.000000e+01
    4519,    0.000000e+00,    2.256471e+01,   -1.000000e+01
    4520,    0.000000e+00,    2.384706e+01,   -1.000000e+01
    4521,    0.000000e+00,    2.512941e+01,   -1.000000e+01
    4522,    0.000000e+00,    2.641176e+01,   -1.000000e+01
    4523,    0.000000e+00,    2.769412e+01,   -1.000000e+01
    4524,    0.000000e+00,    2.897647e+01,   -1.000000e+01
    4525,    0.000000e+00,    3.025882e+01,   -1.000000e+01
    4526,    0.000000e+00,    3.154118e+01,   -1.000000e+01
    4527,    0.000000e+00,    3.282353e+01,   -1.000000e+01
    4528,    0.000000e+00,    3.410588e+01,   -1.000000e+01
    4529,    0.000000e+00,    3.538824e+01,   -1.000000e+01
    4530,    0.000000e+00,    3.667059e+01,   -1.000000e+01
    4531,    0.000000e+00,    3.795294e+01,   -1.000000e+01
    4532,    0.000000e+00,    3.923529e+01,   -1.000000e+01
    4533,    0.000000e+00,    4.051765e+01,   -1.000000e+01
    4534,    0.000000e+00,    4.180000e+01,    0.000000e+00
    4535,    0.000000e+00,    4.051765e+01,    0.000000e+00
    4536,    0.000000e+00,    3.923529e+01,    0.000000e+00
    4537,    0.000000e+00,    3.795294e+01,    0.000000e+00
    4538,    0.000000e+00,    3.667059e+01,    0.000000e+00
    4539,    0.000000e+00,    3.538824e+01,    0.000000e+00
    4540,    0.000000e+00,    3.410588e+01,    0.000000e+00
    4541,    0.000000e+00,    3.282353e+01,    0.000000e+00
    4542,    0.000000e+00,    3.154118e+01,    0.000000e+00
    4543,    0.000000e+00,    3.025882e+01,    0.000000e+00
    4544,    0.000000e+00,    2.897647e+01,    0.000000e+00
    4545,    0.000000e+00,    2.769412e+01,    0.000000e+00
    4546,    0.000000e+00,    2.641176e+01,    0.000000e+00
    4547,    0.000000e+00,    2.512941e+01,    0.000000e+00
    4548,    0.000000e+00,    2.384706e+01,    0.000000e+00
    4549,    0.000000e+00,    2.256471e+01,    0.000000e+00
    4550,    0.000000e+00,    2.128235e+01,    0.000000e+00
    4551,    0.000000e+00,    4.180000e+01,   -7.500000e+00
    4552,    0.000000e+00,    4.180000e+01,   -5.000000e+00
    4553,    0.000000e+00,    4.180000e+01,   -2.500000e+00
    4554,    0.000000e+00,    4.051765e+01,   -7.500000e+00
    4555,    0.000000e+00,    3.923529e+01,   -7.500000e+00
    4556,    0.000000e+00,    3.795294e+01,   -7.500000e+00
    4557,    0.000000e+00,    3.667059e+01,   -7.500000e+00
    4558,    0.000000e+00,    3.538824e+01,   -7.500000e+00
    4559,    0.000000e+00,    3.410588e+01,   -7.500000e+00
    4560,    0.000000e+00,    3.282353e+01,   -7.500000e+00
    4561,    0.000000e+00,    3.154118e+01,   -7.500000e+00
    4562,    0.000000e+00,    3.025882e+01,   -7.500000e+00
    4563,    0.000000e+00,    2.897647e+01,   -7.500000e+00
    4564,    0.000000e+00,    2.769412e+01,   -7.500000e+00
    4565,    0.000000e+00,    2.641176e+01,   -7.500000e+00
    4566,    0.000000e+00,    2.512941e+01,   -7.500000e+00
    4567,    0.000000e+00,    2.384706e+01,   -7.500000e+00
    4568,    0.000000e+00,    2.256471e+01,   -7.500000e+00
    4569,    0.000000e+00,    2.128235e+01,   -7.500000e+00
    4570,    0.000000e+00,    4.051765e+01,   -5.000000e+00
    4571,    0.000000e+00,    3.923529e+01,   -5.000000e+00
    4572,    0.000000e+00,    3.795294e+01,   -5.000000e+00
    4573,    0.000000e+00,    3.667059e+01,   -5.000000e+00
    4574,    0.000000e+00,    3.538824e+01,   -5.000000e+00
    4575,    0.000000e+00,    3.410588e+01,   -5.000000e+00
    4576,    0.000000e+00,    3.282353e+01,   -5.000000e+00
    4577,    0.000000e+00,    3.154118e+01,   -5.000000e+00
    4578,    0.000000e+00,    3.025882e+01,   -5.000000e+00
    4579,    0.000000e+00,    2.897647e+01,   -5.000000e+00
    4580,    0.000000e+00,    2.769412e+01,   -5.000000e+00
    4581,    0.000000e+00,    2.641176e+01,   -5.000000e+00
    4582,    0.000000e+00,    2.512941e+01,   -5.000000e+00
    4583,    0.000000e+00,    2.384706e+01,   -5.000000e+00
    4584,    0.000000e+00,    2.256471e+01,   -5.000000e+00
    4585,    0.000000e+00,    2.128235e+01,   -5.000000e+00
    4586,    0.000000e+00,    4.051765e+01,   -2.500000e+00
    4587,    0.000000e+00,    3.923529e+01,   -2.500000e+00
    4588,    0.000000e+00,    3.795294e+01,   -2.500000e+00
    4589,    0.000000e+00,    3.667059e+01,   -2.500000e+00
    4590,    0.000000e+00,    3.538824e+01,   -2.500000e+00
    4591,    0.000000e+00,    3.410588e+01,   -2.500000e+00
    4592,    0.000000e+00,    3.282353e+01,   -2.500000e+00
    4593,    0.000000e+00,    3.154118e+01,   -2.500000e+00
    4594,    0.000000e+00,    3.025882e+01,   -2.500000e+00
    4595,    0.000000e+00,    2.897647e+01,   -2.500000e+00
    4596,    0.000000e+00,    2.769412e+01,   -2.500000e+00
    4597,    0.000000e+00,    2.641176e+01,   -2.500000e+00
    4598,    0.000000e+00,    2.512941e+01,   -2.500000e+00
    4599,    0.000000e+00,    2.384706e+01,   -2.500000e+00
    4600,    0.000000e+00,    2.256471e+01,   -2.500000e+00
    4601,    0.000000e+00,    2.128235e+01,   -2.500000e+00
    4602,    1.000000e+01,    4.180000e+01,   -3.729050e-15
    4603,    1.000000e+01,    2.128235e+01,    5.889110e-16
    4604,    1.000000e+01,    2.256471e+01,    5.103896e-16
    4605,    1.000000e+01,    2.384706e+01,    4.318681e-16
    4606,    1.000000e+01,    2.512941e+01,    3.533466e-16
    4607,    1.000000e+01,    2.641176e+01,    2.748251e-16
    4608,    1.000000e+01,    2.769412e+01,    1.963037e-16
    4609,    1.000000e+01,    2.897647e+01,    1.177822e-16
    4610,    1.000000e+01,    3.025882e+01,    3.926074e-17
    4611,    1.000000e+01,    3.154118e+01,   -3.926074e-17
    4612,    1.000000e+01,    3.282353e+01,   -1.177822e-16
    4613,    1.000000e+01,    3.410588e+01,   -1.963037e-16
    4614,    1.000000e+01,    3.538824e+01,   -2.748251e-16
    4615,    1.000000e+01,    3.667059e+01,   -3.533466e-16
    4616,    1.000000e+01,    3.795294e+01,   -4.318681e-16
    4617,    1.000000e+01,    3.923529e+01,   -5.103896e-16
    4618,    1.000000e+01,    4.051765e+01,   -5.889110e-16
    4619,    8.000000e+00,    4.180000e+01,    0.000000e+00
    4620,    6.000000e+00,    4.180000e+01,    0.000000e+00
    4621,    4.000000e+00,    4.180000e+01,    0.000000e+00
    4622,    2.000000e+00,    4.180000e+01,    0.000000e+00
    4623,    2.000000e+00,    4.051765e+01,    0.000000e+00
    4624,    2.000000e+00,    3.923529e+01,    0.000000e+00
    4625,    2.000000e+00,    3.795294e+01,    0.000000e+00
    4626,    2.000000e+00,    3.667059e+01,    0.000000e+00
    4627,    2.000000e+00,    3.538824e+01,    0.000000e+00
    4628,    2.000000e+00,    3.410588e+01,    0.000000e+00
    4629,    2.000000e+00,    3.282353e+01,    0.000000e+00
    4630,    2.000000e+00,    3.154118e+01,    0.000000e+00
    4631,    2.000000e+00,    3.025882e+01,    0.000000e+00
    4632,    2.000000e+00,    2.897647e+01,    0.000000e+00
    4633,    2.000000e+00,    2.769412e+01,    0.000000e+00
    4634,    2.000000e+00,    2.641176e+01,    0.000000e+00
    4635,    2.000000e+00,    2.512941e+01,    0.000000e+00
    4636,    2.000000e+00,    2.384706e+01,    0.000000e+00
    4637,    2.000000e+00,    2.256471e+01,    0.000000e+00
    4638,    2.000000e+00,    2.128235e+01,    0.000000e+00
    4639,    4.000000e+00,    4.051765e+01,    0.000000e+00
    4640,    4.000000e+00,    3.923529e+01,    0.000000e+00
    4641,    4.000000e+00,    3.795294e+01,    0.000000e+00
    4642,    4.000000e+00,    3.667059e+01,    0.000000e+00
    4643,    4.000000e+00,    3.538824e+01,    0.000000e+00
    4644,    4.000000e+00,    3.410588e+01,    0.000000e+00
    4645,    4.000000e+00,    3.282353e+01,    0.000000e+00
    4646,    4.000000e+00,    3.154118e+01,    0.000000e+00
    4647,    4.000000e+00,    3.025882e+01,    0.000000e+00
    4648,    4.000000e+00,    2.897647e+01,    0.000000e+00
    4649,    4.000000e+00,    2.769412e+01,    0.000000e+00
    4650,    4.000000e+00,    2.641176e+01,    0.000000e+00
    4651,    4.000000e+00,    2.512941e+01,    0.000000e+00
    4652,    4.000000e+00,    2.384706e+01,    0.000000e+00
    4653,    4.000000e+00,    2.256471e+01,    0.000000e+00
    4654,    4.000000e+00,    2.128235e+01,    0.000000e+00
    4655,    6.000000e+00,    4.051765e+01,    0.000000e+00
    4656,    6.000000e+00,    3.923529e+01,    0.000000e+00
    4657,    6.000000e+00,    3.795294e+01,    0.000000e+00
    4658,    6.000000e+00,    3.667059e+01,    0.000000e+00
    4659,    6.000000e+00,    3.538824e+01,    0.000000e+00
    4660,    6.000000e+00,    3.410588e+01,    0.000000e+00
    4661,    6.000000e+00,    3.282353e+01,    0.000000e+00
    4662,    6.000000e+00,    3.154118e+01,    0.000000e+00
    4663,    6.000000e+00,    3.025882e+01,    0.000000e+00
    4664,    6.000000e+00,    2.897647e+01,    0.000000e+00
    4665,    6.000000e+00,    2.769412e+01,    0.000000e+00
    4666,    6.000000e+00,    2.641176e+01,    0.000000e+00
    4667,    6.000000e+00,    2.512941e+01,    0.000000e+00
    4668,    6.000000e+00,    2.384706e+01,    0.000000e+00
    4669,    6.000000e+00,    2.256471e+01,    0.000000e+00
    4670,    6.000000e+00,    2.128235e+01,    0.000000e+00
    4671,    8.000000e+00,    4.051765e+01,    0.000000e+00
    4672,    8.000000e+00,    3.923529e+01,    0.000000e+00
    4673,    8.000000e+00,    3.795294e+01,    0.000000e+00
    4674,    8.000000e+00,    3.667059e+01,    0.000000e+00
    4675,    8.000000e+00,    3.538824e+01,    0.000000e+00
    4676,    8.000000e+00,    3.410588e+01,    0.000000e+00
    4677,    8.000000e+00,    3.282353e+01,    0.000000e+00
    4678,    8.000000e+00,    3.154118e+01,    0.000000e+00
    4679,    8.000000e+00,    3.025882e+01,    0.000000e+00
    4680,    8.000000e+00,    2.897647e+01,    0.000000e+00
    4681,    8.000000e+00,    2.769412e+01,    0.000000e+00
    4682,    8.000000e+00,    2.641176e+01,    0.000000e+00
    4683,    8.000000e+00,    2.512941e+01,    0.000000e+00
    4684,    8.000000e+00,    2.384706e+01,    0.000000e+00
    4685,    8.000000e+00,    2.256471e+01,    0.000000e+00
    4686,    8.000000e+00,    2.128235e+01,    0.000000e+00
    4687,    9.749279e+00,    4.180000e+01,   -2.225209e+00
    4688,    9.009689e+00,    4.180000e+01,   -4.338837e+00
    4689,    7.818315e+00,    4.180000e+01,   -6.234898e+00
    4690,    6.234898e+00,    4.180000e+01,   -7.818315e+00
    4691,    4.338837e+00,    4.180000e+01,   -9.009689e+00
    4692,    2.225209e+00,    4.180000e+01,   -9.749279e+00
    4693,    2.225209e+00,    2.128235e+01,   -9.749279e+00
    4694,    2.225209e+00,    2.256471e+01,   -9.749279e+00
    4695,    2.225209e+00,    2.384706e+01,   -9.749279e+00
    4696,    2.225209e+00,    2.512941e+01,   -9.749279e+00
    4697,    2.225209e+00,    2.641176e+01,   -9.749279e+00
    4698,    2.225209e+00,    2.769412e+01,   -9.749279e+00
    4699,    2.225209e+00,    2.897647e+01,   -9.749279e+00
    4700,    2.225209e+00,    3.025882e+01,   -9.749279e+00
    4701,    2.225209e+00,    3.154118e+01,   -9.749279e+00
    4702,    2.225209e+00,    3.282353e+01,   -9.749279e+00
    4703,    2.225209e+00,    3.410588e+01,   -9.749279e+00
    4704,    2.225209e+00,    3.538824e+01,   -9.749279e+00
    4705,    2.225209e+00,    3.667059e+01,   -9.749279e+00
    4706,    2.225209e+00,    3.795294e+01,   -9.749279e+00
    4707,    2.225209e+00,    3.923529e+01,   -9.749279e+00
    4708,    2.225209e+00,    4.051765e+01,   -9.749279e+00
    4709,    4.338837e+00,    2.128235e+01,   -9.009689e+00
    4710,    4.338837e+00,    2.256471e+01,   -9.009689e+00
    4711,    4.338837e+00,    2.384706e+01,   -9.009689e+00
    4712,    4.338837e+00,    2.512941e+01,   -9.009689e+00
    4713,    4.338837e+00,    2.641176e+01,   -9.009689e+00
    4714,    4.338837e+00,    2.769412e+01,   -9.009689e+00
    4715,    4.338837e+00,    2.897647e+01,   -9.009689e+00
    4716,    4.338837e+00,    3.025882e+01,   -9.009689e+00
    4717,    4.338837e+00,    3.154118e+01,   -9.009689e+00
    4718,    4.338837e+00,    3.282353e+01,   -9.009689e+00
    4719,    4.338837e+00,    3.410588e+01,   -9.009689e+00
    4720,    4.338837e+00,    3.538824e+01,   -9.009689e+00
    4721,    4.338837e+00,    3.667059e+01,   -9.009689e+00
    4722,    4.338837e+00,    3.795294e+01,   -9.009689e+00
    4723,    4.338837e+00,    3.923529e+01,   -9.009689e+00
    4724,    4.338837e+00,    4.051765e+01,   -9.009689e+00
    4725,    6.234898e+00,    2.128235e+01,   -7.818315e+00
    4726,    6.234898e+00,    2.256471e+01,   -7.818315e+00
    4727,    6.234898e+00,    2.384706e+01,   -7.818315e+00
    4728,    6.234898e+00,    2.512941e+01,   -7.818315e+00
    4729,    6.234898e+00,    2.641176e+01,   -7.818315e+00
    4730,    6.234898e+00,    2.769412e+01,   -7.818315e+00
    4731,    6.234898e+00,    2.897647e+01,   -7.818315e+00
    4732,    6.234898e+00,    3.025882e+01,   -7.818315e+00
    4733,    6.234898e+00,    3.154118e+01,   -7.818315e+00
    4734,    6.234898e+00,    3.282353e+01,   -7.818315e+00
    4735,    6.234898e+00,    3.410588e+01,   -7.818315e+00
    4736,    6.234898e+00,    3.538824e+01,   -7.818315e+00
    4737,    6.234898e+00,    3.667059e+01,   -7.818315e+00
    4738,    6.234898e+00,    3.795294e+01,   -7.818315e+00
    4739,    6.234898e+00,    3.923529e+01,   -7.818315e+00
    4740,    6.234898e+00,    4.051765e+01,   -7.818315e+00
    4741,    7.818315e+00,    2.128235e+01,   -6.234898e+00
    4742,    7.818315e+00,    2.256471e+01,   -6.234898e+00
    4743,    7.818315e+00,    2.384706e+01,   -6.234898e+00
    4744,    7.818315e+00,    2.512941e+01,   -6.234898e+00
    4745,    7.818315e+00,    2.641176e+01,   -6.234898e+00
    4746,    7.818315e+00,    2.769412e+01,   -6.234898e+00
    4747,    7.818315e+00,    2.897647e+01,   -6.234898e+00
    4748,    7.818315e+00,    3.025882e+01,   -6.234898e+00
    4749,    7.818315e+00,    3.154118e+01,   -6.234898e+00
    4750,    7.818315e+00,    3.282353e+01,   -6.234898e+00
    4751,    7.818315e+00,    3.410588e+01,   -6.234898e+00
    4752,    7.818315e+00,    3.538824e+01,   -6.234898e+00
    4753,    7.818315e+00,    3.667059e+01,   -6.234898e+00
    4754,    7.818315e+00,    3.795294e+01,   -6.234898e+00
    4755,    7.818315e+00,    3.923529e+01,   -6.234898e+00
    4756,    7.818315e+00,    4.051765e+01,   -6.234898e+00
    4757,    9.009689e+00,    2.128235e+01,   -4.338837e+00
    4758,    9.009689e+00,    2.256471e+01,   -4.338837e+00
    4759,    9.009689e+00,    2.384706e+01,   -4.338837e+00
    4760,    9.009689e+00,    2.512941e+01,   -4.338837e+00
    4761,    9.009689e+00,    2.641176e+01,   -4.338837e+00
    4762,    9.009689e+00,    2.769412e+01,   -4.338837e+00
    4763,    9.009689e+00,    2.897647e+01,   -4.338837e+00
    4764,    9.009689e+00,    3.025882e+01,   -4.338837e+00
    4765,    9.009689e+00,    3.154118e+01,   -4.338837e+00
    4766,    9.009689e+00,    3.282353e+01,   -4.338837e+00
    4767,    9.009689e+00,    3.410588e+01,   -4.338837e+00
    4768,    9.009689e+00,    3.538824e+01,   -4.338837e+00
    4769,    9.009689e+00,    3.667059e+01,   -4.338837e+00
    4770,    9.009689e+00,    3.795294e+01,   -4.338837e+00
    4771,    9.009689e+00,    3.923529e+01,   -4.338837e+00
    4772,    9.009689e+00,    4.051765e+01,   -4.338837e+00
    4773,    9.749279e+00,    2.128235e+01,   -2.225209e+00
    4774,    9.749279e+00,    2.256471e+01,   -2.225209e+00
    4775,    9.749279e+00,    2.384706e+01,   -2.225209e+00
    4776,    9.749279e+00,    2.512941e+01,   -2.225209e+00
    4777,    9.749279e+00,    2.641176e+01,   -2.225209e+00
    4778,    9.749279e+00,    2.769412e+01,   -2.225209e+00
    4779,    9.749279e+00,    2.897647e+01,   -2.225209e+00
    4780,    9.749279e+00,    3.025882e+01,   -2.225209e+00
    4781,    9.749279e+00,    3.154118e+01,   -2.225209e+00
    4782,    9.749279e+00,    3.282353e+01,   -2.225209e+00
    4783,    9.749279e+00,    3.410588e+01,   -2.225209e+00
    4784,    9.749279e+00,    3.538824e+01,   -2.225209e+00
    4785,    9.749279e+00,    3.667059e+01,   -2.225209e+00
    4786,    9.749279e+00,    3.795294e+01,   -2.225209e+00
    4787,    9.749279e+00,    3.923529e+01,   -2.225209e+00
    4788,    9.749279e+00,    4.051765e+01,   -2.225209e+00
    4789,    6.840806e+00,    2.128235e+01,   -5.309894e+00
    4790,    5.525158e+00,    2.128235e+01,   -5.824169e+00
    4791,    3.866234e+00,    2.128235e+01,   -6.482100e+00
    4792,    1.975763e+00,    2.128235e+01,   -7.049762e+00
    4793,    1.903308e+00,    2.128235e+01,   -4.640728e+00
    4794,    1.908332e+00,    2.128235e+01,   -2.295249e+00
    4795,    3.753719e+00,    2.128235e+01,   -4.285651e+00
    4796,    3.833892e+00,    2.128235e+01,   -2.139020e+00
    4797,    5.509063e+00,    2.128235e+01,   -3.978288e+00
    4798,    5.714397e+00,    2.128235e+01,   -2.015197e+00
    4799,    7.178946e+00,    2.128235e+01,   -3.870615e+00
    4800,    7.639957e+00,    2.128235e+01,   -2.024445e+00
    4801,    6.840806e+00,    2.256471e+01,   -5.309894e+00
    4802,    5.525158e+00,    2.256471e+01,   -5.824169e+00
    4803,    3.866234e+00,    2.256471e+01,   -6.482100e+00
    4804,    1.975763e+00,    2.256471e+01,   -7.049762e+00
    4805,    1.903308e+00,    2.256471e+01,   -4.640728e+00
    4806,    1.908332e+00,    2.256471e+01,   -2.295249e+00
    4807,    3.753719e+00,    2.256471e+01,   -4.285651e+00
    4808,    3.833892e+00,    2.256471e+01,   -2.139020e+00
    4809,    5.509063e+00,    2.256471e+01,   -3.978288e+00
    4810,    5.714397e+00,    2.256471e+01,   -2.015197e+00
    4811,    7.178946e+00,    2.256471e+01,   -3.870615e+00
    4812,    7.639957e+00,    2.256471e+01,   -2.024445e+00
    4813,    6.840806e+00,    2.384706e+01,   -5.309894e+00
    4814,    5.525158e+00,    2.384706e+01,   -5.824169e+00
    4815,    3.866234e+00,    2.384706e+01,   -6.482100e+00
    4816,    1.975763e+00,    2.384706e+01,   -7.049762e+00
    4817,    1.903308e+00,    2.384706e+01,   -4.640728e+00
    4818,    1.908332e+00,    2.384706e+01,   -2.295249e+00
    4819,    3.753719e+00,    2.384706e+01,   -4.285651e+00
    4820,    3.833892e+00,    2.384706e+01,   -2.139020e+00
    4821,    5.509063e+00,    2.384706e+01,   -3.978288e+00
    4822,    5.714397e+00,    2.384706e+01,   -2.015197e+00
    4823,    7.178946e+00,    2.384706e+01,   -3.870615e+00
    4824,    7.639957e+00,    2.384706e+01,   -2.024445e+00
    4825,    6.840806e+00,    2.512941e+01,   -5.309894e+00
    4826,    5.525158e+00,    2.512941e+01,   -5.824169e+00
    4827,    3.866234e+00,    2.512941e+01,   -6.482100e+00
    4828,    1.975763e+00,    2.512941e+01,   -7.049762e+00
    4829,    1.903308e+00,    2.512941e+01,   -4.640728e+00
    4830,    1.908332e+00,    2.512941e+01,   -2.295249e+00
    4831,    3.753719e+00,    2.512941e+01,   -4.285651e+00
    4832,    3.833892e+00,    2.512941e+01,   -2.139020e+00
    4833,    5.509063e+00,    2.512941e+01,   -3.978288e+00
    4834,    5.714397e+00,    2.512941e+01,   -2.015197e+00
    4835,    7.178946e+00,    2.512941e+01,   -3.870615e+00
    4836,    7.639957e+00,    2.512941e+01,   -2.024445e+00
    4837,    6.840806e+00,    2.641176e+01,   -5.309894e+00
    4838,    5.525158e+00,    2.641176e+01,   -5.824169e+00
    4839,    3.866234e+00,    2.641176e+01,   -6.482100e+00
    4840,    1.975763e+00,    2.641176e+01,   -7.049762e+00
    4841,    1.903308e+00,    2.641176e+01,   -4.640728e+00
    4842,    1.908332e+00,    2.641176e+01,   -2.295249e+00
    4843,    3.753719e+00,    2.641176e+01,   -4.285651e+00
    4844,    3.833892e+00,    2.641176e+01,   -2.139020e+00
    4845,    5.509063e+00,    2.641176e+01,   -3.978288e+00
    4846,    5.714397e+00,    2.641176e+01,   -2.015197e+00
    4847,    7.178946e+00,    2.641176e+01,   -3.870615e+00
    4848,    7.639957e+00,    2.641176e+01,   -2.024445e+00
    4849,    6.840806e+00,    2.769412e+01,   -5.309894e+00
    4850,    5.525158e+00,    2.769412e+01,   -5.824169e+00
    4851,    3.866234e+00,    2.769412e+01,   -6.482100e+00
    4852,    1.975763e+00,    2.769412e+01,   -7.049762e+00
    4853,    1.903308e+00,    2.769412e+01,   -4.640728e+00
    4854,    1.908332e+00,    2.769412e+01,   -2.295249e+00
    4855,    3.753719e+00,    2.769412e+01,   -4.285651e+00
    4856,    3.833892e+00,    2.769412e+01,   -2.139020e+00
    4857,    5.509063e+00,    2.769412e+01,   -3.978288e+00
    4858,    5.714397e+00,    2.769412e+01,   -2.015197e+00
    4859,    7.178946e+00,    2.769412e+01,   -3.870615e+00
    4860,    7.639957e+00,    2.769412e+01,   -2.024445e+00
    4861,    6.840806e+00,    2.897647e+01,   -5.309894e+00
    4862,    5.525158e+00,    2.897647e+01,   -5.824169e+00
    4863,    3.866234e+00,    2.897647e+01,   -6.482100e+00
    4864,    1.975763e+00,    2.897647e+01,   -7.049762e+00
    4865,    1.903308e+00,    2.897647e+01,   -4.640728e+00
    4866,    1.908332e+00,    2.897647e+01,   -2.295249e+00
    4867,    3.753719e+00,    2.897647e+01,   -4.285651e+00
    4868,    3.833892e+00,    2.897647e+01,   -2.139020e+00
    4869,    5.509063e+00,    2.897647e+01,   -3.978288e+00
    4870,    5.714397e+00,    2.897647e+01,   -2.015197e+00
    4871,    7.178946e+00,    2.897647e+01,   -3.870615e+00
    4872,    7.639957e+00,    2.897647e+01,   -2.024445e+00
    4873,    6.840806e+00,    3.025882e+01,   -5.309894e+00
    4874,    5.525158e+00,    3.025882e+01,   -5.824169e+00
    4875,    3.866234e+00,    3.025882e+01,   -6.482100e+00
    4876,    1.975763e+00,    3.025882e+01,   -7.049762e+00
    4877,    1.903308e+00,    3.025882e+01,   -4.640728e+00
    4878,    1.908332e+00,    3.025882e+01,   -2.295249e+00
    4879,    3.753719e+00,    3.025882e+01,   -4.285651e+00
    4880,    3.833892e+00,    3.025882e+01,   -2.139020e+00
    4881,    5.509063e+00,    3.025882e+01,   -3.978288e+00
    4882,    5.714397e+00,    3.025882e+01,   -2.015197e+00
    4883,    7.178946e+00,    3.025882e+01,   -3.870615e+00
    4884,    7.639957e+00,    3.025882e+01,   -2.024445e+00
    4885,    6.840806e+00,    3.154118e+01,   -5.309894e+00
    4886,    5.525158e+00,    3.154118e+01,   -5.824169e+00
    4887,    3.866234e+00,    3.154118e+01,   -6.482100e+00
    4888,    1.975763e+00,    3.154118e+01,   -7.049762e+00
    4889,    1.903308e+00,    3.154118e+01,   -4.640728e+00
    4890,    1.908332e+00,    3.154118e+01,   -2.295249e+00
    4891,    3.753719e+00,    3.154118e+01,   -4.285651e+00
    4892,    3.833892e+00,    3.154118e+01,   -2.139020e+00
    4893,    5.509063e+00,    3.154118e+01,   -3.978288e+00
    4894,    5.714397e+00,    3.154118e+01,   -2.015197e+00
    4895,    7.178946e+00,    3.154118e+01,   -3.870615e+00
    4896,    7.639957e+00,    3.154118e+01,   -2.024445e+00
    4897,    6.840806e+00,    3.282353e+01,   -5.309894e+00
    4898,    5.525158e+00,    3.282353e+01,   -5.824169e+00
    4899,    3.866234e+00,    3.282353e+01,   -6.482100e+00
    4900,    1.975763e+00,    3.282353e+01,   -7.049762e+00
    4901,    1.903308e+00,    3.282353e+01,   -4.640728e+00
    4902,    1.908332e+00,    3.282353e+01,   -2.295249e+00
    4903,    3.753719e+00,    3.282353e+01,   -4.285651e+00
    4904,    3.833892e+00,    3.282353e+01,   -2.139020e+00
    4905,    5.509063e+00,    3.282353e+01,   -3.978288e+00
    4906,    5.714397e+00,    3.282353e+01,   -2.015197e+00
    4907,    7.178946e+00,    3.282353e+01,   -3.870615e+00
    4908,    7.639957e+00,    3.282353e+01,   -2.024445e+00
    4909,    6.840806e+00,    3.410588e+01,   -5.309894e+00
    4910,    5.525158e+00,    3.410588e+01,   -5.824169e+00
    4911,    3.866234e+00,    3.410588e+01,   -6.482100e+00
    4912,    1.975763e+00,    3.410588e+01,   -7.049762e+00
    4913,    1.903308e+00,    3.410588e+01,   -4.640728e+00
    4914,    1.908332e+00,    3.410588e+01,   -2.295249e+00
    4915,    3.753719e+00,    3.410588e+01,   -4.285651e+00
    4916,    3.833892e+00,    3.410588e+01,   -2.139020e+00
    4917,    5.509063e+00,    3.410588e+01,   -3.978288e+00
    4918,    5.714397e+00,    3.410588e+01,   -2.015197e+00
    4919,    7.178946e+00,    3.410588e+01,   -3.870615e+00
    4920,    7.639957e+00,    3.410588e+01,   -2.024445e+00
    4921,    6.840806e+00,    3.538824e+01,   -5.309894e+00
    4922,    5.525158e+00,    3.538824e+01,   -5.824169e+00
    4923,    3.866234e+00,    3.538824e+01,   -6.482100e+00
    4924,    1.975763e+00,    3.538824e+01,   -7.049762e+00
    4925,    1.903308e+00,    3.538824e+01,   -4.640728e+00
    4926,    1.908332e+00,    3.538824e+01,   -2.295249e+00
    4927,    3.753719e+00,    3.538824e+01,   -4.285651e+00
    4928,    3.833892e+00,    3.538824e+01,   -2.139020e+00
    4929,    5.509063e+00,    3.538824e+01,   -3.978288e+00
    4930,    5.714397e+00,    3.538824e+01,   -2.015197e+00
    4931,    7.178946e+00,    3.538824e+01,   -3.870615e+00
    4932,    7.639957e+00,    3.538824e+01,   -2.024445e+00
    4933,    6.840806e+00,    3.667059e+01,   -5.309894e+00
    4934,    5.525158e+00,    3.667059e+01,   -5.824169e+00
    4935,    3.866234e+00,    3.667059e+01,   -6.482100e+00
    4936,    1.975763e+00,    3.667059e+01,   -7.049762e+00
    4937,    1.903308e+00,    3.667059e+01,   -4.640728e+00
    4938,    1.908332e+00,    3.667059e+01,   -2.295249e+00
    4939,    3.753719e+00,    3.667059e+01,   -4.285651e+00
    4940,    3.833892e+00,    3.667059e+01,   -2.139020e+00
    4941,    5.509063e+00,    3.667059e+01,   -3.978288e+00
    4942,    5.714397e+00,    3.667059e+01,   -2.015197e+00
    4943,    7.178946e+00,    3.667059e+01,   -3.870615e+00
    4944,    7.639957e+00,    3.667059e+01,   -2.024445e+00
    4945,    6.840806e+00,    3.795294e+01,   -5.309894e+00
    4946,    5.525158e+00,    3.795294e+01,   -5.824169e+00
    4947,    3.866234e+00,    3.795294e+01,   -6.482100e+00
    4948,    1.975763e+00,    3.795294e+01,   -7.049762e+00
    4949,    1.903308e+00,    3.795294e+01,   -4.640728e+00
    4950,    1.908332e+00,    3.795294e+01,   -2.295249e+00
    4951,    3.753719e+00,    3.795294e+01,   -4.285651e+00
    4952,    3.833892e+00,    3.795294e+01,   -2.139020e+00
    4953,    5.509063e+00,    3.795294e+01,   -3.978288e+00
    4954,    5.714397e+00,    3.795294e+01,   -2.015197e+00
    4955,    7.178946e+00,    3.795294e+01,   -3.870615e+00
    4956,    7.639957e+00,    3.795294e+01,   -2.024445e+00
    4957,    6.840806e+00,    3.923529e+01,   -5.309894e+00
    4958,    5.525158e+00,    3.923529e+01,   -5.824169e+00
    4959,    3.866234e+00,    3.923529e+01,   -6.482100e+00
    4960,    1.975763e+00,    3.923529e+01,   -7.049762e+00
    4961,    1.903308e+00,    3.923529e+01,   -4.640728e+00
    4962,    1.908332e+00,    3.923529e+01,   -2.295249e+00
    4963,    3.753719e+00,    3.923529e+01,   -4.285651e+00
    4964,    3.833892e+00,    3.923529e+01,   -2.139020e+00
    4965,    5.509063e+00,    3.923529e+01,   -3.978288e+00
    4966,    5.714397e+00,    3.923529e+01,   -2.015197e+00
    4967,    7.178946e+00,    3.923529e+01,   -3.870615e+00
    4968,    7.639957e+00,    3.923529e+01,   -2.024445e+00
    4969,    6.840806e+00,    4.051765e+01,   -5.309894e+00
    4970,    5.525158e+00,    4.051765e+01,   -5.824169e+00
    4971,    3.866234e+00,    4.051765e+01,   -6.482100e+00
    4972,    1.975763e+00,    4.051765e+01,   -7.049762e+00
    4973,    1.903308e+00,    4.051765e+01,   -4.640728e+00
    4974,    1.908332e+00,    4.051765e+01,   -2.295249e+00
    4975,    3.753719e+00,    4.051765e+01,   -4.285651e+00
    4976,    3.833892e+00,    4.051765e+01,   -2.139020e+00
    4977,    5.509063e+00,    4.051765e+01,   -3.978288e+00
    4978,    5.714397e+00,    4.051765e+01,   -2.015197e+00
    4979,    7.178946e+00,    4.051765e+01,   -3.870615e+00
    4980,    7.639957e+00,    4.051765e+01,   -2.024445e+00
    4981,    6.840806e+00,    4.180000e+01,   -5.309894e+00
    4982,    5.525158e+00,    4.180000e+01,   -5.824169e+00
    4983,    3.866234e+00,    4.180000e+01,   -6.482100e+00
    4984,    1.975763e+00,    4.180000e+01,   -7.049762e+00
    4985,    1.903308e+00,    4.180000e+01,   -4.640728e+00
    4986,    1.908332e+00,    4.180000e+01,   -2.295249e+00
    4987,    3.753719e+00,    4.180000e+01,   -4.285651e+00
    4988,    3.833892e+00,    4.180000e+01,   -2.139020e+00
    4989,    5.509063e+00,    4.180000e+01,   -3.978288e+00
    4990,    5.714397e+00,    4.180000e+01,   -2.015197e+00
    4991,    7.178946e+00,    4.180000e+01,   -3.870615e+00
    4992,    7.639957e+00,    4.180000e+01,   -2.024445e+00
    4993,    0.000000e+00,    6.666670e+00,   -1.000000e+01
    4994,    0.000000e+00,    7.878791e+00,   -1.000000e+01
    4995,    0.000000e+00,    9.090912e+00,   -1.000000e+01
    4996,    0.000000e+00,    1.030303e+01,   -1.000000e+01
    4997,    0.000000e+00,    1.151515e+01,   -1.000000e+01
    4998,    0.000000e+00,    1.272727e+01,   -1.000000e+01
    4999,    0.000000e+00,    1.393940e+01,   -1.000000e+01
    5000,    0.000000e+00,    1.515152e+01,   -1.000000e+01
    5001,    0.000000e+00,    1.636364e+01,   -1.000000e+01
    5002,    0.000000e+00,    1.757576e+01,   -1.000000e+01
    5003,    0.000000e+00,    1.878788e+01,   -1.000000e+01
    5004,    0.000000e+00,    6.666670e+00,    0.000000e+00
    5005,    0.000000e+00,    6.666670e+00,   -7.500000e+00
    5006,    0.000000e+00,    6.666670e+00,   -5.000000e+00
    5007,    0.000000e+00,    6.666670e+00,   -2.500000e+00
    5008,    0.000000e+00,    1.878788e+01,    0.000000e+00
    5009,    0.000000e+00,    1.757576e+01,    0.000000e+00
    5010,    0.000000e+00,    1.636364e+01,    0.000000e+00
    5011,    0.000000e+00,    1.515152e+01,    0.000000e+00
    5012,    0.000000e+00,    1.393940e+01,    0.000000e+00
    5013,    0.000000e+00,    1.272727e+01,    0.000000e+00
    5014,    0.000000e+00,    1.151515e+01,    0.000000e+00
    5015,    0.000000e+00,    1.030303e+01,    0.000000e+00
    5016,    0.000000e+00,    9.090912e+00,    0.000000e+00
    5017,    0.000000e+00,    7.878791e+00,    0.000000e+00
    5018,    0.000000e+00,    1.878788e+01,   -7.500000e+00
    5019,    0.000000e+00,    1.757576e+01,   -7.500000e+00
    5020,    0.000000e+00,    1.636364e+01,   -7.500000e+00
    5021,    0.000000e+00,    1.515152e+01,   -7.500000e+00
    5022,    0.000000e+00,    1.393940e+01,   -7.500000e+00
    5023,    0.000000e+00,    1.272727e+01,   -7.500000e+00
    5024,    0.000000e+00,    1.151515e+01,   -7.500000e+00
    5025,    0.000000e+00,    1.030303e+01,   -7.500000e+00
    5026,    0.000000e+00,    9.090912e+00,   -7.500000e+00
    5027,    0.000000e+00,    7.878791e+00,   -7.500000e+00
    5028,    0.000000e+00,    1.878788e+01,   -5.000000e+00
    5029,    0.000000e+00,    1.757576e+01,   -5.000000e+00
    5030,    0.000000e+00,    1.636364e+01,   -5.000000e+00
    5031,    0.000000e+00,    1.515152e+01,   -5.000000e+00
    5032,    0.000000e+00,    1.393940e+01,   -5.000000e+00
    5033,    0.000000e+00,    1.272727e+01,   -5.000000e+00
    5034,    0.000000e+00,    1.151515e+01,   -5.000000e+00
    5035,    0.000000e+00,    1.030303e+01,   -5.000000e+00
    5036,    0.000000e+00,    9.090912e+00,   -5.000000e+00
    5037,    0.000000e+00,    7.878791e+00,   -5.000000e+00
    5038,    0.000000e+00,    1.878788e+01,   -2.500000e+00
    5039,    0.000000e+00,    1.757576e+01,   -2.500000e+00
    5040,    0.000000e+00,    1.636364e+01,   -2.500000e+00
    5041,    0.000000e+00,    1.515152e+01,   -2.500000e+00
    5042,    0.000000e+00,    1.393940e+01,   -2.500000e+00
    5043,    0.000000e+00,    1.272727e+01,   -2.500000e+00
    5044,    0.000000e+00,    1.151515e+01,   -2.500000e+00
    5045,    0.000000e+00,    1.030303e+01,   -2.500000e+00
    5046,    0.000000e+00,    9.090912e+00,   -2.500000e+00
    5047,    0.000000e+00,    7.878791e+00,   -2.500000e+00
    5048,    1.000000e+01,    6.666670e+00,    0.000000e+00
    5049,    8.000000e+00,    6.666670e+00,    0.000000e+00
    5050,    6.000000e+00,    6.666670e+00,    0.000000e+00
    5051,    4.000000e+00,    6.666670e+00,    0.000000e+00
    5052,    2.000000e+00,    6.666670e+00,    0.000000e+00
    5053,    1.000000e+01,    7.878791e+00,    3.339945e-16
    5054,    1.000000e+01,    9.090912e+00,    2.597735e-16
    5055,    1.000000e+01,    1.030303e+01,    1.855525e-16
    5056,    1.000000e+01,    1.151515e+01,    1.113315e-16
    5057,    1.000000e+01,    1.272727e+01,    3.711050e-17
    5058,    1.000000e+01,    1.393940e+01,   -3.711050e-17
    5059,    1.000000e+01,    1.515152e+01,   -1.113315e-16
    5060,    1.000000e+01,    1.636364e+01,   -1.855525e-16
    5061,    1.000000e+01,    1.757576e+01,   -2.597735e-16
    5062,    1.000000e+01,    1.878788e+01,   -3.339945e-16
    5063,    2.000000e+00,    1.878788e+01,    0.000000e+00
    5064,    2.000000e+00,    1.757576e+01,    0.000000e+00
    5065,    2.000000e+00,    1.636364e+01,    0.000000e+00
    5066,    2.000000e+00,    1.515152e+01,    0.000000e+00
    5067,    2.000000e+00,    1.393940e+01,    0.000000e+00
    5068,    2.000000e+00,    1.272727e+01,    0.000000e+00
    5069,    2.000000e+00,    1.151515e+01,    0.000000e+00
    5070,    2.000000e+00,    1.030303e+01,    0.000000e+00
    5071,    2.000000e+00,    9.090912e+00,    0.000000e+00
    5072,    2.000000e+00,    7.878791e+00,    0.000000e+00
    5073,    4.000000e+00,    1.878788e+01,    0.000000e+00
    5074,    4.000000e+00,    1.757576e+01,    0.000000e+00
    5075,    4.000000e+00,    1.636364e+01,    0.000000e+00
    5076,    4.000000e+00,    1.515152e+01,    0.000000e+00
    5077,    4.000000e+00,    1.393940e+01,    0.000000e+00
    5078,    4.000000e+00,    1.272727e+01,    0.000000e+00
    5079,    4.000000e+00,    1.151515e+01,    0.000000e+00
    5080,    4.000000e+00,    1.030303e+01,    0.000000e+00
    5081,    4.000000e+00,    9.090912e+00,    0.000000e+00
    5082,    4.000000e+00,    7.878791e+00,    0.000000e+00
    5083,    6.000000e+00,    1.878788e+01,    0.000000e+00
    5084,    6.000000e+00,    1.757576e+01,    0.000000e+00
    5085,    6.000000e+00,    1.636364e+01,    0.000000e+00
    5086,    6.000000e+00,    1.515152e+01,    0.000000e+00
    5087,    6.000000e+00,    1.393940e+01,    0.000000e+00
    5088,    6.000000e+00,    1.272727e+01,    0.000000e+00
    5089,    6.000000e+00,    1.151515e+01,    0.000000e+00
    5090,    6.000000e+00,    1.030303e+01,    0.000000e+00
    5091,    6.000000e+00,    9.090912e+00,    0.000000e+00
    5092,    6.000000e+00,    7.878791e+00,    0.000000e+00
    5093,    8.000000e+00,    1.878788e+01,    0.000000e+00
    5094,    8.000000e+00,    1.757576e+01,    0.000000e+00
    5095,    8.000000e+00,    1.636364e+01,    0.000000e+00
    5096,    8.000000e+00,    1.515152e+01,    0.000000e+00
    5097,    8.000000e+00,    1.393940e+01,    0.000000e+00
    5098,    8.000000e+00,    1.272727e+01,    0.000000e+00
    5099,    8.000000e+00,    1.151515e+01,    0.000000e+00
    5100,    8.000000e+00,    1.030303e+01,    0.000000e+00
    5101,    8.000000e+00,    9.090912e+00,    0.000000e+00
    5102,    8.000000e+00,    7.878791e+00,    0.000000e+00
    5103,    2.225209e+00,    6.666670e+00,   -9.749279e+00
    5104,    4.338837e+00,    6.666670e+00,   -9.009689e+00
    5105,    6.234898e+00,    6.666670e+00,   -7.818315e+00
    5106,    7.818315e+00,    6.666670e+00,   -6.234898e+00
    5107,    9.009689e+00,    6.666670e+00,   -4.338837e+00
    5108,    9.749279e+00,    6.666670e+00,   -2.225209e+00
    5109,    2.225209e+00,    7.878791e+00,   -9.749279e+00
    5110,    2.225209e+00,    9.090912e+00,   -9.749279e+00
    5111,    2.225209e+00,    1.030303e+01,   -9.749279e+00
    5112,    2.225209e+00,    1.151515e+01,   -9.749279e+00
    5113,    2.225209e+00,    1.272727e+01,   -9.749279e+00
    5114,    2.225209e+00,    1.393940e+01,   -9.749279e+00
    5115,    2.225209e+00,    1.515152e+01,   -9.749279e+00
    5116,    2.225209e+00,    1.636364e+01,   -9.749279e+00
    5117,    2.225209e+00,    1.757576e+01,   -9.749279e+00
    5118,    2.225209e+00,    1.878788e+01,   -9.749279e+00
    5119,    4.338837e+00,    7.878791e+00,   -9.009689e+00
    5120,    4.338837e+00,    9.090912e+00,   -9.009689e+00
    5121,    4.338837e+00,    1.030303e+01,   -9.009689e+00
    5122,    4.338837e+00,    1.151515e+01,   -9.009689e+00
    5123,    4.338837e+00,    1.272727e+01,   -9.009689e+00
    5124,    4.338837e+00,    1.393940e+01,   -9.009689e+00
    5125,    4.338837e+00,    1.515152e+01,   -9.009689e+00
    5126,    4.338837e+00,    1.636364e+01,   -9.009689e+00
    5127,    4.338837e+00,    1.757576e+01,   -9.009689e+00
    5128,    4.338837e+00,    1.878788e+01,   -9.009689e+00
    5129,    6.234898e+00,    7.878791e+00,   -7.818315e+00
    5130,    6.234898e+00,    9.090912e+00,   -7.818315e+00
    5131,    6.234898e+00,    1.030303e+01,   -7.818315e+00
    5132,    6.234898e+00,    1.151515e+01,   -7.818315e+00
    5133,    6.234898e+00,    1.272727e+01,   -7.818315e+00
    5134,    6.234898e+00,    1.393940e+01,   -7.818315e+00
    5135,    6.234898e+00,    1.515152e+01,   -7.818315e+00
    5136,    6.234898e+00,    1.636364e+01,   -7.818315e+00
    5137,    6.234898e+00,    1.757576e+01,   -7.818315e+00
    5138,    6.234898e+00,    1.878788e+01,   -7.818315e+00
    5139,    7.818315e+00,    7.878791e+00,   -6.234898e+00
    5140,    7.818315e+00,    9.090912e+00,   -6.234898e+00
    5141,    7.818315e+00,    1.030303e+01,   -6.234898e+00
    5142,    7.818315e+00,    1.151515e+01,   -6.234898e+00
    5143,    7.818315e+00,    1.272727e+01,   -6.234898e+00
    5144,    7.818315e+00,    1.393940e+01,   -6.234898e+00
    5145,    7.818315e+00,    1.515152e+01,   -6.234898e+00
    5146,    7.818315e+00,    1.636364e+01,   -6.234898e+00
    5147,    7.818315e+00,    1.757576e+01,   -6.234898e+00
    5148,    7.818315e+00,    1.878788e+01,   -6.234898e+00
    5149,    9.009689e+00,    7.878791e+00,   -4.338837e+00
    5150,    9.009689e+00,    9.090912e+00,   -4.338837e+00
    5151,    9.009689e+00,    1.030303e+01,   -4.338837e+00
    5152,    9.009689e+00,    1.151515e+01,   -4.338837e+00
    5153,    9.009689e+00,    1.272727e+01,   -4.338837e+00
    5154,    9.009689e+00,    1.393940e+01,   -4.338837e+00
    5155,    9.009689e+00,    1.515152e+01,   -4.338837e+00
    5156,    9.009689e+00,    1.636364e+01,   -4.338837e+00
    5157,    9.009689e+00,    1.757576e+01,   -4.338837e+00
    5158,    9.009689e+00,    1.878788e+01,   -4.338837e+00
    5159,    9.749279e+00,    7.878791e+00,   -2.225209e+00
    5160,    9.749279e+00,    9.090912e+00,   -2.225209e+00
    5161,    9.749279e+00,    1.030303e+01,   -2.225209e+00
    5162,    9.749279e+00,    1.151515e+01,   -2.225209e+00
    5163,    9.749279e+00,    1.272727e+01,   -2.225209e+00
    5164,    9.749279e+00,    1.393940e+01,   -2.225209e+00
    5165,    9.749279e+00,    1.515152e+01,   -2.225209e+00
    5166,    9.749279e+00,    1.636364e+01,   -2.225209e+00
    5167,    9.749279e+00,    1.757576e+01,   -2.225209e+00
    5168,    9.749279e+00,    1.878788e+01,   -2.225209e+00
    5169,    5.525158e+00,    1.878788e+01,   -5.824169e+00
    5170,    6.840806e+00,    1.878788e+01,   -5.309894e+00
    5171,    3.866234e+00,    1.878788e+01,   -6.482100e+00
    5172,    1.975763e+00,    1.878788e+01,   -7.049762e+00
    5173,    1.903308e+00,    1.878788e+01,   -4.640728e+00
    5174,    1.908332e+00,    1.878788e+01,   -2.295249e+00
    5175,    3.753719e+00,    1.878788e+01,   -4.285651e+00
    5176,    3.833892e+00,    1.878788e+01,   -2.139020e+00
    5177,    5.509063e+00,    1.878788e+01,   -3.978288e+00
    5178,    5.714397e+00,    1.878788e+01,   -2.015197e+00
    5179,    7.178946e+00,    1.878788e+01,   -3.870615e+00
    5180,    7.639957e+00,    1.878788e+01,   -2.024445e+00
    5181,    5.525158e+00,    1.757576e+01,   -5.824169e+00
    5182,    6.840806e+00,    1.757576e+01,   -5.309894e+00
    5183,    3.866234e+00,    1.757576e+01,   -6.482100e+00
    5184,    1.975763e+00,    1.757576e+01,   -7.049762e+00
    5185,    1.903308e+00,    1.757576e+01,   -4.640728e+00
    5186,    1.908332e+00,    1.757576e+01,   -2.295249e+00
    5187,    3.753719e+00,    1.757576e+01,   -4.285651e+00
    5188,    3.833892e+00,    1.757576e+01,   -2.139020e+00
    5189,    5.509063e+00,    1.757576e+01,   -3.978288e+00
    5190,    5.714397e+00,    1.757576e+01,   -2.015197e+00
    5191,    7.178946e+00,    1.757576e+01,   -3.870615e+00
    5192,    7.639957e+00,    1.757576e+01,   -2.024445e+00
    5193,    5.525158e+00,    1.636364e+01,   -5.824169e+00
    5194,    6.840806e+00,    1.636364e+01,   -5.309894e+00
    5195,    3.866234e+00,    1.636364e+01,   -6.482100e+00
    5196,    1.975763e+00,    1.636364e+01,   -7.049762e+00
    5197,    1.903308e+00,    1.636364e+01,   -4.640728e+00
    5198,    1.908332e+00,    1.636364e+01,   -2.295249e+00
    5199,    3.753719e+00,    1.636364e+01,   -4.285651e+00
    5200,    3.833892e+00,    1.636364e+01,   -2.139020e+00
    5201,    5.509063e+00,    1.636364e+01,   -3.978288e+00
    5202,    5.714397e+00,    1.636364e+01,   -2.015197e+00
    5203,    7.178946e+00,    1.636364e+01,   -3.870615e+00
    5204,    7.639957e+00,    1.636364e+01,   -2.024445e+00
    5205,    5.525158e+00,    1.515152e+01,   -5.824169e+00
    5206,    6.840806e+00,    1.515152e+01,   -5.309894e+00
    5207,    3.866234e+00,    1.515152e+01,   -6.482100e+00
    5208,    1.975763e+00,    1.515152e+01,   -7.049762e+00
    5209,    1.903308e+00,    1.515152e+01,   -4.640728e+00
    5210,    1.908332e+00,    1.515152e+01,   -2.295249e+00
    5211,    3.753719e+00,    1.515152e+01,   -4.285651e+00
    5212,    3.833892e+00,    1.515152e+01,   -2.139020e+00
    5213,    5.509063e+00,    1.515152e+01,   -3.978288e+00
    5214,    5.714397e+00,    1.515152e+01,   -2.015197e+00
    5215,    7.178946e+00,    1.515152e+01,   -3.870615e+00
    5216,    7.639957e+00,    1.515152e+01,   -2.024445e+00
    5217,    5.525158e+00,    1.393940e+01,   -5.824169e+00
    5218,    6.840806e+00,    1.393940e+01,   -5.309894e+00
    5219,    3.866234e+00,    1.393940e+01,   -6.482100e+00
    5220,    1.975763e+00,    1.393940e+01,   -7.049762e+00
    5221,    1.903308e+00,    1.393940e+01,   -4.640728e+00
    5222,    1.908332e+00,    1.393940e+01,   -2.295249e+00
    5223,    3.753719e+00,    1.393940e+01,   -4.285651e+00
    5224,    3.833892e+00,    1.393940e+01,   -2.139020e+00
    5225,    5.509063e+00,    1.393940e+01,   -3.978288e+00
    5226,    5.714397e+00,    1.393940e+01,   -2.015197e+00
    5227,    7.178946e+00,    1.393940e+01,   -3.870615e+00
    5228,    7.639957e+00,    1.393940e+01,   -2.024445e+00
    5229,    5.525158e+00,    1.272727e+01,   -5.824169e+00
    5230,    6.840806e+00,    1.272727e+01,   -5.309894e+00
    5231,    3.866234e+00,    1.272727e+01,   -6.482100e+00
    5232,    1.975763e+00,    1.272727e+01,   -7.049762e+00
    5233,    1.903308e+00,    1.272727e+01,   -4.640728e+00
    5234,    1.908332e+00,    1.272727e+01,   -2.295249e+00
    5235,    3.753719e+00,    1.272727e+01,   -4.285651e+00
    5236,    3.833892e+00,    1.272727e+01,   -2.139020e+00
    5237,    5.509063e+00,    1.272727e+01,   -3.978288e+00
    5238,    5.714397e+00,    1.272727e+01,   -2.015197e+00
    5239,    7.178946e+00,    1.272727e+01,   -3.870615e+00
    5240,    7.639957e+00,    1.272727e+01,   -2.024445e+00
    5241,    5.525158e+00,    1.151515e+01,   -5.824169e+00
    5242,    6.840806e+00,    1.151515e+01,   -5.309894e+00
    5243,    3.866234e+00,    1.151515e+01,   -6.482100e+00
    5244,    1.975763e+00,    1.151515e+01,   -7.049762e+00
    5245,    1.903308e+00,    1.151515e+01,   -4.640728e+00
    5246,    1.908332e+00,    1.151515e+01,   -2.295249e+00
    5247,    3.753719e+00,    1.151515e+01,   -4.285651e+00
    5248,    3.833892e+00,    1.151515e+01,   -2.139020e+00
    5249,    5.509063e+00,    1.151515e+01,   -3.978288e+00
    5250,    5.714397e+00,    1.151515e+01,   -2.015197e+00
    5251,    7.178946e+00,    1.151515e+01,   -3.870615e+00
    5252,    7.639957e+00,    1.151515e+01,   -2.024445e+00
    5253,    5.525158e+00,    1.030303e+01,   -5.824169e+00
    5254,    6.840806e+00,    1.030303e+01,   -5.309894e+00
    5255,    3.866234e+00,    1.030303e+01,   -6.482100e+00
    5256,    1.975763e+00,    1.030303e+01,   -7.049762e+00
    5257,    1.903308e+00,    1.030303e+01,   -4.640728e+00
    5258,    1.908332e+00,    1.030303e+01,   -2.295249e+00
    5259,    3.753719e+00,    1.030303e+01,   -4.285651e+00
    5260,    3.833892e+00,    1.030303e+01,   -2.139020e+00
    5261,    5.509063e+00,    1.030303e+01,   -3.978288e+00
    5262,    5.714397e+00,    1.030303e+01,   -2.015197e+00
    5263,    7.178946e+00,    1.030303e+01,   -3.870615e+00
    5264,    7.639957e+00,    1.030303e+01,   -2.024445e+00
    5265,    5.525158e+00,    9.090912e+00,   -5.824169e+00
    5266,    6.840806e+00,    9.090912e+00,   -5.309894e+00
    5267,    3.866234e+00,    9.090912e+00,   -6.482100e+00
    5268,    1.975763e+00,    9.090912e+00,   -7.049762e+00
    5269,    1.903308e+00,    9.090912e+00,   -4.640728e+00
    5270,    1.908332e+00,    9.090912e+00,   -2.295249e+00
    5271,    3.753719e+00,    9.090912e+00,   -4.285651e+00
    5272,    3.833892e+00,    9.090912e+00,   -2.139020e+00
    5273,    5.509063e+00,    9.090912e+00,   -3.978288e+00
    5274,    5.714397e+00,    9.090912e+00,   -2.015197e+00
    5275,    7.178946e+00,    9.090912e+00,   -3.870615e+00
    5276,    7.639957e+00,    9.090912e+00,   -2.024445e+00
    5277,    5.525158e+00,    7.878791e+00,   -5.824169e+00
    5278,    6.840806e+00,    7.878791e+00,   -5.309894e+00
    5279,    3.866234e+00,    7.878791e+00,   -6.482100e+00
    5280,    1.975763e+00,    7.878791e+00,   -7.049762e+00
    5281,    1.903308e+00,    7.878791e+00,   -4.640728e+00
    5282,    1.908332e+00,    7.878791e+00,   -2.295249e+00
    5283,    3.753719e+00,    7.878791e+00,   -4.285651e+00
    5284,    3.833892e+00,    7.878791e+00,   -2.139020e+00
    5285,    5.509063e+00,    7.878791e+00,   -3.978288e+00
    5286,    5.714397e+00,    7.878791e+00,   -2.015197e+00
    5287,    7.178946e+00,    7.878791e+00,   -3.870615e+00
    5288,    7.639957e+00,    7.878791e+00,   -2.024445e+00
    5289,    5.525158e+00,    6.666670e+00,   -5.824169e+00
    5290,    6.840806e+00,    6.666670e+00,   -5.309894e+00
    5291,    3.866234e+00,    6.666670e+00,   -6.482100e+00
    5292,    1.975763e+00,    6.666670e+00,   -7.049762e+00
    5293,    1.903308e+00,    6.666670e+00,   -4.640728e+00
    5294,    1.908332e+00,    6.666670e+00,   -2.295249e+00
    5295,    3.753719e+00,    6.666670e+00,   -4.285651e+00
    5296,    3.833892e+00,    6.666670e+00,   -2.139020e+00
    5297,    5.509063e+00,    6.666670e+00,   -3.978288e+00
    5298,    5.714397e+00,    6.666670e+00,   -2.015197e+00
    5299,    7.178946e+00,    6.666670e+00,   -3.870615e+00
    5300,    7.639957e+00,    6.666670e+00,   -2.024445e+00
    5301,    0.000000e+00,    0.000000e+00,   -1.000000e+01
    5302,    0.000000e+00,    1.333334e+00,   -1.000000e+01
    5303,    0.000000e+00,    2.666668e+00,   -1.000000e+01
    5304,    0.000000e+00,    4.000002e+00,   -1.000000e+01
    5305,    0.000000e+00,    5.333336e+00,   -1.000000e+01
    5306,    0.000000e+00,    0.000000e+00,    0.000000e+00
    5307,    0.000000e+00,    0.000000e+00,   -7.500000e+00
    5308,    0.000000e+00,    0.000000e+00,   -5.000000e+00
    5309,    0.000000e+00,    0.000000e+00,   -2.500000e+00
    5310,    0.000000e+00,    5.333336e+00,    0.000000e+00
    5311,    0.000000e+00,    4.000002e+00,    0.000000e+00
    5312,    0.000000e+00,    2.666668e+00,    0.000000e+00
    5313,    0.000000e+00,    1.333334e+00,    0.000000e+00
    5314,    0.000000e+00,    5.333336e+00,   -7.500000e+00
    5315,    0.000000e+00,    4.000002e+00,   -7.500000e+00
    5316,    0.000000e+00,    2.666668e+00,   -7.500000e+00
    5317,    0.000000e+00,    1.333334e+00,   -7.500000e+00
    5318,    0.000000e+00,    5.333336e+00,   -5.000000e+00
    5319,    0.000000e+00,    4.000002e+00,   -5.000000e+00
    5320,    0.000000e+00,    2.666668e+00,   -5.000000e+00
    5321,    0.000000e+00,    1.333334e+00,   -5.000000e+00
    5322,    0.000000e+00,    5.333336e+00,   -2.500000e+00
    5323,    0.000000e+00,    4.000002e+00,   -2.500000e+00
    5324,    0.000000e+00,    2.666668e+00,   -2.500000e+00
    5325,    0.000000e+00,    1.333334e+00,   -2.500000e+00
    5326,    1.000000e+01,    0.000000e+00,    0.000000e+00
    5327,    8.000000e+00,    0.000000e+00,    0.000000e+00
    5328,    6.000000e+00,    0.000000e+00,    0.000000e+00
    5329,    4.000000e+00,    0.000000e+00,    0.000000e+00
    5330,    2.000000e+00,    0.000000e+00,    0.000000e+00
    5331,    1.000000e+01,    1.333334e+00,    1.224647e-16
    5332,    1.000000e+01,    2.666668e+00,    4.082158e-17
    5333,    1.000000e+01,    4.000002e+00,   -4.082158e-17
    5334,    1.000000e+01,    5.333336e+00,   -1.224647e-16
    5335,    2.000000e+00,    5.333336e+00,    0.000000e+00
    5336,    2.000000e+00,    4.000002e+00,    0.000000e+00
    5337,    2.000000e+00,    2.666668e+00,    0.000000e+00
    5338,    2.000000e+00,    1.333334e+00,    0.000000e+00
    5339,    4.000000e+00,    5.333336e+00,    0.000000e+00
    5340,    4.000000e+00,    4.000002e+00,    0.000000e+00
    5341,    4.000000e+00,    2.666668e+00,    0.000000e+00
    5342,    4.000000e+00,    1.333334e+00,    0.000000e+00
    5343,    6.000000e+00,    5.333336e+00,    0.000000e+00
    5344,    6.000000e+00,    4.000002e+00,    0.000000e+00
    5345,    6.000000e+00,    2.666668e+00,    0.000000e+00
    5346,    6.000000e+00,    1.333334e+00,    0.000000e+00
    5347,    8.000000e+00,    5.333336e+00,    0.000000e+00
    5348,    8.000000e+00,    4.000002e+00,    0.000000e+00
    5349,    8.000000e+00,    2.666668e+00,    0.000000e+00
    5350,    8.000000e+00,    1.333334e+00,    0.000000e+00
    5351,    2.225209e+00,    0.000000e+00,   -9.749279e+00
    5352,    4.338837e+00,    0.000000e+00,   -9.009689e+00
    5353,    6.234898e+00,    0.000000e+00,   -7.818315e+00
    5354,    7.818315e+00,    0.000000e+00,   -6.234898e+00
    5355,    9.009689e+00,    0.000000e+00,   -4.338837e+00
    5356,    9.749279e+00,    0.000000e+00,   -2.225209e+00
    5357,    2.225209e+00,    1.333334e+00,   -9.749279e+00
    5358,    2.225209e+00,    2.666668e+00,   -9.749279e+00
    5359,    2.225209e+00,    4.000002e+00,   -9.749279e+00
    5360,    2.225209e+00,    5.333336e+00,   -9.749279e+00
    5361,    4.338837e+00,    1.333334e+00,   -9.009689e+00
    5362,    4.338837e+00,    2.666668e+00,   -9.009689e+00
    5363,    4.338837e+00,    4.000002e+00,   -9.009689e+00
    5364,    4.338837e+00,    5.333336e+00,   -9.009689e+00
    5365,    6.234898e+00,    1.333334e+00,   -7.818315e+00
    5366,    6.234898e+00,    2.666668e+00,   -7.818315e+00
    5367,    6.234898e+00,    4.000002e+00,   -7.818315e+00
    5368,    6.234898e+00,    5.333336e+00,   -7.818315e+00
    5369,    7.818315e+00,    1.333334e+00,   -6.234898e+00
    5370,    7.818315e+00,    2.666668e+00,   -6.234898e+00
    5371,    7.818315e+00,    4.000002e+00,   -6.234898e+00
    5372,    7.818315e+00,    5.333336e+00,   -6.234898e+00
    5373,    9.009689e+00,    1.333334e+00,   -4.338837e+00
    5374,    9.009689e+00,    2.666668e+00,   -4.338837e+00
    5375,    9.009689e+00,    4.000002e+00,   -4.338837e+00
    5376,    9.009689e+00,    5.333336e+00,   -4.338837e+00
    5377,    9.749279e+00,    1.333334e+00,   -2.225209e+00
    5378,    9.749279e+00,    2.666668e+00,   -2.225209e+00
    5379,    9.749279e+00,    4.000002e+00,   -2.225209e+00
    5380,    9.749279e+00,    5.333336e+00,   -2.225209e+00
    5381,    7.178946e+00,    5.333336e+00,   -3.870615e+00
    5382,    6.840806e+00,    5.333336e+00,   -5.309894e+00
    5383,    7.639957e+00,    5.333336e+00,   -2.024445e+00
    5384,    5.714397e+00,    5.333336e+00,   -2.015197e+00
    5385,    5.509063e+00,    5.333336e+00,   -3.978288e+00
    5386,    5.525158e+00,    5.333336e+00,   -5.824169e+00
    5387,    3.833892e+00,    5.333336e+00,   -2.139020e+00
    5388,    3.753719e+00,    5.333336e+00,   -4.285651e+00
    5389,    3.866234e+00,    5.333336e+00,   -6.482100e+00
    5390,    1.908332e+00,    5.333336e+00,   -2.295249e+00
    5391,    1.903308e+00,    5.333336e+00,   -4.640728e+00
    5392,    1.975763e+00,    5.333336e+00,   -7.049762e+00
    5393,    7.178946e+00,    4.000002e+00,   -3.870615e+00
    5394,    6.840806e+00,    4.000002e+00,   -5.309894e+00
    5395,    7.639957e+00,    4.000002e+00,   -2.024445e+00
    5396,    5.714397e+00,    4.000002e+00,   -2.015197e+00
    5397,    5.509063e+00,    4.000002e+00,   -3.978288e+00
    5398,    5.525158e+00,    4.000002e+00,   -5.824169e+00
    5399,    3.833892e+00,    4.000002e+00,   -2.139020e+00
    5400,    3.753719e+00,    4.000002e+00,   -4.285651e+00
    5401,    3.866234e+00,    4.000002e+00,   -6.482100e+00
    5402,    1.908332e+00,    4.000002e+00,   -2.295249e+00
    5403,    1.903308e+00,    4.000002e+00,   -4.640728e+00
    5404,    1.975763e+00,    4.000002e+00,   -7.049762e+00
    5405,    7.178946e+00,    2.666668e+00,   -3.870615e+00
    5406,    6.840806e+00,    2.666668e+00,   -5.309894e+00
    5407,    7.639957e+00,    2.666668e+00,   -2.024445e+00
    5408,    5.714397e+00,    2.666668e+00,   -2.015197e+00
    5409,    5.509063e+00,    2.666668e+00,   -3.978288e+00
    5410,    5.525158e+00,    2.666668e+00,   -5.824169e+00
    5411,    3.833892e+00,    2.666668e+00,   -2.139020e+00
    5412,    3.753719e+00,    2.666668e+00,   -4.285651e+00
    5413,    3.866234e+00,    2.666668e+00,   -6.482100e+00
    5414,    1.908332e+00,    2.666668e+00,   -2.295249e+00
    5415,    1.903308e+00,    2.666668e+00,   -4.640728e+00
    5416,    1.975763e+00,    2.666668e+00,   -7.049762e+00
    5417,    7.178946e+00,    1.333334e+00,   -3.870615e+00
    5418,    6.840806e+00,    1.333334e+00,   -5.309894e+00
    5419,    7.639957e+00,    1.333334e+00,   -2.024445e+00
    5420,    5.714397e+00,    1.333334e+00,   -2.015197e+00
    5421,    5.509063e+00,    1.333334e+00,   -3.978288e+00
    5422,    5.525158e+00,    1.333334e+00,   -5.824169e+00
    5423,    3.833892e+00,    1.333334e+00,   -2.139020e+00
    5424,    3.753719e+00,    1.333334e+00,   -4.285651e+00
    5425,    3.866234e+00,    1.333334e+00,   -6.482100e+00
    5426,    1.908332e+00,    1.333334e+00,   -2.295249e+00
    5427,    1.903308e+00,    1.333334e+00,   -4.640728e+00
    5428,    1.975763e+00,    1.333334e+00,   -7.049762e+00
    5429,    7.178946e+00,    0.000000e+00,   -3.870615e+00
    5430,    6.840806e+00,    0.000000e+00,   -5.309894e+00
    5431,    7.639957e+00,    0.000000e+00,   -2.024445e+00
    5432,    5.714397e+00,    0.000000e+00,   -2.015197e+00
    5433,    5.509063e+00,    0.000000e+00,   -3.978288e+00
    5434,    5.525158e+00,    0.000000e+00,   -5.824169e+00
    5435,    3.833892e+00,    0.000000e+00,   -2.139020e+00
    5436,    3.753719e+00,    0.000000e+00,   -4.285651e+00
    5437,    3.866234e+00,    0.000000e+00,   -6.482100e+00
    5438,    1.908332e+00,    0.000000e+00,   -2.295249e+00
    5439,    1.903308e+00,    0.000000e+00,   -4.640728e+00
    5440,    1.975763e+00,    0.000000e+00,   -7.049762e+00
    5441,    0.000000e+00,   -8.000000e+01,   -1.000000e+01
    5442,    0.000000e+00,   -7.600000e+01,   -1.000000e+01
    5443,    0.000000e+00,   -7.200000e+01,   -1.000000e+01
    5444,    0.000000e+00,   -6.800000e+01,   -1.000000e+01
    5445,    0.000000e+00,   -6.400000e+01,   -1.000000e+01
    5446,    0.000000e+00,   -6.000000e+01,   -1.000000e+01
    5447,    0.000000e+00,   -5.600000e+01,   -1.000000e+01
    5448,    0.000000e+00,   -5.200000e+01,   -1.000000e+01
    5449,    0.000000e+00,   -4.800000e+01,   -1.000000e+01
    5450,    0.000000e+00,   -4.400000e+01,   -1.000000e+01
    5451,    0.000000e+00,   -4.000000e+01,   -1.000000e+01
    5452,    0.000000e+00,   -3.600000e+01,   -1.000000e+01
    5453,    0.000000e+00,   -3.200000e+01,   -1.000000e+01
    5454,    0.000000e+00,   -2.800000e+01,   -1.000000e+01
    5455,    0.000000e+00,   -2.400000e+01,   -1.000000e+01
    5456,    0.000000e+00,   -2.000000e+01,   -1.000000e+01
    5457,    0.000000e+00,   -1.600000e+01,   -1.000000e+01
    5458,    0.000000e+00,   -1.200000e+01,   -1.000000e+01
    5459,    0.000000e+00,   -8.000000e+00,   -1.000000e+01
    5460,    0.000000e+00,   -4.000000e+00,   -1.000000e+01
    5461,    0.000000e+00,   -8.000000e+01,    0.000000e+00
    5462,    0.000000e+00,   -8.000000e+01,   -2.500000e+00
    5463,    0.000000e+00,   -8.000000e+01,   -5.000000e+00
    5464,    0.000000e+00,   -8.000000e+01,   -7.500000e+00
    5465,    0.000000e+00,   -4.000000e+00,    0.000000e+00
    5466,    0.000000e+00,   -8.000000e+00,    0.000000e+00
    5467,    0.000000e+00,   -1.200000e+01,    0.000000e+00
    5468,    0.000000e+00,   -1.600000e+01,    0.000000e+00
    5469,    0.000000e+00,   -2.000000e+01,    0.000000e+00
    5470,    0.000000e+00,   -2.400000e+01,    0.000000e+00
    5471,    0.000000e+00,   -2.800000e+01,    0.000000e+00
    5472,    0.000000e+00,   -3.200000e+01,    0.000000e+00
    5473,    0.000000e+00,   -3.600000e+01,    0.000000e+00
    5474,    0.000000e+00,   -4.000000e+01,    0.000000e+00
    5475,    0.000000e+00,   -4.400000e+01,    0.000000e+00
    5476,    0.000000e+00,   -4.800000e+01,    0.000000e+00
    5477,    0.000000e+00,   -5.200000e+01,    0.000000e+00
    5478,    0.000000e+00,   -5.600000e+01,    0.000000e+00
    5479,    0.000000e+00,   -6.000000e+01,    0.000000e+00
    5480,    0.000000e+00,   -6.400000e+01,    0.000000e+00
    5481,    0.000000e+00,   -6.800000e+01,    0.000000e+00
    5482,    0.000000e+00,   -7.200000e+01,    0.000000e+00
    5483,    0.000000e+00,   -7.600000e+01,    0.000000e+00
    5484,    0.000000e+00,   -4.000000e+00,   -7.500000e+00
    5485,    0.000000e+00,   -8.000000e+00,   -7.500000e+00
    5486,    0.000000e+00,   -1.200000e+01,   -7.500000e+00
    5487,    0.000000e+00,   -1.600000e+01,   -7.500000e+00
    5488,    0.000000e+00,   -2.000000e+01,   -7.500000e+00
    5489,    0.000000e+00,   -2.400000e+01,   -7.500000e+00
    5490,    0.000000e+00,   -2.800000e+01,   -7.500000e+00
    5491,    0.000000e+00,   -3.200000e+01,   -7.500000e+00
    5492,    0.000000e+00,   -3.600000e+01,   -7.500000e+00
    5493,    0.000000e+00,   -4.000000e+01,   -7.500000e+00
    5494,    0.000000e+00,   -4.400000e+01,   -7.500000e+00
    5495,    0.000000e+00,   -4.800000e+01,   -7.500000e+00
    5496,    0.000000e+00,   -5.200000e+01,   -7.500000e+00
    5497,    0.000000e+00,   -5.600000e+01,   -7.500000e+00
    5498,    0.000000e+00,   -6.000000e+01,   -7.500000e+00
    5499,    0.000000e+00,   -6.400000e+01,   -7.500000e+00
    5500,    0.000000e+00,   -6.800000e+01,   -7.500000e+00
    5501,    0.000000e+00,   -7.200000e+01,   -7.500000e+00
    5502,    0.000000e+00,   -7.600000e+01,   -7.500000e+00
    5503,    0.000000e+00,   -4.000000e+00,   -5.000000e+00
    5504,    0.000000e+00,   -8.000000e+00,   -5.000000e+00
    5505,    0.000000e+00,   -1.200000e+01,   -5.000000e+00
    5506,    0.000000e+00,   -1.600000e+01,   -5.000000e+00
    5507,    0.000000e+00,   -2.000000e+01,   -5.000000e+00
    5508,    0.000000e+00,   -2.400000e+01,   -5.000000e+00
    5509,    0.000000e+00,   -2.800000e+01,   -5.000000e+00
    5510,    0.000000e+00,   -3.200000e+01,   -5.000000e+00
    5511,    0.000000e+00,   -3.600000e+01,   -5.000000e+00
    5512,    0.000000e+00,   -4.000000e+01,   -5.000000e+00
    5513,    0.000000e+00,   -4.400000e+01,   -5.000000e+00
    5514,    0.000000e+00,   -4.800000e+01,   -5.000000e+00
    5515,    0.000000e+00,   -5.200000e+01,   -5.000000e+00
    5516,    0.000000e+00,   -5.600000e+01,   -5.000000e+00
    5517,    0.000000e+00,   -6.000000e+01,   -5.000000e+00
    5518,    0.000000e+00,   -6.400000e+01,   -5.000000e+00
    5519,    0.000000e+00,   -6.800000e+01,   -5.000000e+00
    5520,    0.000000e+00,   -7.200000e+01,   -5.000000e+00
    5521,    0.000000e+00,   -7.600000e+01,   -5.000000e+00
    5522,    0.000000e+00,   -4.000000e+00,   -2.500000e+00
    5523,    0.000000e+00,   -8.000000e+00,   -2.500000e+00
    5524,    0.000000e+00,   -1.200000e+01,   -2.500000e+00
    5525,    0.000000e+00,   -1.600000e+01,   -2.500000e+00
    5526,    0.000000e+00,   -2.000000e+01,   -2.500000e+00
    5527,    0.000000e+00,   -2.400000e+01,   -2.500000e+00
    5528,    0.000000e+00,   -2.800000e+01,   -2.500000e+00
    5529,    0.000000e+00,   -3.200000e+01,   -2.500000e+00
    5530,    0.000000e+00,   -3.600000e+01,   -2.500000e+00
    5531,    0.000000e+00,   -4.000000e+01,   -2.500000e+00
    5532,    0.000000e+00,   -4.400000e+01,   -2.500000e+00
    5533,    0.000000e+00,   -4.800000e+01,   -2.500000e+00
    5534,    0.000000e+00,   -5.200000e+01,   -2.500000e+00
    5535,    0.000000e+00,   -5.600000e+01,   -2.500000e+00
    5536,    0.000000e+00,   -6.000000e+01,   -2.500000e+00
    5537,    0.000000e+00,   -6.400000e+01,   -2.500000e+00
    5538,    0.000000e+00,   -6.800000e+01,   -2.500000e+00
    5539,    0.000000e+00,   -7.200000e+01,   -2.500000e+00
    5540,    0.000000e+00,   -7.600000e+01,   -2.500000e+00
    5541,    1.000000e+01,   -8.000000e+01,    3.729050e-15
    5542,    2.000000e+00,   -8.000000e+01,    0.000000e+00
    5543,    4.000000e+00,   -8.000000e+01,    0.000000e+00
    5544,    6.000000e+00,   -8.000000e+01,    0.000000e+00
    5545,    8.000000e+00,   -8.000000e+01,    0.000000e+00
    5546,    1.000000e+01,   -7.600000e+01,    3.484120e-15
    5547,    1.000000e+01,   -7.200000e+01,    3.239191e-15
    5548,    1.000000e+01,   -6.800000e+01,    2.994261e-15
    5549,    1.000000e+01,   -6.400000e+01,    2.749332e-15
    5550,    1.000000e+01,   -6.000000e+01,    2.504403e-15
    5551,    1.000000e+01,   -5.600000e+01,    2.259473e-15
    5552,    1.000000e+01,   -5.200000e+01,    2.014544e-15
    5553,    1.000000e+01,   -4.800000e+01,    1.769615e-15
    5554,    1.000000e+01,   -4.400000e+01,    1.524685e-15
    5555,    1.000000e+01,   -4.000000e+01,    1.279756e-15
    5556,    1.000000e+01,   -3.600000e+01,    1.034827e-15
    5557,    1.000000e+01,   -3.200000e+01,    7.898972e-16
    5558,    1.000000e+01,   -2.800000e+01,    5.449678e-16
    5559,    1.000000e+01,   -2.400000e+01,    3.000385e-16
    5560,    1.000000e+01,   -2.000000e+01,    5.510911e-17
    5561,    1.000000e+01,   -1.600000e+01,   -1.898203e-16
    5562,    1.000000e+01,   -1.200000e+01,   -4.347496e-16
    5563,    1.000000e+01,   -8.000000e+00,   -6.796790e-16
    5564,    1.000000e+01,   -4.000000e+00,   -9.246083e-16
    5565,    2.000000e+00,   -4.000000e+00,    0.000000e+00
    5566,    2.000000e+00,   -8.000000e+00,    0.000000e+00
    5567,    2.000000e+00,   -1.200000e+01,    0.000000e+00
    5568,    2.000000e+00,   -1.600000e+01,    0.000000e+00
    5569,    2.000000e+00,   -2.000000e+01,    0.000000e+00
    5570,    2.000000e+00,   -2.400000e+01,    0.000000e+00
    5571,    2.000000e+00,   -2.800000e+01,    0.000000e+00
    5572,    2.000000e+00,   -3.200000e+01,    0.000000e+00
    5573,    2.000000e+00,   -3.600000e+01,    0.000000e+00
    5574,    2.000000e+00,   -4.000000e+01,    0.000000e+00
    5575,    2.000000e+00,   -4.400000e+01,    0.000000e+00
    5576,    2.000000e+00,   -4.800000e+01,    0.000000e+00
    5577,    2.000000e+00,   -5.200000e+01,    0.000000e+00
    5578,    2.000000e+00,   -5.600000e+01,    0.000000e+00
    5579,    2.000000e+00,   -6.000000e+01,    0.000000e+00
    5580,    2.000000e+00,   -6.400000e+01,    0.000000e+00
    5581,    2.000000e+00,   -6.800000e+01,    0.000000e+00
    5582,    2.000000e+00,   -7.200000e+01,    0.000000e+00
    5583,    2.000000e+00,   -7.600000e+01,    0.000000e+00
    5584,    4.000000e+00,   -4.000000e+00,    0.000000e+00
    5585,    4.000000e+00,   -8.000000e+00,    0.000000e+00
    5586,    4.000000e+00,   -1.200000e+01,    0.000000e+00
    5587,    4.000000e+00,   -1.600000e+01,    0.000000e+00
    5588,    4.000000e+00,   -2.000000e+01,    0.000000e+00
    5589,    4.000000e+00,   -2.400000e+01,    0.000000e+00
    5590,    4.000000e+00,   -2.800000e+01,    0.000000e+00
    5591,    4.000000e+00,   -3.200000e+01,    0.000000e+00
    5592,    4.000000e+00,   -3.600000e+01,    0.000000e+00
    5593,    4.000000e+00,   -4.000000e+01,    0.000000e+00
    5594,    4.000000e+00,   -4.400000e+01,    0.000000e+00
    5595,    4.000000e+00,   -4.800000e+01,    0.000000e+00
    5596,    4.000000e+00,   -5.200000e+01,    0.000000e+00
    5597,    4.000000e+00,   -5.600000e+01,    0.000000e+00
    5598,    4.000000e+00,   -6.000000e+01,    0.000000e+00
    5599,    4.000000e+00,   -6.400000e+01,    0.000000e+00
    5600,    4.000000e+00,   -6.800000e+01,    0.000000e+00
    5601,    4.000000e+00,   -7.200000e+01,    0.000000e+00
    5602,    4.000000e+00,   -7.600000e+01,    0.000000e+00
    5603,    6.000000e+00,   -4.000000e+00,    0.000000e+00
    5604,    6.000000e+00,   -8.000000e+00,    0.000000e+00
    5605,    6.000000e+00,   -1.200000e+01,    0.000000e+00
    5606,    6.000000e+00,   -1.600000e+01,    0.000000e+00
    5607,    6.000000e+00,   -2.000000e+01,    0.000000e+00
    5608,    6.000000e+00,   -2.400000e+01,    0.000000e+00
    5609,    6.000000e+00,   -2.800000e+01,    0.000000e+00
    5610,    6.000000e+00,   -3.200000e+01,    0.000000e+00
    5611,    6.000000e+00,   -3.600000e+01,    0.000000e+00
    5612,    6.000000e+00,   -4.000000e+01,    0.000000e+00
    5613,    6.000000e+00,   -4.400000e+01,    0.000000e+00
    5614,    6.000000e+00,   -4.800000e+01,    0.000000e+00
    5615,    6.000000e+00,   -5.200000e+01,    0.000000e+00
    5616,    6.000000e+00,   -5.600000e+01,    0.000000e+00
    5617,    6.000000e+00,   -6.000000e+01,    0.000000e+00
    5618,    6.000000e+00,   -6.400000e+01,    0.000000e+00
    5619,    6.000000e+00,   -6.800000e+01,    0.000000e+00
    5620,    6.000000e+00,   -7.200000e+01,    0.000000e+00
    5621,    6.000000e+00,   -7.600000e+01,    0.000000e+00
    5622,    8.000000e+00,   -4.000000e+00,    0.000000e+00
    5623,    8.000000e+00,   -8.000000e+00,    0.000000e+00
    5624,    8.000000e+00,   -1.200000e+01,    0.000000e+00
    5625,    8.000000e+00,   -1.600000e+01,    0.000000e+00
    5626,    8.000000e+00,   -2.000000e+01,    0.000000e+00
    5627,    8.000000e+00,   -2.400000e+01,    0.000000e+00
    5628,    8.000000e+00,   -2.800000e+01,    0.000000e+00
    5629,    8.000000e+00,   -3.200000e+01,    0.000000e+00
    5630,    8.000000e+00,   -3.600000e+01,    0.000000e+00
    5631,    8.000000e+00,   -4.000000e+01,    0.000000e+00
    5632,    8.000000e+00,   -4.400000e+01,    0.000000e+00
    5633,    8.000000e+00,   -4.800000e+01,    0.000000e+00
    5634,    8.000000e+00,   -5.200000e+01,    0.000000e+00
    5635,    8.000000e+00,   -5.600000e+01,    0.000000e+00
    5636,    8.000000e+00,   -6.000000e+01,    0.000000e+00
    5637,    8.000000e+00,   -6.400000e+01,    0.000000e+00
    5638,    8.000000e+00,   -6.800000e+01,    0.000000e+00
    5639,    8.000000e+00,   -7.200000e+01,    0.000000e+00
    5640,    8.000000e+00,   -7.600000e+01,    0.000000e+00
    5641,    2.225209e+00,   -8.000000e+01,   -9.749279e+00
    5642,    4.338837e+00,   -8.000000e+01,   -9.009689e+00
    5643,    6.234898e+00,   -8.000000e+01,   -7.818315e+00
    5644,    7.818315e+00,   -8.000000e+01,   -6.234898e+00
    5645,    9.009689e+00,   -8.000000e+01,   -4.338837e+00
    5646,    9.749279e+00,   -8.000000e+01,   -2.225209e+00
    5647,    2.225209e+00,   -7.600000e+01,   -9.749279e+00
    5648,    2.225209e+00,   -7.200000e+01,   -9.749279e+00
    5649,    2.225209e+00,   -6.800000e+01,   -9.749279e+00
    5650,    2.225209e+00,   -6.400000e+01,   -9.749279e+00
    5651,    2.225209e+00,   -6.000000e+01,   -9.749279e+00
    5652,    2.225209e+00,   -5.600000e+01,   -9.749279e+00
    5653,    2.225209e+00,   -5.200000e+01,   -9.749279e+00
    5654,    2.225209e+00,   -4.800000e+01,   -9.749279e+00
    5655,    2.225209e+00,   -4.400000e+01,   -9.749279e+00
    5656,    2.225209e+00,   -4.000000e+01,   -9.749279e+00
    5657,    2.225209e+00,   -3.600000e+01,   -9.749279e+00
    5658,    2.225209e+00,   -3.200000e+01,   -9.749279e+00
    5659,    2.225209e+00,   -2.800000e+01,   -9.749279e+00
    5660,    2.225209e+00,   -2.400000e+01,   -9.749279e+00
    5661,    2.225209e+00,   -2.000000e+01,   -9.749279e+00
    5662,    2.225209e+00,   -1.600000e+01,   -9.749279e+00
    5663,    2.225209e+00,   -1.200000e+01,   -9.749279e+00
    5664,    2.225209e+00,   -8.000000e+00,   -9.749279e+00
    5665,    2.225209e+00,   -4.000000e+00,   -9.749279e+00
    5666,    4.338837e+00,   -7.600000e+01,   -9.009689e+00
    5667,    4.338837e+00,   -7.200000e+01,   -9.009689e+00
    5668,    4.338837e+00,   -6.800000e+01,   -9.009689e+00
    5669,    4.338837e+00,   -6.400000e+01,   -9.009689e+00
    5670,    4.338837e+00,   -6.000000e+01,   -9.009689e+00
    5671,    4.338837e+00,   -5.600000e+01,   -9.009689e+00
    5672,    4.338837e+00,   -5.200000e+01,   -9.009689e+00
    5673,    4.338837e+00,   -4.800000e+01,   -9.009689e+00
    5674,    4.338837e+00,   -4.400000e+01,   -9.009689e+00
    5675,    4.338837e+00,   -4.000000e+01,   -9.009689e+00
    5676,    4.338837e+00,   -3.600000e+01,   -9.009689e+00
    5677,    4.338837e+00,   -3.200000e+01,   -9.009689e+00
    5678,    4.338837e+00,   -2.800000e+01,   -9.009689e+00
    5679,    4.338837e+00,   -2.400000e+01,   -9.009689e+00
    5680,    4.338837e+00,   -2.000000e+01,   -9.009689e+00
    5681,    4.338837e+00,   -1.600000e+01,   -9.009689e+00
    5682,    4.338837e+00,   -1.200000e+01,   -9.009689e+00
    5683,    4.338837e+00,   -8.000000e+00,   -9.009689e+00
    5684,    4.338837e+00,   -4.000000e+00,   -9.009689e+00
    5685,    6.234898e+00,   -7.600000e+01,   -7.818315e+00
    5686,    6.234898e+00,   -7.200000e+01,   -7.818315e+00
    5687,    6.234898e+00,   -6.800000e+01,   -7.818315e+00
    5688,    6.234898e+00,   -6.400000e+01,   -7.818315e+00
    5689,    6.234898e+00,   -6.000000e+01,   -7.818315e+00
    5690,    6.234898e+00,   -5.600000e+01,   -7.818315e+00
    5691,    6.234898e+00,   -5.200000e+01,   -7.818315e+00
    5692,    6.234898e+00,   -4.800000e+01,   -7.818315e+00
    5693,    6.234898e+00,   -4.400000e+01,   -7.818315e+00
    5694,    6.234898e+00,   -4.000000e+01,   -7.818315e+00
    5695,    6.234898e+00,   -3.600000e+01,   -7.818315e+00
    5696,    6.234898e+00,   -3.200000e+01,   -7.818315e+00
    5697,    6.234898e+00,   -2.800000e+01,   -7.818315e+00
    5698,    6.234898e+00,   -2.400000e+01,   -7.818315e+00
    5699,    6.234898e+00,   -2.000000e+01,   -7.818315e+00
    5700,    6.234898e+00,   -1.600000e+01,   -7.818315e+00
    5701,    6.234898e+00,   -1.200000e+01,   -7.818315e+00
    5702,    6.234898e+00,   -8.000000e+00,   -7.818315e+00
    5703,    6.234898e+00,   -4.000000e+00,   -7.818315e+00
    5704,    7.818315e+00,   -7.600000e+01,   -6.234898e+00
    5705,    7.818315e+00,   -7.200000e+01,   -6.234898e+00
    5706,    7.818315e+00,   -6.800000e+01,   -6.234898e+00
    5707,    7.818315e+00,   -6.400000e+01,   -6.234898e+00
    5708,    7.818315e+00,   -6.000000e+01,   -6.234898e+00
    5709,    7.818315e+00,   -5.600000e+01,   -6.234898e+00
    5710,    7.818315e+00,   -5.200000e+01,   -6.234898e+00
    5711,    7.818315e+00,   -4.800000e+01,   -6.234898e+00
    5712,    7.818315e+00,   -4.400000e+01,   -6.234898e+00
    5713,    7.818315e+00,   -4.000000e+01,   -6.234898e+00
    5714,    7.818315e+00,   -3.600000e+01,   -6.234898e+00
    5715,    7.818315e+00,   -3.200000e+01,   -6.234898e+00
    5716,    7.818315e+00,   -2.800000e+01,   -6.234898e+00
    5717,    7.818315e+00,   -2.400000e+01,   -6.234898e+00
    5718,    7.818315e+00,   -2.000000e+01,   -6.234898e+00
    5719,    7.818315e+00,   -1.600000e+01,   -6.234898e+00
    5720,    7.818315e+00,   -1.200000e+01,   -6.234898e+00
    5721,    7.818315e+00,   -8.000000e+00,   -6.234898e+00
    5722,    7.818315e+00,   -4.000000e+00,   -6.234898e+00
    5723,    9.009689e+00,   -7.600000e+01,   -4.338837e+00
    5724,    9.009689e+00,   -7.200000e+01,   -4.338837e+00
    5725,    9.009689e+00,   -6.800000e+01,   -4.338837e+00
    5726,    9.009689e+00,   -6.400000e+01,   -4.338837e+00
    5727,    9.009689e+00,   -6.000000e+01,   -4.338837e+00
    5728,    9.009689e+00,   -5.600000e+01,   -4.338837e+00
    5729,    9.009689e+00,   -5.200000e+01,   -4.338837e+00
    5730,    9.009689e+00,   -4.800000e+01,   -4.338837e+00
    5731,    9.009689e+00,   -4.400000e+01,   -4.338837e+00
    5732,    9.009689e+00,   -4.000000e+01,   -4.338837e+00
    5733,    9.009689e+00,   -3.600000e+01,   -4.338837e+00
    5734,    9.009689e+00,   -3.200000e+01,   -4.338837e+00
    5735,    9.009689e+00,   -2.800000e+01,   -4.338837e+00
    5736,    9.009689e+00,   -2.400000e+01,   -4.338837e+00
    5737,    9.009689e+00,   -2.000000e+01,   -4.338837e+00
    5738,    9.009689e+00,   -1.600000e+01,   -4.338837e+00
    5739,    9.009689e+00,   -1.200000e+01,   -4.338837e+00
    5740,    9.009689e+00,   -8.000000e+00,   -4.338837e+00
    5741,    9.009689e+00,   -4.000000e+00,   -4.338837e+00
    5742,    9.749279e+00,   -7.600000e+01,   -2.225209e+00
    5743,    9.749279e+00,   -7.200000e+01,   -2.225209e+00
    5744,    9.749279e+00,   -6.800000e+01,   -2.225209e+00
    5745,    9.749279e+00,   -6.400000e+01,   -2.225209e+00
    5746,    9.749279e+00,   -6.000000e+01,   -2.225209e+00
    5747,    9.749279e+00,   -5.600000e+01,   -2.225209e+00
    5748,    9.749279e+00,   -5.200000e+01,   -2.225209e+00
    5749,    9.749279e+00,   -4.800000e+01,   -2.225209e+00
    5750,    9.749279e+00,   -4.400000e+01,   -2.225209e+00
    5751,    9.749279e+00,   -4.000000e+01,   -2.225209e+00
    5752,    9.749279e+00,   -3.600000e+01,   -2.225209e+00
    5753,    9.749279e+00,   -3.200000e+01,   -2.225209e+00
    5754,    9.749279e+00,   -2.800000e+01,   -2.225209e+00
    5755,    9.749279e+00,   -2.400000e+01,   -2.225209e+00
    5756,    9.749279e+00,   -2.000000e+01,   -2.225209e+00
    5757,    9.749279e+00,   -1.600000e+01,   -2.225209e+00
    5758,    9.749279e+00,   -1.200000e+01,   -2.225209e+00
    5759,    9.749279e+00,   -8.000000e+00,   -2.225209e+00
    5760,    9.749279e+00,   -4.000000e+00,   -2.225209e+00
    5761,    5.525158e+00,   -4.000000e+00,   -5.824169e+00
    5762,    6.840806e+00,   -4.000000e+00,   -5.309894e+00
    5763,    3.866234e+00,   -4.000000e+00,   -6.482100e+00
    5764,    1.975763e+00,   -4.000000e+00,   -7.049762e+00
    5765,    1.903308e+00,   -4.000000e+00,   -4.640728e+00
    5766,    1.908332e+00,   -4.000000e+00,   -2.295249e+00
    5767,    3.753719e+00,   -4.000000e+00,   -4.285651e+00
    5768,    3.833892e+00,   -4.000000e+00,   -2.139020e+00
    5769,    5.509063e+00,   -4.000000e+00,   -3.978288e+00
    5770,    5.714397e+00,   -4.000000e+00,   -2.015197e+00
    5771,    7.178946e+00,   -4.000000e+00,   -3.870615e+00
    5772,    7.639957e+00,   -4.000000e+00,   -2.024445e+00
    5773,    5.525158e+00,   -8.000000e+00,   -5.824169e+00
    5774,    6.840806e+00,   -8.000000e+00,   -5.309894e+00
    5775,    3.866234e+00,   -8.000000e+00,   -6.482100e+00
    5776,    1.975763e+00,   -8.000000e+00,   -7.049762e+00
    5777,    1.903308e+00,   -8.000000e+00,   -4.640728e+00
    5778,    1.908332e+00,   -8.000000e+00,   -2.295249e+00
    5779,    3.753719e+00,   -8.000000e+00,   -4.285651e+00
    5780,    3.833892e+00,   -8.000000e+00,   -2.139020e+00
    5781,    5.509063e+00,   -8.000000e+00,   -3.978288e+00
    5782,    5.714397e+00,   -8.000000e+00,   -2.015197e+00
    5783,    7.178946e+00,   -8.000000e+00,   -3.870615e+00
    5784,    7.639957e+00,   -8.000000e+00,   -2.024445e+00
    5785,    5.525158e+00,   -1.200000e+01,   -5.824169e+00
    5786,    6.840806e+00,   -1.200000e+01,   -5.309894e+00
    5787,    3.866234e+00,   -1.200000e+01,   -6.482100e+00
    5788,    1.975763e+00,   -1.200000e+01,   -7.049762e+00
    5789,    1.903308e+00,   -1.200000e+01,   -4.640728e+00
    5790,    1.908332e+00,   -1.200000e+01,   -2.295249e+00
    5791,    3.753719e+00,   -1.200000e+01,   -4.285651e+00
    5792,    3.833892e+00,   -1.200000e+01,   -2.139020e+00
    5793,    5.509063e+00,   -1.200000e+01,   -3.978288e+00
    5794,    5.714397e+00,   -1.200000e+01,   -2.015197e+00
    5795,    7.178946e+00,   -1.200000e+01,   -3.870615e+00
    5796,    7.639957e+00,   -1.200000e+01,   -2.024445e+00
    5797,    5.525158e+00,   -1.600000e+01,   -5.824169e+00
    5798,    6.840806e+00,   -1.600000e+01,   -5.309894e+00
    5799,    3.866234e+00,   -1.600000e+01,   -6.482100e+00
    5800,    1.975763e+00,   -1.600000e+01,   -7.049762e+00
    5801,    1.903308e+00,   -1.600000e+01,   -4.640728e+00
    5802,    1.908332e+00,   -1.600000e+01,   -2.295249e+00
    5803,    3.753719e+00,   -1.600000e+01,   -4.285651e+00
    5804,    3.833892e+00,   -1.600000e+01,   -2.139020e+00
    5805,    5.509063e+00,   -1.600000e+01,   -3.978288e+00
    5806,    5.714397e+00,   -1.600000e+01,   -2.015197e+00
    5807,    7.178946e+00,   -1.600000e+01,   -3.870615e+00
    5808,    7.639957e+00,   -1.600000e+01,   -2.024445e+00
    5809,    5.525158e+00,   -2.000000e+01,   -5.824169e+00
    5810,    6.840806e+00,   -2.000000e+01,   -5.309894e+00
    5811,    3.866234e+00,   -2.000000e+01,   -6.482100e+00
    5812,    1.975763e+00,   -2.000000e+01,   -7.049762e+00
    5813,    1.903308e+00,   -2.000000e+01,   -4.640728e+00
    5814,    1.908332e+00,   -2.000000e+01,   -2.295249e+00
    5815,    3.753719e+00,   -2.000000e+01,   -4.285651e+00
    5816,    3.833892e+00,   -2.000000e+01,   -2.139020e+00
    5817,    5.509063e+00,   -2.000000e+01,   -3.978288e+00
    5818,    5.714397e+00,   -2.000000e+01,   -2.015197e+00
    5819,    7.178946e+00,   -2.000000e+01,   -3.870615e+00
    5820,    7.639957e+00,   -2.000000e+01,   -2.024445e+00
    5821,    5.525158e+00,   -2.400000e+01,   -5.824169e+00
    5822,    6.840806e+00,   -2.400000e+01,   -5.309894e+00
    5823,    3.866234e+00,   -2.400000e+01,   -6.482100e+00
    5824,    1.975763e+00,   -2.400000e+01,   -7.049762e+00
    5825,    1.903308e+00,   -2.400000e+01,   -4.640728e+00
    5826,    1.908332e+00,   -2.400000e+01,   -2.295249e+00
    5827,    3.753719e+00,   -2.400000e+01,   -4.285651e+00
    5828,    3.833892e+00,   -2.400000e+01,   -2.139020e+00
    5829,    5.509063e+00,   -2.400000e+01,   -3.978288e+00
    5830,    5.714397e+00,   -2.400000e+01,   -2.015197e+00
    5831,    7.178946e+00,   -2.400000e+01,   -3.870615e+00
    5832,    7.639957e+00,   -2.400000e+01,   -2.024445e+00
    5833,    5.525158e+00,   -2.800000e+01,   -5.824169e+00
    5834,    6.840806e+00,   -2.800000e+01,   -5.309894e+00
    5835,    3.866234e+00,   -2.800000e+01,   -6.482100e+00
    5836,    1.975763e+00,   -2.800000e+01,   -7.049762e+00
    5837,    1.903308e+00,   -2.800000e+01,   -4.640728e+00
    5838,    1.908332e+00,   -2.800000e+01,   -2.295249e+00
    5839,    3.753719e+00,   -2.800000e+01,   -4.285651e+00
    5840,    3.833892e+00,   -2.800000e+01,   -2.139020e+00
    5841,    5.509063e+00,   -2.800000e+01,   -3.978288e+00
    5842,    5.714397e+00,   -2.800000e+01,   -2.015197e+00
    5843,    7.178946e+00,   -2.800000e+01,   -3.870615e+00
    5844,    7.639957e+00,   -2.800000e+01,   -2.024445e+00
    5845,    5.525158e+00,   -3.200000e+01,   -5.824169e+00
    5846,    6.840806e+00,   -3.200000e+01,   -5.309894e+00
    5847,    3.866234e+00,   -3.200000e+01,   -6.482100e+00
    5848,    1.975763e+00,   -3.200000e+01,   -7.049762e+00
    5849,    1.903308e+00,   -3.200000e+01,   -4.640728e+00
    5850,    1.908332e+00,   -3.200000e+01,   -2.295249e+00
    5851,    3.753719e+00,   -3.200000e+01,   -4.285651e+00
    5852,    3.833892e+00,   -3.200000e+01,   -2.139020e+00
    5853,    5.509063e+00,   -3.200000e+01,   -3.978288e+00
    5854,    5.714397e+00,   -3.200000e+01,   -2.015197e+00
    5855,    7.178946e+00,   -3.200000e+01,   -3.870615e+00
    5856,    7.639957e+00,   -3.200000e+01,   -2.024445e+00
    5857,    5.525158e+00,   -3.600000e+01,   -5.824169e+00
    5858,    6.840806e+00,   -3.600000e+01,   -5.309894e+00
    5859,    3.866234e+00,   -3.600000e+01,   -6.482100e+00
    5860,    1.975763e+00,   -3.600000e+01,   -7.049762e+00
    5861,    1.903308e+00,   -3.600000e+01,   -4.640728e+00
    5862,    1.908332e+00,   -3.600000e+01,   -2.295249e+00
    5863,    3.753719e+00,   -3.600000e+01,   -4.285651e+00
    5864,    3.833892e+00,   -3.600000e+01,   -2.139020e+00
    5865,    5.509063e+00,   -3.600000e+01,   -3.978288e+00
    5866,    5.714397e+00,   -3.600000e+01,   -2.015197e+00
    5867,    7.178946e+00,   -3.600000e+01,   -3.870615e+00
    5868,    7.639957e+00,   -3.600000e+01,   -2.024445e+00
    5869,    5.525158e+00,   -4.000000e+01,   -5.824169e+00
    5870,    6.840806e+00,   -4.000000e+01,   -5.309894e+00
    5871,    3.866234e+00,   -4.000000e+01,   -6.482100e+00
    5872,    1.975763e+00,   -4.000000e+01,   -7.049762e+00
    5873,    1.903308e+00,   -4.000000e+01,   -4.640728e+00
    5874,    1.908332e+00,   -4.000000e+01,   -2.295249e+00
    5875,    3.753719e+00,   -4.000000e+01,   -4.285651e+00
    5876,    3.833892e+00,   -4.000000e+01,   -2.139020e+00
    5877,    5.509063e+00,   -4.000000e+01,   -3.978288e+00
    5878,    5.714397e+00,   -4.000000e+01,   -2.015197e+00
    5879,    7.178946e+00,   -4.000000e+01,   -3.870615e+00
    5880,    7.639957e+00,   -4.000000e+01,   -2.024445e+00
    5881,    5.525158e+00,   -4.400000e+01,   -5.824169e+00
    5882,    6.840806e+00,   -4.400000e+01,   -5.309894e+00
    5883,    3.866234e+00,   -4.400000e+01,   -6.482100e+00
    5884,    1.975763e+00,   -4.400000e+01,   -7.049762e+00
    5885,    1.903308e+00,   -4.400000e+01,   -4.640728e+00
    5886,    1.908332e+00,   -4.400000e+01,   -2.295249e+00
    5887,    3.753719e+00,   -4.400000e+01,   -4.285651e+00
    5888,    3.833892e+00,   -4.400000e+01,   -2.139020e+00
    5889,    5.509063e+00,   -4.400000e+01,   -3.978288e+00
    5890,    5.714397e+00,   -4.400000e+01,   -2.015197e+00
    5891,    7.178946e+00,   -4.400000e+01,   -3.870615e+00
    5892,    7.639957e+00,   -4.400000e+01,   -2.024445e+00
    5893,    5.525158e+00,   -4.800000e+01,   -5.824169e+00
    5894,    6.840806e+00,   -4.800000e+01,   -5.309894e+00
    5895,    3.866234e+00,   -4.800000e+01,   -6.482100e+00
    5896,    1.975763e+00,   -4.800000e+01,   -7.049762e+00
    5897,    1.903308e+00,   -4.800000e+01,   -4.640728e+00
    5898,    1.908332e+00,   -4.800000e+01,   -2.295249e+00
    5899,    3.753719e+00,   -4.800000e+01,   -4.285651e+00
    5900,    3.833892e+00,   -4.800000e+01,   -2.139020e+00
    5901,    5.509063e+00,   -4.800000e+01,   -3.978288e+00
    5902,    5.714397e+00,   -4.800000e+01,   -2.015197e+00
    5903,    7.178946e+00,   -4.800000e+01,   -3.870615e+00
    5904,    7.639957e+00,   -4.800000e+01,   -2.024445e+00
    5905,    5.525158e+00,   -5.200000e+01,   -5.824169e+00
    5906,    6.840806e+00,   -5.200000e+01,   -5.309894e+00
    5907,    3.866234e+00,   -5.200000e+01,   -6.482100e+00
    5908,    1.975763e+00,   -5.200000e+01,   -7.049762e+00
    5909,    1.903308e+00,   -5.200000e+01,   -4.640728e+00
    5910,    1.908332e+00,   -5.200000e+01,   -2.295249e+00
    5911,    3.753719e+00,   -5.200000e+01,   -4.285651e+00
    5912,    3.833892e+00,   -5.200000e+01,   -2.139020e+00
    5913,    5.509063e+00,   -5.200000e+01,   -3.978288e+00
    5914,    5.714397e+00,   -5.200000e+01,   -2.015197e+00
    5915,    7.178946e+00,   -5.200000e+01,   -3.870615e+00
    5916,    7.639957e+00,   -5.200000e+01,   -2.024445e+00
    5917,    5.525158e+00,   -5.600000e+01,   -5.824169e+00
    5918,    6.840806e+00,   -5.600000e+01,   -5.309894e+00
    5919,    3.866234e+00,   -5.600000e+01,   -6.482100e+00
    5920,    1.975763e+00,   -5.600000e+01,   -7.049762e+00
    5921,    1.903308e+00,   -5.600000e+01,   -4.640728e+00
    5922,    1.908332e+00,   -5.600000e+01,   -2.295249e+00
    5923,    3.753719e+00,   -5.600000e+01,   -4.285651e+00
    5924,    3.833892e+00,   -5.600000e+01,   -2.139020e+00
    5925,    5.509063e+00,   -5.600000e+01,   -3.978288e+00
    5926,    5.714397e+00,   -5.600000e+01,   -2.015197e+00
    5927,    7.178946e+00,   -5.600000e+01,   -3.870615e+00
    5928,    7.639957e+00,   -5.600000e+01,   -2.024445e+00
    5929,    5.525158e+00,   -6.000000e+01,   -5.824169e+00
    5930,    6.840806e+00,   -6.000000e+01,   -5.309894e+00
    5931,    3.866234e+00,   -6.000000e+01,   -6.482100e+00
    5932,    1.975763e+00,   -6.000000e+01,   -7.049762e+00
    5933,    1.903308e+00,   -6.000000e+01,   -4.640728e+00
    5934,    1.908332e+00,   -6.000000e+01,   -2.295249e+00
    5935,    3.753719e+00,   -6.000000e+01,   -4.285651e+00
    5936,    3.833892e+00,   -6.000000e+01,   -2.139020e+00
    5937,    5.509063e+00,   -6.000000e+01,   -3.978288e+00
    5938,    5.714397e+00,   -6.000000e+01,   -2.015197e+00
    5939,    7.178946e+00,   -6.000000e+01,   -3.870615e+00
    5940,    7.639957e+00,   -6.000000e+01,   -2.024445e+00
    5941,    5.525158e+00,   -6.400000e+01,   -5.824169e+00
    5942,    6.840806e+00,   -6.400000e+01,   -5.309894e+00
    5943,    3.866234e+00,   -6.400000e+01,   -6.482100e+00
    5944,    1.975763e+00,   -6.400000e+01,   -7.049762e+00
    5945,    1.903308e+00,   -6.400000e+01,   -4.640728e+00
    5946,    1.908332e+00,   -6.400000e+01,   -2.295249e+00
    5947,    3.753719e+00,   -6.400000e+01,   -4.285651e+00
    5948,    3.833892e+00,   -6.400000e+01,   -2.139020e+00
    5949,    5.509063e+00,   -6.400000e+01,   -3.978288e+00
    5950,    5.714397e+00,   -6.400000e+01,   -2.015197e+00
    5951,    7.178946e+00,   -6.400000e+01,   -3.870615e+00
    5952,    7.639957e+00,   -6.400000e+01,   -2.024445e+00
    5953,    5.525158e+00,   -6.800000e+01,   -5.824169e+00
    5954,    6.840806e+00,   -6.800000e+01,   -5.309894e+00
    5955,    3.866234e+00,   -6.800000e+01,   -6.482100e+00
    5956,    1.975763e+00,   -6.800000e+01,   -7.049762e+00
    5957,    1.903308e+00,   -6.800000e+01,   -4.640728e+00
    5958,    1.908332e+00,   -6.800000e+01,   -2.295249e+00
    5959,    3.753719e+00,   -6.800000e+01,   -4.285651e+00
    5960,    3.833892e+00,   -6.800000e+01,   -2.139020e+00
    5961,    5.509063e+00,   -6.800000e+01,   -3.978288e+00
    5962,    5.714397e+00,   -6.800000e+01,   -2.015197e+00
    5963,    7.178946e+00,   -6.800000e+01,   -3.870615e+00
    5964,    7.639957e+00,   -6.800000e+01,   -2.024445e+00
    5965,    5.525158e+00,   -7.200000e+01,   -5.824169e+00
    5966,    6.840806e+00,   -7.200000e+01,   -5.309894e+00
    5967,    3.866234e+00,   -7.200000e+01,   -6.482100e+00
    5968,    1.975763e+00,   -7.200000e+01,   -7.049762e+00
    5969,    1.903308e+00,   -7.200000e+01,   -4.640728e+00
    5970,    1.908332e+00,   -7.200000e+01,   -2.295249e+00
    5971,    3.753719e+00,   -7.200000e+01,   -4.285651e+00
    5972,    3.833892e+00,   -7.200000e+01,   -2.139020e+00
    5973,    5.509063e+00,   -7.200000e+01,   -3.978288e+00
    5974,    5.714397e+00,   -7.200000e+01,   -2.015197e+00
    5975,    7.178946e+00,   -7.200000e+01,   -3.870615e+00
    5976,    7.639957e+00,   -7.200000e+01,   -2.024445e+00
    5977,    5.525158e+00,   -7.600000e+01,   -5.824169e+00
    5978,    6.840806e+00,   -7.600000e+01,   -5.309894e+00
    5979,    3.866234e+00,   -7.600000e+01,   -6.482100e+00
    5980,    1.975763e+00,   -7.600000e+01,   -7.049762e+00
    5981,    1.903308e+00,   -7.600000e+01,   -4.640728e+00
    5982,    1.908332e+00,   -7.600000e+01,   -2.295249e+00
    5983,    3.753719e+00,   -7.600000e+01,   -4.285651e+00
    5984,    3.833892e+00,   -7.600000e+01,   -2.139020e+00
    5985,    5.509063e+00,   -7.600000e+01,   -3.978288e+00
    5986,    5.714397e+00,   -7.600000e+01,   -2.015197e+00
    5987,    7.178946e+00,   -7.600000e+01,   -3.870615e+00
    5988,    7.639957e+00,   -7.600000e+01,   -2.024445e+00
    5989,    5.525158e+00,   -8.000000e+01,   -5.824169e+00
    5990,    6.840806e+00,   -8.000000e+01,   -5.309894e+00
    5991,    3.866234e+00,   -8.000000e+01,   -6.482100e+00
    5992,    1.975763e+00,   -8.000000e+01,   -7.049762e+00
    5993,    1.903308e+00,   -8.000000e+01,   -4.640728e+00
    5994,    1.908332e+00,   -8.000000e+01,   -2.295249e+00
    5995,    3.753719e+00,   -8.000000e+01,   -4.285651e+00
    5996,    3.833892e+00,   -8.000000e+01,   -2.139020e+00
    5997,    5.509063e+00,   -8.000000e+01,   -3.978288e+00
    5998,    5.714397e+00,   -8.000000e+01,   -2.015197e+00
    5999,    7.178946e+00,   -8.000000e+01,   -3.870615e+00
    6000,    7.639957e+00,   -8.000000e+01,   -2.024445e+00
   10631,   -1.000000e+01,    2.000000e+01,   -3.618831e-15
   10632,   -9.749279e+00,    2.000000e+01,   -2.225209e+00
   10633,   -9.009689e+00,    2.000000e+01,   -4.338837e+00
   10634,   -7.818315e+00,    2.000000e+01,   -6.234898e+00
   10635,   -6.234898e+00,    2.000000e+01,   -7.818315e+00
   10636,   -4.338837e+00,    2.000000e+01,   -9.009689e+00
   10637,   -2.225209e+00,    2.000000e+01,   -9.749279e+00
   10638,   -2.000000e+00,    2.000000e+01,    0.000000e+00
   10639,   -4.000000e+00,    2.000000e+01,    0.000000e+00
   10640,   -6.000000e+00,    2.000000e+01,    0.000000e+00
   10641,   -8.000000e+00,    2.000000e+01,    0.000000e+00
   10642,   -6.830325e+00,    2.000000e+01,   -5.307483e+00
   10643,   -1.975771e+00,    2.000000e+01,   -7.050566e+00
   10644,   -3.870860e+00,    2.000000e+01,   -6.487469e+00
   10645,   -5.539967e+00,    2.000000e+01,   -5.836899e+00
   10646,   -7.639033e+00,    2.000000e+01,   -2.024699e+00
   10647,   -7.208559e+00,    2.000000e+01,   -3.898144e+00
   10648,   -5.713434e+00,    2.000000e+01,   -2.015796e+00
   10649,   -3.835050e+00,    2.000000e+01,   -2.141056e+00
   10650,   -1.907728e+00,    2.000000e+01,   -2.295649e+00
   10651,   -5.521504e+00,    2.000000e+01,   -3.990354e+00
   10652,   -3.758587e+00,    2.000000e+01,   -4.291406e+00
   10653,   -1.904575e+00,    2.000000e+01,   -4.642807e+00
   10654,   -1.000000e+01,    4.180000e+01,    0.000000e+00
   10655,   -1.000000e+01,    4.051765e+01,   -5.889110e-16
   10656,   -1.000000e+01,    3.923529e+01,   -5.103896e-16
   10657,   -1.000000e+01,    3.795294e+01,   -4.318681e-16
   10658,   -1.000000e+01,    3.667059e+01,   -3.533466e-16
   10659,   -1.000000e+01,    3.538824e+01,   -2.748251e-16
   10660,   -1.000000e+01,    3.410588e+01,   -1.963037e-16
   10661,   -1.000000e+01,    3.282353e+01,   -1.177822e-16
   10662,   -1.000000e+01,    3.154118e+01,   -3.926074e-17
   10663,   -1.000000e+01,    3.025882e+01,    3.926074e-17
   10664,   -1.000000e+01,    2.897647e+01,    1.177822e-16
   10665,   -1.000000e+01,    2.769412e+01,    1.963037e-16
   10666,   -1.000000e+01,    2.641176e+01,    2.748251e-16
   10667,   -1.000000e+01,    2.512941e+01,    3.533466e-16
   10668,   -1.000000e+01,    2.384706e+01,    4.318681e-16
   10669,   -1.000000e+01,    2.256471e+01,    5.103896e-16
   10670,   -1.000000e+01,    2.128235e+01,    5.889110e-16
   10671,   -2.225209e+00,    4.180000e+01,   -9.749279e+00
   10672,   -4.338837e+00,    4.180000e+01,   -9.009689e+00
   10673,   -6.234898e+00,    4.180000e+01,   -7.818315e+00
   10674,   -7.818315e+00,    4.180000e+01,   -6.234898e+00
   10675,   -9.009689e+00,    4.180000e+01,   -4.338837e+00
   10676,   -9.749279e+00,    4.180000e+01,   -2.225209e+00
   10677,   -2.225209e+00,    4.051765e+01,   -9.749279e+00
   10678,   -2.225209e+00,    3.923529e+01,   -9.749279e+00
   10679,   -2.225209e+00,    3.795294e+01,   -9.749279e+00
   10680,   -2.225209e+00,    3.667059e+01,   -9.749279e+00
   10681,   -2.225209e+00,    3.538824e+01,   -9.749279e+00
   10682,   -2.225209e+00,    3.410588e+01,   -9.749279e+00
   10683,   -2.225209e+00,    3.282353e+01,   -9.749279e+00
   10684,   -2.225209e+00,    3.154118e+01,   -9.749279e+00
   10685,   -2.225209e+00,    3.025882e+01,   -9.749279e+00
   10686,   -2.225209e+00,    2.897647e+01,   -9.749279e+00
   10687,   -2.225209e+00,    2.769412e+01,   -9.749279e+00
   10688,   -2.225209e+00,    2.641176e+01,   -9.749279e+00
   10689,   -2.225209e+00,    2.512941e+01,   -9.749279e+00
   10690,   -2.225209e+00,    2.384706e+01,   -9.749279e+00
   10691,   -2.225209e+00,    2.256471e+01,   -9.749279e+00
   10692,   -2.225209e+00,    2.128235e+01,   -9.749279e+00
   10693,   -4.338837e+00,    4.051765e+01,   -9.009689e+00
   10694,   -4.338837e+00,    3.923529e+01,   -9.009689e+00
   10695,   -4.338837e+00,    3.795294e+01,   -9.009689e+00
   10696,   -4.338837e+00,    3.667059e+01,   -9.009689e+00
   10697,   -4.338837e+00,    3.538824e+01,   -9.009689e+00
   10698,   -4.338837e+00,    3.410588e+01,   -9.009689e+00
   10699,   -4.338837e+00,    3.282353e+01,   -9.009689e+00
   10700,   -4.338837e+00,    3.154118e+01,   -9.009689e+00
   10701,   -4.338837e+00,    3.025882e+01,   -9.009689e+00
   10702,   -4.338837e+00,    2.897647e+01,   -9.009689e+00
   10703,   -4.338837e+00,    2.769412e+01,   -9.009689e+00
   10704,   -4.338837e+00,    2.641176e+01,   -9.009689e+00
   10705,   -4.338837e+00,    2.512941e+01,   -9.009689e+00
   10706,   -4.338837e+00,    2.384706e+01,   -9.009689e+00
   10707,   -4.338837e+00,    2.256471e+01,   -9.009689e+00
   10708,   -4.338837e+00,    2.128235e+01,   -9.009689e+00
   10709,   -6.234898e+00,    4.051765e+01,   -7.818315e+00
   10710,   -6.234898e+00,    3.923529e+01,   -7.818315e+00
   10711,   -6.234898e+00,    3.795294e+01,   -7.818315e+00
   10712,   -6.234898e+00,    3.667059e+01,   -7.818315e+00
   10713,   -6.234898e+00,    3.538824e+01,   -7.818315e+00
   10714,   -6.234898e+00,    3.410588e+01,   -7.818315e+00
   10715,   -6.234898e+00,    3.282353e+01,   -7.818315e+00
   10716,   -6.234898e+00,    3.154118e+01,   -7.818315e+00
   10717,   -6.234898e+00,    3.025882e+01,   -7.818315e+00
   10718,   -6.234898e+00,    2.897647e+01,   -7.818315e+00
   10719,   -6.234898e+00,    2.769412e+01,   -7.818315e+00
   10720,   -6.234898e+00,    2.641176e+01,   -7.818315e+00
   10721,   -6.234898e+00,    2.512941e+01,   -7.818315e+00
   10722,   -6.234898e+00,    2.384706e+01,   -7.818315e+00
   10723,   -6.234898e+00,    2.256471e+01,   -7.818315e+00
   10724,   -6.234898e+00,    2.128235e+01,   -7.818315e+00
   10725,   -7.818315e+00,    4.051765e+01,   -6.234898e+00
   10726,   -7.818315e+00,    3.923529e+01,   -6.234898e+00
   10727,   -7.818315e+00,    3.795294e+01,   -6.234898e+00
   10728,   -7.818315e+00,    3.667059e+01,   -6.234898e+00
   10729,   -7.818315e+00,    3.538824e+01,   -6.234898e+00
   10730,   -7.818315e+00,    3.410588e+01,   -6.234898e+00
   10731,   -7.818315e+00,    3.282353e+01,   -6.234898e+00
   10732,   -7.818315e+00,    3.154118e+01,   -6.234898e+00
   10733,   -7.818315e+00,    3.025882e+01,   -6.234898e+00
   10734,   -7.818315e+00,    2.897647e+01,   -6.234898e+00
   10735,   -7.818315e+00,    2.769412e+01,   -6.234898e+00
   10736,   -7.818315e+00,    2.641176e+01,   -6.234898e+00
   10737,   -7.818315e+00,    2.512941e+01,   -6.234898e+00
   10738,   -7.818315e+00,    2.384706e+01,   -6.234898e+00
   10739,   -7.818315e+00,    2.256471e+01,   -6.234898e+00
   10740,   -7.818315e+00,    2.128235e+01,   -6.234898e+00
   10741,   -9.009689e+00,    4.051765e+01,   -4.338837e+00
   10742,   -9.009689e+00,    3.923529e+01,   -4.338837e+00
   10743,   -9.009689e+00,    3.795294e+01,   -4.338837e+00
   10744,   -9.009689e+00,    3.667059e+01,   -4.338837e+00
   10745,   -9.009689e+00,    3.538824e+01,   -4.338837e+00
   10746,   -9.009689e+00,    3.410588e+01,   -4.338837e+00
   10747,   -9.009689e+00,    3.282353e+01,   -4.338837e+00
   10748,   -9.009689e+00,    3.154118e+01,   -4.338837e+00
   10749,   -9.009689e+00,    3.025882e+01,   -4.338837e+00
   10750,   -9.009689e+00,    2.897647e+01,   -4.338837e+00
   10751,   -9.009689e+00,    2.769412e+01,   -4.338837e+00
   10752,   -9.009689e+00,    2.641176e+01,   -4.338837e+00
   10753,   -9.009689e+00,    2.512941e+01,   -4.338837e+00
   10754,   -9.009689e+00,    2.384706e+01,   -4.338837e+00
   10755,   -9.009689e+00,    2.256471e+01,   -4.338837e+00
   10756,   -9.009689e+00,    2.128235e+01,   -4.338837e+00
   10757,   -9.749279e+00,    4.051765e+01,   -2.225209e+00
   10758,   -9.749279e+00,    3.923529e+01,   -2.225209e+00
   10759,   -9.749279e+00,    3.795294e+01,   -2.225209e+00
   10760,   -9.749279e+00,    3.667059e+01,   -2.225209e+00
   10761,   -9.749279e+00,    3.538824e+01,   -2.225209e+00
   10762,   -9.749279e+00,    3.410588e+01,   -2.225209e+00
   10763,   -9.749279e+00,    3.282353e+01,   -2.225209e+00
   10764,   -9.749279e+00,    3.154118e+01,   -2.225209e+00
   10765,   -9.749279e+00,    3.025882e+01,   -2.225209e+00
   10766,   -9.749279e+00,    2.897647e+01,   -2.225209e+00
   10767,   -9.749279e+00,    2.769412e+01,   -2.225209e+00
   10768,   -9.749279e+00,    2.641176e+01,   -2.225209e+00
   10769,   -9.749279e+00,    2.512941e+01,   -2.225209e+00
   10770,   -9.749279e+00,    2.384706e+01,   -2.225209e+00
   10771,   -9.749279e+00,    2.256471e+01,   -2.225209e+00
   10772,   -9.749279e+00,    2.128235e+01,   -2.225209e+00
   10773,   -2.000000e+00,    4.180000e+01,    0.000000e+00
   10774,   -4.000000e+00,    4.180000e+01,    0.000000e+00
   10775,   -6.000000e+00,    4.180000e+01,    0.000000e+00
   10776,   -8.000000e+00,    4.180000e+01,    0.000000e+00
   10777,   -2.000000e+00,    2.128235e+01,    0.000000e+00
   10778,   -2.000000e+00,    2.256471e+01,    0.000000e+00
   10779,   -2.000000e+00,    2.384706e+01,    0.000000e+00
   10780,   -2.000000e+00,    2.512941e+01,    0.000000e+00
   10781,   -2.000000e+00,    2.641176e+01,    0.000000e+00
   10782,   -2.000000e+00,    2.769412e+01,    0.000000e+00
   10783,   -2.000000e+00,    2.897647e+01,    0.000000e+00
   10784,   -2.000000e+00,    3.025882e+01,    0.000000e+00
   10785,   -2.000000e+00,    3.154118e+01,    0.000000e+00
   10786,   -2.000000e+00,    3.282353e+01,    0.000000e+00
   10787,   -2.000000e+00,    3.410588e+01,    0.000000e+00
   10788,   -2.000000e+00,    3.538824e+01,    0.000000e+00
   10789,   -2.000000e+00,    3.667059e+01,    0.000000e+00
   10790,   -2.000000e+00,    3.795294e+01,    0.000000e+00
   10791,   -2.000000e+00,    3.923529e+01,    0.000000e+00
   10792,   -2.000000e+00,    4.051765e+01,    0.000000e+00
   10793,   -4.000000e+00,    2.128235e+01,    0.000000e+00
   10794,   -4.000000e+00,    2.256471e+01,    0.000000e+00
   10795,   -4.000000e+00,    2.384706e+01,    0.000000e+00
   10796,   -4.000000e+00,    2.512941e+01,    0.000000e+00
   10797,   -4.000000e+00,    2.641176e+01,    0.000000e+00
   10798,   -4.000000e+00,    2.769412e+01,    0.000000e+00
   10799,   -4.000000e+00,    2.897647e+01,    0.000000e+00
   10800,   -4.000000e+00,    3.025882e+01,    0.000000e+00
   10801,   -4.000000e+00,    3.154118e+01,    0.000000e+00
   10802,   -4.000000e+00,    3.282353e+01,    0.000000e+00
   10803,   -4.000000e+00,    3.410588e+01,    0.000000e+00
   10804,   -4.000000e+00,    3.538824e+01,    0.000000e+00
   10805,   -4.000000e+00,    3.667059e+01,    0.000000e+00
   10806,   -4.000000e+00,    3.795294e+01,    0.000000e+00
   10807,   -4.000000e+00,    3.923529e+01,    0.000000e+00
   10808,   -4.000000e+00,    4.051765e+01,    0.000000e+00
   10809,   -6.000000e+00,    2.128235e+01,    0.000000e+00
   10810,   -6.000000e+00,    2.256471e+01,    0.000000e+00
   10811,   -6.000000e+00,    2.384706e+01,    0.000000e+00
   10812,   -6.000000e+00,    2.512941e+01,    0.000000e+00
   10813,   -6.000000e+00,    2.641176e+01,    0.000000e+00
   10814,   -6.000000e+00,    2.769412e+01,    0.000000e+00
   10815,   -6.000000e+00,    2.897647e+01,    0.000000e+00
   10816,   -6.000000e+00,    3.025882e+01,    0.000000e+00
   10817,   -6.000000e+00,    3.154118e+01,    0.000000e+00
   10818,   -6.000000e+00,    3.282353e+01,    0.000000e+00
   10819,   -6.000000e+00,    3.410588e+01,    0.000000e+00
   10820,   -6.000000e+00,    3.538824e+01,    0.000000e+00
   10821,   -6.000000e+00,    3.667059e+01,    0.000000e+00
   10822,   -6.000000e+00,    3.795294e+01,    0.000000e+00
   10823,   -6.000000e+00,    3.923529e+01,    0.000000e+00
   10824,   -6.000000e+00,    4.051765e+01,    0.000000e+00
   10825,   -8.000000e+00,    2.128235e+01,    0.000000e+00
   10826,   -8.000000e+00,    2.256471e+01,    0.000000e+00
   10827,   -8.000000e+00,    2.384706e+01,    0.000000e+00
   10828,   -8.000000e+00,    2.512941e+01,    0.000000e+00
   10829,   -8.000000e+00,    2.641176e+01,    0.000000e+00
   10830,   -8.000000e+00,    2.769412e+01,    0.000000e+00
   10831,   -8.000000e+00,    2.897647e+01,    0.000000e+00
   10832,   -8.000000e+00,    3.025882e+01,    0.000000e+00
   10833,   -8.000000e+00,    3.154118e+01,    0.000000e+00
   10834,   -8.000000e+00,    3.282353e+01,    0.000000e+00
   10835,   -8.000000e+00,    3.410588e+01,    0.000000e+00
   10836,   -8.000000e+00,    3.538824e+01,    0.000000e+00
   10837,   -8.000000e+00,    3.667059e+01,    0.000000e+00
   10838,   -8.000000e+00,    3.795294e+01,    0.000000e+00
   10839,   -8.000000e+00,    3.923529e+01,    0.000000e+00
   10840,   -8.000000e+00,    4.051765e+01,    0.000000e+00
   10841,   -7.639033e+00,    2.128235e+01,   -2.024699e+00
   10842,   -5.713434e+00,    2.128235e+01,   -2.015796e+00
   10843,   -3.835050e+00,    2.128235e+01,   -2.141056e+00
   10844,   -1.907728e+00,    2.128235e+01,   -2.295649e+00
   10845,   -7.208559e+00,    2.128235e+01,   -3.898144e+00
   10846,   -5.521504e+00,    2.128235e+01,   -3.990354e+00
   10847,   -3.758587e+00,    2.128235e+01,   -4.291406e+00
   10848,   -1.904575e+00,    2.128235e+01,   -4.642807e+00
   10849,   -6.830325e+00,    2.128235e+01,   -5.307483e+00
   10850,   -5.539967e+00,    2.128235e+01,   -5.836899e+00
   10851,   -3.870860e+00,    2.128235e+01,   -6.487469e+00
   10852,   -1.975771e+00,    2.128235e+01,   -7.050566e+00
   10853,   -7.639033e+00,    2.256471e+01,   -2.024699e+00
   10854,   -5.713434e+00,    2.256471e+01,   -2.015796e+00
   10855,   -3.835050e+00,    2.256471e+01,   -2.141056e+00
   10856,   -1.907728e+00,    2.256471e+01,   -2.295649e+00
   10857,   -7.208559e+00,    2.256471e+01,   -3.898144e+00
   10858,   -5.521504e+00,    2.256471e+01,   -3.990354e+00
   10859,   -3.758587e+00,    2.256471e+01,   -4.291406e+00
   10860,   -1.904575e+00,    2.256471e+01,   -4.642807e+00
   10861,   -6.830325e+00,    2.256471e+01,   -5.307483e+00
   10862,   -5.539967e+00,    2.256471e+01,   -5.836899e+00
   10863,   -3.870860e+00,    2.256471e+01,   -6.487469e+00
   10864,   -1.975771e+00,    2.256471e+01,   -7.050566e+00
   10865,   -7.639033e+00,    2.384706e+01,   -2.024699e+00
   10866,   -5.713434e+00,    2.384706e+01,   -2.015796e+00
   10867,   -3.835050e+00,    2.384706e+01,   -2.141056e+00
   10868,   -1.907728e+00,    2.384706e+01,   -2.295649e+00
   10869,   -7.208559e+00,    2.384706e+01,   -3.898144e+00
   10870,   -5.521504e+00,    2.384706e+01,   -3.990354e+00
   10871,   -3.758587e+00,    2.384706e+01,   -4.291406e+00
   10872,   -1.904575e+00,    2.384706e+01,   -4.642807e+00
   10873,   -6.830325e+00,    2.384706e+01,   -5.307483e+00
   10874,   -5.539967e+00,    2.384706e+01,   -5.836899e+00
   10875,   -3.870860e+00,    2.384706e+01,   -6.487469e+00
   10876,   -1.975771e+00,    2.384706e+01,   -7.050566e+00
   10877,   -7.639033e+00,    2.512941e+01,   -2.024699e+00
   10878,   -5.713434e+00,    2.512941e+01,   -2.015796e+00
   10879,   -3.835050e+00,    2.512941e+01,   -2.141056e+00
   10880,   -1.907728e+00,    2.512941e+01,   -2.295649e+00
   10881,   -7.208559e+00,    2.512941e+01,   -3.898144e+00
   10882,   -5.521504e+00,    2.512941e+01,   -3.990354e+00
   10883,   -3.758587e+00,    2.512941e+01,   -4.291406e+00
   10884,   -1.904575e+00,    2.512941e+01,   -4.642807e+00
   10885,   -6.830325e+00,    2.512941e+01,   -5.307483e+00
   10886,   -5.539967e+00,    2.512941e+01,   -5.836899e+00
   10887,   -3.870860e+00,    2.512941e+01,   -6.487469e+00
   10888,   -1.975771e+00,    2.512941e+01,   -7.050566e+00
   10889,   -7.639033e+00,    2.641176e+01,   -2.024699e+00
   10890,   -5.713434e+00,    2.641176e+01,   -2.015796e+00
   10891,   -3.835050e+00,    2.641176e+01,   -2.141056e+00
   10892,   -1.907728e+00,    2.641176e+01,   -2.295649e+00
   10893,   -7.208559e+00,    2.641176e+01,   -3.898144e+00
   10894,   -5.521504e+00,    2.641176e+01,   -3.990354e+00
   10895,   -3.758587e+00,    2.641176e+01,   -4.291406e+00
   10896,   -1.904575e+00,    2.641176e+01,   -4.642807e+00
   10897,   -6.830325e+00,    2.641176e+01,   -5.307483e+00
   10898,   -5.539967e+00,    2.641176e+01,   -5.836899e+00
   10899,   -3.870860e+00,    2.641176e+01,   -6.487469e+00
   10900,   -1.975771e+00,    2.641176e+01,   -7.050566e+00
   10901,   -7.639033e+00,    2.769412e+01,   -2.024699e+00
   10902,   -5.713434e+00,    2.769412e+01,   -2.015796e+00
   10903,   -3.835050e+00,    2.769412e+01,   -2.141056e+00
   10904,   -1.907728e+00,    2.769412e+01,   -2.295649e+00
   10905,   -7.208559e+00,    2.769412e+01,   -3.898144e+00
   10906,   -5.521504e+00,    2.769412e+01,   -3.990354e+00
   10907,   -3.758587e+00,    2.769412e+01,   -4.291406e+00
   10908,   -1.904575e+00,    2.769412e+01,   -4.642807e+00
   10909,   -6.830325e+00,    2.769412e+01,   -5.307483e+00
   10910,   -5.539967e+00,    2.769412e+01,   -5.836899e+00
   10911,   -3.870860e+00,    2.769412e+01,   -6.487469e+00
   10912,   -1.975771e+00,    2.769412e+01,   -7.050566e+00
   10913,   -7.639033e+00,    2.897647e+01,   -2.024699e+00
   10914,   -5.713434e+00,    2.897647e+01,   -2.015796e+00
   10915,   -3.835050e+00,    2.897647e+01,   -2.141056e+00
   10916,   -1.907728e+00,    2.897647e+01,   -2.295649e+00
   10917,   -7.208559e+00,    2.897647e+01,   -3.898144e+00
   10918,   -5.521504e+00,    2.897647e+01,   -3.990354e+00
   10919,   -3.758587e+00,    2.897647e+01,   -4.291406e+00
   10920,   -1.904575e+00,    2.897647e+01,   -4.642807e+00
   10921,   -6.830325e+00,    2.897647e+01,   -5.307483e+00
   10922,   -5.539967e+00,    2.897647e+01,   -5.836899e+00
   10923,   -3.870860e+00,    2.897647e+01,   -6.487469e+00
   10924,   -1.975771e+00,    2.897647e+01,   -7.050566e+00
   10925,   -7.639033e+00,    3.025882e+01,   -2.024699e+00
   10926,   -5.713434e+00,    3.025882e+01,   -2.015796e+00
   10927,   -3.835050e+00,    3.025882e+01,   -2.141056e+00
   10928,   -1.907728e+00,    3.025882e+01,   -2.295649e+00
   10929,   -7.208559e+00,    3.025882e+01,   -3.898144e+00
   10930,   -5.521504e+00,    3.025882e+01,   -3.990354e+00
   10931,   -3.758587e+00,    3.025882e+01,   -4.291406e+00
   10932,   -1.904575e+00,    3.025882e+01,   -4.642807e+00
   10933,   -6.830325e+00,    3.025882e+01,   -5.307483e+00
   10934,   -5.539967e+00,    3.025882e+01,   -5.836899e+00
   10935,   -3.870860e+00,    3.025882e+01,   -6.487469e+00
   10936,   -1.975771e+00,    3.025882e+01,   -7.050566e+00
   10937,   -7.639033e+00,    3.154118e+01,   -2.024699e+00
   10938,   -5.713434e+00,    3.154118e+01,   -2.015796e+00
   10939,   -3.835050e+00,    3.154118e+01,   -2.141056e+00
   10940,   -1.907728e+00,    3.154118e+01,   -2.295649e+00
   10941,   -7.208559e+00,    3.154118e+01,   -3.898144e+00
   10942,   -5.521504e+00,    3.154118e+01,   -3.990354e+00
   10943,   -3.758587e+00,    3.154118e+01,   -4.291406e+00
   10944,   -1.904575e+00,    3.154118e+01,   -4.642807e+00
   10945,   -6.830325e+00,    3.154118e+01,   -5.307483e+00
   10946,   -5.539967e+00,    3.154118e+01,   -5.836899e+00
   10947,   -3.870860e+00,    3.154118e+01,   -6.487469e+00
   10948,   -1.975771e+00,    3.154118e+01,   -7.050566e+00
   10949,   -7.639033e+00,    3.282353e+01,   -2.024699e+00
   10950,   -5.713434e+00,    3.282353e+01,   -2.015796e+00
   10951,   -3.835050e+00,    3.282353e+01,   -2.141056e+00
   10952,   -1.907728e+00,    3.282353e+01,   -2.295649e+00
   10953,   -7.208559e+00,    3.282353e+01,   -3.898144e+00
   10954,   -5.521504e+00,    3.282353e+01,   -3.990354e+00
   10955,   -3.758587e+00,    3.282353e+01,   -4.291406e+00
   10956,   -1.904575e+00,    3.282353e+01,   -4.642807e+00
   10957,   -6.830325e+00,    3.282353e+01,   -5.307483e+00
   10958,   -5.539967e+00,    3.282353e+01,   -5.836899e+00
   10959,   -3.870860e+00,    3.282353e+01,   -6.487469e+00
   10960,   -1.975771e+00,    3.282353e+01,   -7.050566e+00
   10961,   -7.639033e+00,    3.410588e+01,   -2.024699e+00
   10962,   -5.713434e+00,    3.410588e+01,   -2.015796e+00
   10963,   -3.835050e+00,    3.410588e+01,   -2.141056e+00
   10964,   -1.907728e+00,    3.410588e+01,   -2.295649e+00
   10965,   -7.208559e+00,    3.410588e+01,   -3.898144e+00
   10966,   -5.521504e+00,    3.410588e+01,   -3.990354e+00
   10967,   -3.758587e+00,    3.410588e+01,   -4.291406e+00
   10968,   -1.904575e+00,    3.410588e+01,   -4.642807e+00
   10969,   -6.830325e+00,    3.410588e+01,   -5.307483e+00
   10970,   -5.539967e+00,    3.410588e+01,   -5.836899e+00
   10971,   -3.870860e+00,    3.410588e+01,   -6.487469e+00
   10972,   -1.975771e+00,    3.410588e+01,   -7.050566e+00
   10973,   -7.639033e+00,    3.538824e+01,   -2.024699e+00
   10974,   -5.713434e+00,    3.538824e+01,   -2.015796e+00
   10975,   -3.835050e+00,    3.538824e+01,   -2.141056e+00
   10976,   -1.907728e+00,    3.538824e+01,   -2.295649e+00
   10977,   -7.208559e+00,    3.538824e+01,   -3.898144e+00
   10978,   -5.521504e+00,    3.538824e+01,   -3.990354e+00
   10979,   -3.758587e+00,    3.538824e+01,   -4.291406e+00
   10980,   -1.904575e+00,    3.538824e+01,   -4.642807e+00
   10981,   -6.830325e+00,    3.538824e+01,   -5.307483e+00
   10982,   -5.539967e+00,    3.538824e+01,   -5.836899e+00
   10983,   -3.870860e+00,    3.538824e+01,   -6.487469e+00
   10984,   -1.975771e+00,    3.538824e+01,   -7.050566e+00
   10985,   -7.639033e+00,    3.667059e+01,   -2.024699e+00
   10986,   -5.713434e+00,    3.667059e+01,   -2.015796e+00
   10987,   -3.835050e+00,    3.667059e+01,   -2.141056e+00
   10988,   -1.907728e+00,    3.667059e+01,   -2.295649e+00
   10989,   -7.208559e+00,    3.667059e+01,   -3.898144e+00
   10990,   -5.521504e+00,    3.667059e+01,   -3.990354e+00
   10991,   -3.758587e+00,    3.667059e+01,   -4.291406e+00
   10992,   -1.904575e+00,    3.667059e+01,   -4.642807e+00
   10993,   -6.830325e+00,    3.667059e+01,   -5.307483e+00
   10994,   -5.539967e+00,    3.667059e+01,   -5.836899e+00
   10995,   -3.870860e+00,    3.667059e+01,   -6.487469e+00
   10996,   -1.975771e+00,    3.667059e+01,   -7.050566e+00
   10997,   -7.639033e+00,    3.795294e+01,   -2.024699e+00
   10998,   -5.713434e+00,    3.795294e+01,   -2.015796e+00
   10999,   -3.835050e+00,    3.795294e+01,   -2.141056e+00
   11000,   -1.907728e+00,    3.795294e+01,   -2.295649e+00
   11001,   -7.208559e+00,    3.795294e+01,   -3.898144e+00
   11002,   -5.521504e+00,    3.795294e+01,   -3.990354e+00
   11003,   -3.758587e+00,    3.795294e+01,   -4.291406e+00
   11004,   -1.904575e+00,    3.795294e+01,   -4.642807e+00
   11005,   -6.830325e+00,    3.795294e+01,   -5.307483e+00
   11006,   -5.539967e+00,    3.795294e+01,   -5.836899e+00
   11007,   -3.870860e+00,    3.795294e+01,   -6.487469e+00
   11008,   -1.975771e+00,    3.795294e+01,   -7.050566e+00
   11009,   -7.639033e+00,    3.923529e+01,   -2.024699e+00
   11010,   -5.713434e+00,    3.923529e+01,   -2.015796e+00
   11011,   -3.835050e+00,    3.923529e+01,   -2.141056e+00
   11012,   -1.907728e+00,    3.923529e+01,   -2.295649e+00
   11013,   -7.208559e+00,    3.923529e+01,   -3.898144e+00
   11014,   -5.521504e+00,    3.923529e+01,   -3.990354e+00
   11015,   -3.758587e+00,    3.923529e+01,   -4.291406e+00
   11016,   -1.904575e+00,    3.923529e+01,   -4.642807e+00
   11017,   -6.830325e+00,    3.923529e+01,   -5.307483e+00
   11018,   -5.539967e+00,    3.923529e+01,   -5.836899e+00
   11019,   -3.870860e+00,    3.923529e+01,   -6.487469e+00
   11020,   -1.975771e+00,    3.923529e+01,   -7.050566e+00
   11021,   -7.639033e+00,    4.051765e+01,   -2.024699e+00
   11022,   -5.713434e+00,    4.051765e+01,   -2.015796e+00
   11023,   -3.835050e+00,    4.051765e+01,   -2.141056e+00
   11024,   -1.907728e+00,    4.051765e+01,   -2.295649e+00
   11025,   -7.208559e+00,    4.051765e+01,   -3.898144e+00
   11026,   -5.521504e+00,    4.051765e+01,   -3.990354e+00
   11027,   -3.758587e+00,    4.051765e+01,   -4.291406e+00
   11028,   -1.904575e+00,    4.051765e+01,   -4.642807e+00
   11029,   -6.830325e+00,    4.051765e+01,   -5.307483e+00
   11030,   -5.539967e+00,    4.051765e+01,   -5.836899e+00
   11031,   -3.870860e+00,    4.051765e+01,   -6.487469e+00
   11032,   -1.975771e+00,    4.051765e+01,   -7.050566e+00
   11033,   -7.639033e+00,    4.180000e+01,   -2.024699e+00
   11034,   -5.713434e+00,    4.180000e+01,   -2.015796e+00
   11035,   -3.835050e+00,    4.180000e+01,   -2.141056e+00
   11036,   -1.907728e+00,    4.180000e+01,   -2.295649e+00
   11037,   -7.208559e+00,    4.180000e+01,   -3.898144e+00
   11038,   -5.521504e+00,    4.180000e+01,   -3.990354e+00
   11039,   -3.758587e+00,    4.180000e+01,   -4.291406e+00
   11040,   -1.904575e+00,    4.180000e+01,   -4.642807e+00
   11041,   -6.830325e+00,    4.180000e+01,   -5.307483e+00
   11042,   -5.539967e+00,    4.180000e+01,   -5.836899e+00
   11043,   -3.870860e+00,    4.180000e+01,   -6.487469e+00
   11044,   -1.975771e+00,    4.180000e+01,   -7.050566e+00
   11045,   -1.000000e+01,    6.666670e+00,   -2.802400e-15
   11046,   -9.749279e+00,    6.666670e+00,   -2.225209e+00
   11047,   -9.009689e+00,    6.666670e+00,   -4.338837e+00
   11048,   -7.818315e+00,    6.666670e+00,   -6.234898e+00
   11049,   -6.234898e+00,    6.666670e+00,   -7.818315e+00
   11050,   -4.338837e+00,    6.666670e+00,   -9.009689e+00
   11051,   -2.225209e+00,    6.666670e+00,   -9.749279e+00
   11052,   -1.000000e+01,    1.878788e+01,   -3.339945e-16
   11053,   -1.000000e+01,    1.757576e+01,   -2.597735e-16
   11054,   -1.000000e+01,    1.636364e+01,   -1.855525e-16
   11055,   -1.000000e+01,    1.515152e+01,   -1.113315e-16
   11056,   -1.000000e+01,    1.393940e+01,   -3.711050e-17
   11057,   -1.000000e+01,    1.272727e+01,    3.711050e-17
   11058,   -1.000000e+01,    1.151515e+01,    1.113315e-16
   11059,   -1.000000e+01,    1.030303e+01,    1.855525e-16
   11060,   -1.000000e+01,    9.090912e+00,    2.597735e-16
   11061,   -1.000000e+01,    7.878791e+00,    3.339945e-16
   11062,   -2.225209e+00,    1.878788e+01,   -9.749279e+00
   11063,   -2.225209e+00,    1.757576e+01,   -9.749279e+00
   11064,   -2.225209e+00,    1.636364e+01,   -9.749279e+00
   11065,   -2.225209e+00,    1.515152e+01,   -9.749279e+00
   11066,   -2.225209e+00,    1.393940e+01,   -9.749279e+00
   11067,   -2.225209e+00,    1.272727e+01,   -9.749279e+00
   11068,   -2.225209e+00,    1.151515e+01,   -9.749279e+00
   11069,   -2.225209e+00,    1.030303e+01,   -9.749279e+00
   11070,   -2.225209e+00,    9.090912e+00,   -9.749279e+00
   11071,   -2.225209e+00,    7.878791e+00,   -9.749279e+00
   11072,   -4.338837e+00,    1.878788e+01,   -9.009689e+00
   11073,   -4.338837e+00,    1.757576e+01,   -9.009689e+00
   11074,   -4.338837e+00,    1.636364e+01,   -9.009689e+00
   11075,   -4.338837e+00,    1.515152e+01,   -9.009689e+00
   11076,   -4.338837e+00,    1.393940e+01,   -9.009689e+00
   11077,   -4.338837e+00,    1.272727e+01,   -9.009689e+00
   11078,   -4.338837e+00,    1.151515e+01,   -9.009689e+00
   11079,   -4.338837e+00,    1.030303e+01,   -9.009689e+00
   11080,   -4.338837e+00,    9.090912e+00,   -9.009689e+00
   11081,   -4.338837e+00,    7.878791e+00,   -9.009689e+00
   11082,   -6.234898e+00,    1.878788e+01,   -7.818315e+00
   11083,   -6.234898e+00,    1.757576e+01,   -7.818315e+00
   11084,   -6.234898e+00,    1.636364e+01,   -7.818315e+00
   11085,   -6.234898e+00,    1.515152e+01,   -7.818315e+00
   11086,   -6.234898e+00,    1.393940e+01,   -7.818315e+00
   11087,   -6.234898e+00,    1.272727e+01,   -7.818315e+00
   11088,   -6.234898e+00,    1.151515e+01,   -7.818315e+00
   11089,   -6.234898e+00,    1.030303e+01,   -7.818315e+00
   11090,   -6.234898e+00,    9.090912e+00,   -7.818315e+00
   11091,   -6.234898e+00,    7.878791e+00,   -7.818315e+00
   11092,   -7.818315e+00,    1.878788e+01,   -6.234898e+00
   11093,   -7.818315e+00,    1.757576e+01,   -6.234898e+00
   11094,   -7.818315e+00,    1.636364e+01,   -6.234898e+00
   11095,   -7.818315e+00,    1.515152e+01,   -6.234898e+00
   11096,   -7.818315e+00,    1.393940e+01,   -6.234898e+00
   11097,   -7.818315e+00,    1.272727e+01,   -6.234898e+00
   11098,   -7.818315e+00,    1.151515e+01,   -6.234898e+00
   11099,   -7.818315e+00,    1.030303e+01,   -6.234898e+00
   11100,   -7.818315e+00,    9.090912e+00,   -6.234898e+00
   11101,   -7.818315e+00,    7.878791e+00,   -6.234898e+00
   11102,   -9.009689e+00,    1.878788e+01,   -4.338837e+00
   11103,   -9.009689e+00,    1.757576e+01,   -4.338837e+00
   11104,   -9.009689e+00,    1.636364e+01,   -4.338837e+00
   11105,   -9.009689e+00,    1.515152e+01,   -4.338837e+00
   11106,   -9.009689e+00,    1.393940e+01,   -4.338837e+00
   11107,   -9.009689e+00,    1.272727e+01,   -4.338837e+00
   11108,   -9.009689e+00,    1.151515e+01,   -4.338837e+00
   11109,   -9.009689e+00,    1.030303e+01,   -4.338837e+00
   11110,   -9.009689e+00,    9.090912e+00,   -4.338837e+00
   11111,   -9.009689e+00,    7.878791e+00,   -4.338837e+00
   11112,   -9.749279e+00,    1.878788e+01,   -2.225209e+00
   11113,   -9.749279e+00,    1.757576e+01,   -2.225209e+00
   11114,   -9.749279e+00,    1.636364e+01,   -2.225209e+00
   11115,   -9.749279e+00,    1.515152e+01,   -2.225209e+00
   11116,   -9.749279e+00,    1.393940e+01,   -2.225209e+00
   11117,   -9.749279e+00,    1.272727e+01,   -2.225209e+00
   11118,   -9.749279e+00,    1.151515e+01,   -2.225209e+00
   11119,   -9.749279e+00,    1.030303e+01,   -2.225209e+00
   11120,   -9.749279e+00,    9.090912e+00,   -2.225209e+00
   11121,   -9.749279e+00,    7.878791e+00,   -2.225209e+00
   11122,   -2.000000e+00,    6.666670e+00,    0.000000e+00
   11123,   -4.000000e+00,    6.666670e+00,    0.000000e+00
   11124,   -6.000000e+00,    6.666670e+00,    0.000000e+00
   11125,   -8.000000e+00,    6.666670e+00,    0.000000e+00
   11126,   -2.000000e+00,    7.878791e+00,    0.000000e+00
   11127,   -2.000000e+00,    9.090912e+00,    0.000000e+00
   11128,   -2.000000e+00,    1.030303e+01,    0.000000e+00
   11129,   -2.000000e+00,    1.151515e+01,    0.000000e+00
   11130,   -2.000000e+00,    1.272727e+01,    0.000000e+00
   11131,   -2.000000e+00,    1.393940e+01,    0.000000e+00
   11132,   -2.000000e+00,    1.515152e+01,    0.000000e+00
   11133,   -2.000000e+00,    1.636364e+01,    0.000000e+00
   11134,   -2.000000e+00,    1.757576e+01,    0.000000e+00
   11135,   -2.000000e+00,    1.878788e+01,    0.000000e+00
   11136,   -4.000000e+00,    7.878791e+00,    0.000000e+00
   11137,   -4.000000e+00,    9.090912e+00,    0.000000e+00
   11138,   -4.000000e+00,    1.030303e+01,    0.000000e+00
   11139,   -4.000000e+00,    1.151515e+01,    0.000000e+00
   11140,   -4.000000e+00,    1.272727e+01,    0.000000e+00
   11141,   -4.000000e+00,    1.393940e+01,    0.000000e+00
   11142,   -4.000000e+00,    1.515152e+01,    0.000000e+00
   11143,   -4.000000e+00,    1.636364e+01,    0.000000e+00
   11144,   -4.000000e+00,    1.757576e+01,    0.000000e+00
   11145,   -4.000000e+00,    1.878788e+01,    0.000000e+00
   11146,   -6.000000e+00,    7.878791e+00,    0.000000e+00
   11147,   -6.000000e+00,    9.090912e+00,    0.000000e+00
   11148,   -6.000000e+00,    1.030303e+01,    0.000000e+00
   11149,   -6.000000e+00,    1.151515e+01,    0.000000e+00
   11150,   -6.000000e+00,    1.272727e+01,    0.000000e+00
   11151,   -6.000000e+00,    1.393940e+01,    0.000000e+00
   11152,   -6.000000e+00,    1.515152e+01,    0.000000e+00
   11153,   -6.000000e+00,    1.636364e+01,    0.000000e+00
   11154,   -6.000000e+00,    1.757576e+01,    0.000000e+00
   11155,   -6.000000e+00,    1.878788e+01,    0.000000e+00
   11156,   -8.000000e+00,    7.878791e+00,    0.000000e+00
   11157,   -8.000000e+00,    9.090912e+00,    0.000000e+00
   11158,   -8.000000e+00,    1.030303e+01,    0.000000e+00
   11159,   -8.000000e+00,    1.151515e+01,    0.000000e+00
   11160,   -8.000000e+00,    1.272727e+01,    0.000000e+00
   11161,   -8.000000e+00,    1.393940e+01,    0.000000e+00
   11162,   -8.000000e+00,    1.515152e+01,    0.000000e+00
   11163,   -8.000000e+00,    1.636364e+01,    0.000000e+00
   11164,   -8.000000e+00,    1.757576e+01,    0.000000e+00
   11165,   -8.000000e+00,    1.878788e+01,    0.000000e+00
   11166,   -5.713434e+00,    1.878788e+01,   -2.015796e+00
   11167,   -7.639033e+00,    1.878788e+01,   -2.024699e+00
   11168,   -3.835050e+00,    1.878788e+01,   -2.141056e+00
   11169,   -1.907728e+00,    1.878788e+01,   -2.295649e+00
   11170,   -5.521504e+00,    1.878788e+01,   -3.990354e+00
   11171,   -7.208559e+00,    1.878788e+01,   -3.898144e+00
   11172,   -3.758587e+00,    1.878788e+01,   -4.291406e+00
   11173,   -1.904575e+00,    1.878788e+01,   -4.642807e+00
   11174,   -5.539967e+00,    1.878788e+01,   -5.836899e+00
   11175,   -6.830325e+00,    1.878788e+01,   -5.307483e+00
   11176,   -3.870860e+00,    1.878788e+01,   -6.487469e+00
   11177,   -1.975771e+00,    1.878788e+01,   -7.050566e+00
   11178,   -5.713434e+00,    1.757576e+01,   -2.015796e+00
   11179,   -7.639033e+00,    1.757576e+01,   -2.024699e+00
   11180,   -3.835050e+00,    1.757576e+01,   -2.141056e+00
   11181,   -1.907728e+00,    1.757576e+01,   -2.295649e+00
   11182,   -5.521504e+00,    1.757576e+01,   -3.990354e+00
   11183,   -7.208559e+00,    1.757576e+01,   -3.898144e+00
   11184,   -3.758587e+00,    1.757576e+01,   -4.291406e+00
   11185,   -1.904575e+00,    1.757576e+01,   -4.642807e+00
   11186,   -5.539967e+00,    1.757576e+01,   -5.836899e+00
   11187,   -6.830325e+00,    1.757576e+01,   -5.307483e+00
   11188,   -3.870860e+00,    1.757576e+01,   -6.487469e+00
   11189,   -1.975771e+00,    1.757576e+01,   -7.050566e+00
   11190,   -5.713434e+00,    1.636364e+01,   -2.015796e+00
   11191,   -7.639033e+00,    1.636364e+01,   -2.024699e+00
   11192,   -3.835050e+00,    1.636364e+01,   -2.141056e+00
   11193,   -1.907728e+00,    1.636364e+01,   -2.295649e+00
   11194,   -5.521504e+00,    1.636364e+01,   -3.990354e+00
   11195,   -7.208559e+00,    1.636364e+01,   -3.898144e+00
   11196,   -3.758587e+00,    1.636364e+01,   -4.291406e+00
   11197,   -1.904575e+00,    1.636364e+01,   -4.642807e+00
   11198,   -5.539967e+00,    1.636364e+01,   -5.836899e+00
   11199,   -6.830325e+00,    1.636364e+01,   -5.307483e+00
   11200,   -3.870860e+00,    1.636364e+01,   -6.487469e+00
   11201,   -1.975771e+00,    1.636364e+01,   -7.050566e+00
   11202,   -5.713434e+00,    1.515152e+01,   -2.015796e+00
   11203,   -7.639033e+00,    1.515152e+01,   -2.024699e+00
   11204,   -3.835050e+00,    1.515152e+01,   -2.141056e+00
   11205,   -1.907728e+00,    1.515152e+01,   -2.295649e+00
   11206,   -5.521504e+00,    1.515152e+01,   -3.990354e+00
   11207,   -7.208559e+00,    1.515152e+01,   -3.898144e+00
   11208,   -3.758587e+00,    1.515152e+01,   -4.291406e+00
   11209,   -1.904575e+00,    1.515152e+01,   -4.642807e+00
   11210,   -5.539967e+00,    1.515152e+01,   -5.836899e+00
   11211,   -6.830325e+00,    1.515152e+01,   -5.307483e+00
   11212,   -3.870860e+00,    1.515152e+01,   -6.487469e+00
   11213,   -1.975771e+00,    1.515152e+01,   -7.050566e+00
   11214,   -5.713434e+00,    1.393940e+01,   -2.015796e+00
   11215,   -7.639033e+00,    1.393940e+01,   -2.024699e+00
   11216,   -3.835050e+00,    1.393940e+01,   -2.141056e+00
   11217,   -1.907728e+00,    1.393940e+01,   -2.295649e+00
   11218,   -5.521504e+00,    1.393940e+01,   -3.990354e+00
   11219,   -7.208559e+00,    1.393940e+01,   -3.898144e+00
   11220,   -3.758587e+00,    1.393940e+01,   -4.291406e+00
   11221,   -1.904575e+00,    1.393940e+01,   -4.642807e+00
   11222,   -5.539967e+00,    1.393940e+01,   -5.836899e+00
   11223,   -6.830325e+00,    1.393940e+01,   -5.307483e+00
   11224,   -3.870860e+00,    1.393940e+01,   -6.487469e+00
   11225,   -1.975771e+00,    1.393940e+01,   -7.050566e+00
   11226,   -5.713434e+00,    1.272727e+01,   -2.015796e+00
   11227,   -7.639033e+00,    1.272727e+01,   -2.024699e+00
   11228,   -3.835050e+00,    1.272727e+01,   -2.141056e+00
   11229,   -1.907728e+00,    1.272727e+01,   -2.295649e+00
   11230,   -5.521504e+00,    1.272727e+01,   -3.990354e+00
   11231,   -7.208559e+00,    1.272727e+01,   -3.898144e+00
   11232,   -3.758587e+00,    1.272727e+01,   -4.291406e+00
   11233,   -1.904575e+00,    1.272727e+01,   -4.642807e+00
   11234,   -5.539967e+00,    1.272727e+01,   -5.836899e+00
   11235,   -6.830325e+00,    1.272727e+01,   -5.307483e+00
   11236,   -3.870860e+00,    1.272727e+01,   -6.487469e+00
   11237,   -1.975771e+00,    1.272727e+01,   -7.050566e+00
   11238,   -5.713434e+00,    1.151515e+01,   -2.015796e+00
   11239,   -7.639033e+00,    1.151515e+01,   -2.024699e+00
   11240,   -3.835050e+00,    1.151515e+01,   -2.141056e+00
   11241,   -1.907728e+00,    1.151515e+01,   -2.295649e+00
   11242,   -5.521504e+00,    1.151515e+01,   -3.990354e+00
   11243,   -7.208559e+00,    1.151515e+01,   -3.898144e+00
   11244,   -3.758587e+00,    1.151515e+01,   -4.291406e+00
   11245,   -1.904575e+00,    1.151515e+01,   -4.642807e+00
   11246,   -5.539967e+00,    1.151515e+01,   -5.836899e+00
   11247,   -6.830325e+00,    1.151515e+01,   -5.307483e+00
   11248,   -3.870860e+00,    1.151515e+01,   -6.487469e+00
   11249,   -1.975771e+00,    1.151515e+01,   -7.050566e+00
   11250,   -5.713434e+00,    1.030303e+01,   -2.015796e+00
   11251,   -7.639033e+00,    1.030303e+01,   -2.024699e+00
   11252,   -3.835050e+00,    1.030303e+01,   -2.141056e+00
   11253,   -1.907728e+00,    1.030303e+01,   -2.295649e+00
   11254,   -5.521504e+00,    1.030303e+01,   -3.990354e+00
   11255,   -7.208559e+00,    1.030303e+01,   -3.898144e+00
   11256,   -3.758587e+00,    1.030303e+01,   -4.291406e+00
   11257,   -1.904575e+00,    1.030303e+01,   -4.642807e+00
   11258,   -5.539967e+00,    1.030303e+01,   -5.836899e+00
   11259,   -6.830325e+00,    1.030303e+01,   -5.307483e+00
   11260,   -3.870860e+00,    1.030303e+01,   -6.487469e+00
   11261,   -1.975771e+00,    1.030303e+01,   -7.050566e+00
   11262,   -5.713434e+00,    9.090912e+00,   -2.015796e+00
   11263,   -7.639033e+00,    9.090912e+00,   -2.024699e+00
   11264,   -3.835050e+00,    9.090912e+00,   -2.141056e+00
   11265,   -1.907728e+00,    9.090912e+00,   -2.295649e+00
   11266,   -5.521504e+00,    9.090912e+00,   -3.990354e+00
   11267,   -7.208559e+00,    9.090912e+00,   -3.898144e+00
   11268,   -3.758587e+00,    9.090912e+00,   -4.291406e+00
   11269,   -1.904575e+00,    9.090912e+00,   -4.642807e+00
   11270,   -5.539967e+00,    9.090912e+00,   -5.836899e+00
   11271,   -6.830325e+00,    9.090912e+00,   -5.307483e+00
   11272,   -3.870860e+00,    9.090912e+00,   -6.487469e+00
   11273,   -1.975771e+00,    9.090912e+00,   -7.050566e+00
   11274,   -5.713434e+00,    7.878791e+00,   -2.015796e+00
   11275,   -7.639033e+00,    7.878791e+00,   -2.024699e+00
   11276,   -3.835050e+00,    7.878791e+00,   -2.141056e+00
   11277,   -1.907728e+00,    7.878791e+00,   -2.295649e+00
   11278,   -5.521504e+00,    7.878791e+00,   -3.990354e+00
   11279,   -7.208559e+00,    7.878791e+00,   -3.898144e+00
   11280,   -3.758587e+00,    7.878791e+00,   -4.291406e+00
   11281,   -1.904575e+00,    7.878791e+00,   -4.642807e+00
   11282,   -5.539967e+00,    7.878791e+00,   -5.836899e+00
   11283,   -6.830325e+00,    7.878791e+00,   -5.307483e+00
   11284,   -3.870860e+00,    7.878791e+00,   -6.487469e+00
   11285,   -1.975771e+00,    7.878791e+00,   -7.050566e+00
   11286,   -5.713434e+00,    6.666670e+00,   -2.015796e+00
   11287,   -7.639033e+00,    6.666670e+00,   -2.024699e+00
   11288,   -3.835050e+00,    6.666670e+00,   -2.141056e+00
   11289,   -1.907728e+00,    6.666670e+00,   -2.295649e+00
   11290,   -5.521504e+00,    6.666670e+00,   -3.990354e+00
   11291,   -7.208559e+00,    6.666670e+00,   -3.898144e+00
   11292,   -3.758587e+00,    6.666670e+00,   -4.291406e+00
   11293,   -1.904575e+00,    6.666670e+00,   -4.642807e+00
   11294,   -5.539967e+00,    6.666670e+00,   -5.836899e+00
   11295,   -6.830325e+00,    6.666670e+00,   -5.307483e+00
   11296,   -3.870860e+00,    6.666670e+00,   -6.487469e+00
   11297,   -1.975771e+00,    6.666670e+00,   -7.050566e+00
   11298,   -1.000000e+01,    0.000000e+00,   -2.394184e-15
   11299,   -9.749279e+00,    0.000000e+00,   -2.225209e+00
   11300,   -9.009689e+00,    0.000000e+00,   -4.338837e+00
   11301,   -7.818315e+00,    0.000000e+00,   -6.234898e+00
   11302,   -6.234898e+00,    0.000000e+00,   -7.818315e+00
   11303,   -4.338837e+00,    0.000000e+00,   -9.009689e+00
   11304,   -2.225209e+00,    0.000000e+00,   -9.749279e+00
   11305,   -1.000000e+01,    5.333336e+00,   -1.224647e-16
   11306,   -1.000000e+01,    4.000002e+00,   -4.082158e-17
   11307,   -1.000000e+01,    2.666668e+00,    4.082158e-17
   11308,   -1.000000e+01,    1.333334e+00,    1.224647e-16
   11309,   -2.225209e+00,    5.333336e+00,   -9.749279e+00
   11310,   -2.225209e+00,    4.000002e+00,   -9.749279e+00
   11311,   -2.225209e+00,    2.666668e+00,   -9.749279e+00
   11312,   -2.225209e+00,    1.333334e+00,   -9.749279e+00
   11313,   -4.338837e+00,    5.333336e+00,   -9.009689e+00
   11314,   -4.338837e+00,    4.000002e+00,   -9.009689e+00
   11315,   -4.338837e+00,    2.666668e+00,   -9.009689e+00
   11316,   -4.338837e+00,    1.333334e+00,   -9.009689e+00
   11317,   -6.234898e+00,    5.333336e+00,   -7.818315e+00
   11318,   -6.234898e+00,    4.000002e+00,   -7.818315e+00
   11319,   -6.234898e+00,    2.666668e+00,   -7.818315e+00
   11320,   -6.234898e+00,    1.333334e+00,   -7.818315e+00
   11321,   -7.818315e+00,    5.333336e+00,   -6.234898e+00
   11322,   -7.818315e+00,    4.000002e+00,   -6.234898e+00
   11323,   -7.818315e+00,    2.666668e+00,   -6.234898e+00
   11324,   -7.818315e+00,    1.333334e+00,   -6.234898e+00
   11325,   -9.009689e+00,    5.333336e+00,   -4.338837e+00
   11326,   -9.009689e+00,    4.000002e+00,   -4.338837e+00
   11327,   -9.009689e+00,    2.666668e+00,   -4.338837e+00
   11328,   -9.009689e+00,    1.333334e+00,   -4.338837e+00
   11329,   -9.749279e+00,    5.333336e+00,   -2.225209e+00
   11330,   -9.749279e+00,    4.000002e+00,   -2.225209e+00
   11331,   -9.749279e+00,    2.666668e+00,   -2.225209e+00
   11332,   -9.749279e+00,    1.333334e+00,   -2.225209e+00
   11333,   -2.000000e+00,    0.000000e+00,    0.000000e+00
   11334,   -4.000000e+00,    0.000000e+00,    0.000000e+00
   11335,   -6.000000e+00,    0.000000e+00,    0.000000e+00
   11336,   -8.000000e+00,    0.000000e+00,    0.000000e+00
   11337,   -2.000000e+00,    1.333334e+00,    0.000000e+00
   11338,   -2.000000e+00,    2.666668e+00,    0.000000e+00
   11339,   -2.000000e+00,    4.000002e+00,    0.000000e+00
   11340,   -2.000000e+00,    5.333336e+00,    0.000000e+00
   11341,   -4.000000e+00,    1.333334e+00,    0.000000e+00
   11342,   -4.000000e+00,    2.666668e+00,    0.000000e+00
   11343,   -4.000000e+00,    4.000002e+00,    0.000000e+00
   11344,   -4.000000e+00,    5.333336e+00,    0.000000e+00
   11345,   -6.000000e+00,    1.333334e+00,    0.000000e+00
   11346,   -6.000000e+00,    2.666668e+00,    0.000000e+00
   11347,   -6.000000e+00,    4.000002e+00,    0.000000e+00
   11348,   -6.000000e+00,    5.333336e+00,    0.000000e+00
   11349,   -8.000000e+00,    1.333334e+00,    0.000000e+00
   11350,   -8.000000e+00,    2.666668e+00,    0.000000e+00
   11351,   -8.000000e+00,    4.000002e+00,    0.000000e+00
   11352,   -8.000000e+00,    5.333336e+00,    0.000000e+00
   11353,   -7.639033e+00,    5.333336e+00,   -2.024699e+00
   11354,   -7.208559e+00,    5.333336e+00,   -3.898144e+00
   11355,   -6.830325e+00,    5.333336e+00,   -5.307483e+00
   11356,   -5.539967e+00,    5.333336e+00,   -5.836899e+00
   11357,   -3.870860e+00,    5.333336e+00,   -6.487469e+00
   11358,   -1.975771e+00,    5.333336e+00,   -7.050566e+00
   11359,   -1.904575e+00,    5.333336e+00,   -4.642807e+00
   11360,   -3.758587e+00,    5.333336e+00,   -4.291406e+00
   11361,   -5.521504e+00,    5.333336e+00,   -3.990354e+00
   11362,   -1.907728e+00,    5.333336e+00,   -2.295649e+00
   11363,   -3.835050e+00,    5.333336e+00,   -2.141056e+00
   11364,   -5.713434e+00,    5.333336e+00,   -2.015796e+00
   11365,   -7.639033e+00,    4.000002e+00,   -2.024699e+00
   11366,   -7.208559e+00,    4.000002e+00,   -3.898144e+00
   11367,   -6.830325e+00,    4.000002e+00,   -5.307483e+00
   11368,   -5.539967e+00,    4.000002e+00,   -5.836899e+00
   11369,   -3.870860e+00,    4.000002e+00,   -6.487469e+00
   11370,   -1.975771e+00,    4.000002e+00,   -7.050566e+00
   11371,   -1.904575e+00,    4.000002e+00,   -4.642807e+00
   11372,   -3.758587e+00,    4.000002e+00,   -4.291406e+00
   11373,   -5.521504e+00,    4.000002e+00,   -3.990354e+00
   11374,   -1.907728e+00,    4.000002e+00,   -2.295649e+00
   11375,   -3.835050e+00,    4.000002e+00,   -2.141056e+00
   11376,   -5.713434e+00,    4.000002e+00,   -2.015796e+00
   11377,   -7.639033e+00,    2.666668e+00,   -2.024699e+00
   11378,   -7.208559e+00,    2.666668e+00,   -3.898144e+00
   11379,   -6.830325e+00,    2.666668e+00,   -5.307483e+00
   11380,   -5.539967e+00,    2.666668e+00,   -5.836899e+00
   11381,   -3.870860e+00,    2.666668e+00,   -6.487469e+00
   11382,   -1.975771e+00,    2.666668e+00,   -7.050566e+00
   11383,   -1.904575e+00,    2.666668e+00,   -4.642807e+00
   11384,   -3.758587e+00,    2.666668e+00,   -4.291406e+00
   11385,   -5.521504e+00,    2.666668e+00,   -3.990354e+00
   11386,   -1.907728e+00,    2.666668e+00,   -2.295649e+00
   11387,   -3.835050e+00,    2.666668e+00,   -2.141056e+00
   11388,   -5.713434e+00,    2.666668e+00,   -2.015796e+00
   11389,   -7.639033e+00,    1.333334e+00,   -2.024699e+00
   11390,   -7.208559e+00,    1.333334e+00,   -3.898144e+00
   11391,   -6.830325e+00,    1.333334e+00,   -5.307483e+00
   11392,   -5.539967e+00,    1.333334e+00,   -5.836899e+00
   11393,   -3.870860e+00,    1.333334e+00,   -6.487469e+00
   11394,   -1.975771e+00,    1.333334e+00,   -7.050566e+00
   11395,   -1.904575e+00,    1.333334e+00,   -4.642807e+00
   11396,   -3.758587e+00,    1.333334e+00,   -4.291406e+00
   11397,   -5.521504e+00,    1.333334e+00,   -3.990354e+00
   11398,   -1.907728e+00,    1.333334e+00,   -2.295649e+00
   11399,   -3.835050e+00,    1.333334e+00,   -2.141056e+00
   11400,   -5.713434e+00,    1.333334e+00,   -2.015796e+00
   11401,   -7.639033e+00,    0.000000e+00,   -2.024699e+00
   11402,   -7.208559e+00,    0.000000e+00,   -3.898144e+00
   11403,   -6.830325e+00,    0.000000e+00,   -5.307483e+00
   11404,   -5.539967e+00,    0.000000e+00,   -5.836899e+00
   11405,   -3.870860e+00,    0.000000e+00,   -6.487469e+00
   11406,   -1.975771e+00,    0.000000e+00,   -7.050566e+00
   11407,   -1.904575e+00,    0.000000e+00,   -4.642807e+00
   11408,   -3.758587e+00,    0.000000e+00,   -4.291406e+00
   11409,   -5.521504e+00,    0.000000e+00,   -3.990354e+00
   11410,   -1.907728e+00,    0.000000e+00,   -2.295649e+00
   11411,   -3.835050e+00,    0.000000e+00,   -2.141056e+00
   11412,   -5.713434e+00,    0.000000e+00,   -2.015796e+00
   11413,   -1.000000e+01,   -8.000000e+01,    0.000000e+00
   11414,   -9.749279e+00,   -8.000000e+01,   -2.225209e+00
   11415,   -9.009689e+00,   -8.000000e+01,   -4.338837e+00
   11416,   -7.818315e+00,   -8.000000e+01,   -6.234898e+00
   11417,   -6.234898e+00,   -8.000000e+01,   -7.818315e+00
   11418,   -4.338837e+00,   -8.000000e+01,   -9.009689e+00
   11419,   -2.225209e+00,   -8.000000e+01,   -9.749279e+00
   11420,   -1.000000e+01,   -4.000000e+00,   -9.246083e-16
   11421,   -1.000000e+01,   -8.000000e+00,   -6.796790e-16
   11422,   -1.000000e+01,   -1.200000e+01,   -4.347496e-16
   11423,   -1.000000e+01,   -1.600000e+01,   -1.898203e-16
   11424,   -1.000000e+01,   -2.000000e+01,    5.510911e-17
   11425,   -1.000000e+01,   -2.400000e+01,    3.000385e-16
   11426,   -1.000000e+01,   -2.800000e+01,    5.449678e-16
   11427,   -1.000000e+01,   -3.200000e+01,    7.898972e-16
   11428,   -1.000000e+01,   -3.600000e+01,    1.034827e-15
   11429,   -1.000000e+01,   -4.000000e+01,    1.279756e-15
   11430,   -1.000000e+01,   -4.400000e+01,    1.524685e-15
   11431,   -1.000000e+01,   -4.800000e+01,    1.769615e-15
   11432,   -1.000000e+01,   -5.200000e+01,    2.014544e-15
   11433,   -1.000000e+01,   -5.600000e+01,    2.259473e-15
   11434,   -1.000000e+01,   -6.000000e+01,    2.504403e-15
   11435,   -1.000000e+01,   -6.400000e+01,    2.749332e-15
   11436,   -1.000000e+01,   -6.800000e+01,    2.994261e-15
   11437,   -1.000000e+01,   -7.200000e+01,    3.239191e-15
   11438,   -1.000000e+01,   -7.600000e+01,    3.484120e-15
   11439,   -2.225209e+00,   -4.000000e+00,   -9.749279e+00
   11440,   -2.225209e+00,   -8.000000e+00,   -9.749279e+00
   11441,   -2.225209e+00,   -1.200000e+01,   -9.749279e+00
   11442,   -2.225209e+00,   -1.600000e+01,   -9.749279e+00
   11443,   -2.225209e+00,   -2.000000e+01,   -9.749279e+00
   11444,   -2.225209e+00,   -2.400000e+01,   -9.749279e+00
   11445,   -2.225209e+00,   -2.800000e+01,   -9.749279e+00
   11446,   -2.225209e+00,   -3.200000e+01,   -9.749279e+00
   11447,   -2.225209e+00,   -3.600000e+01,   -9.749279e+00
   11448,   -2.225209e+00,   -4.000000e+01,   -9.749279e+00
   11449,   -2.225209e+00,   -4.400000e+01,   -9.749279e+00
   11450,   -2.225209e+00,   -4.800000e+01,   -9.749279e+00
   11451,   -2.225209e+00,   -5.200000e+01,   -9.749279e+00
   11452,   -2.225209e+00,   -5.600000e+01,   -9.749279e+00
   11453,   -2.225209e+00,   -6.000000e+01,   -9.749279e+00
   11454,   -2.225209e+00,   -6.400000e+01,   -9.749279e+00
   11455,   -2.225209e+00,   -6.800000e+01,   -9.749279e+00
   11456,   -2.225209e+00,   -7.200000e+01,   -9.749279e+00
   11457,   -2.225209e+00,   -7.600000e+01,   -9.749279e+00
   11458,   -4.338837e+00,   -4.000000e+00,   -9.009689e+00
   11459,   -4.338837e+00,   -8.000000e+00,   -9.009689e+00
   11460,   -4.338837e+00,   -1.200000e+01,   -9.009689e+00
   11461,   -4.338837e+00,   -1.600000e+01,   -9.009689e+00
   11462,   -4.338837e+00,   -2.000000e+01,   -9.009689e+00
   11463,   -4.338837e+00,   -2.400000e+01,   -9.009689e+00
   11464,   -4.338837e+00,   -2.800000e+01,   -9.009689e+00
   11465,   -4.338837e+00,   -3.200000e+01,   -9.009689e+00
   11466,   -4.338837e+00,   -3.600000e+01,   -9.009689e+00
   11467,   -4.338837e+00,   -4.000000e+01,   -9.009689e+00
   11468,   -4.338837e+00,   -4.400000e+01,   -9.009689e+00
   11469,   -4.338837e+00,   -4.800000e+01,   -9.009689e+00
   11470,   -4.338837e+00,   -5.200000e+01,   -9.009689e+00
   11471,   -4.338837e+00,   -5.600000e+01,   -9.009689e+00
   11472,   -4.338837e+00,   -6.000000e+01,   -9.009689e+00
   11473,   -4.338837e+00,   -6.400000e+01,   -9.009689e+00
   11474,   -4.338837e+00,   -6.800000e+01,   -9.009689e+00
   11475,   -4.338837e+00,   -7.200000e+01,   -9.009689e+00
   11476,   -4.338837e+00,   -7.600000e+01,   -9.009689e+00
   11477,   -6.234898e+00,   -4.000000e+00,   -7.818315e+00
   11478,   -6.234898e+00,   -8.000000e+00,   -7.818315e+00
   11479,   -6.234898e+00,   -1.200000e+01,   -7.818315e+00
   11480,   -6.234898e+00,   -1.600000e+01,   -7.818315e+00
   11481,   -6.234898e+00,   -2.000000e+01,   -7.818315e+00
   11482,   -6.234898e+00,   -2.400000e+01,   -7.818315e+00
   11483,   -6.234898e+00,   -2.800000e+01,   -7.818315e+00
   11484,   -6.234898e+00,   -3.200000e+01,   -7.818315e+00
   11485,   -6.234898e+00,   -3.600000e+01,   -7.818315e+00
   11486,   -6.234898e+00,   -4.000000e+01,   -7.818315e+00
   11487,   -6.234898e+00,   -4.400000e+01,   -7.818315e+00
   11488,   -6.234898e+00,   -4.800000e+01,   -7.818315e+00
   11489,   -6.234898e+00,   -5.200000e+01,   -7.818315e+00
   11490,   -6.234898e+00,   -5.600000e+01,   -7.818315e+00
   11491,   -6.234898e+00,   -6.000000e+01,   -7.818315e+00
   11492,   -6.234898e+00,   -6.400000e+01,   -7.818315e+00
   11493,   -6.234898e+00,   -6.800000e+01,   -7.818315e+00
   11494,   -6.234898e+00,   -7.200000e+01,   -7.818315e+00
   11495,   -6.234898e+00,   -7.600000e+01,   -7.818315e+00
   11496,   -7.818315e+00,   -4.000000e+00,   -6.234898e+00
   11497,   -7.818315e+00,   -8.000000e+00,   -6.234898e+00
   11498,   -7.818315e+00,   -1.200000e+01,   -6.234898e+00
   11499,   -7.818315e+00,   -1.600000e+01,   -6.234898e+00
   11500,   -7.818315e+00,   -2.000000e+01,   -6.234898e+00
   11501,   -7.818315e+00,   -2.400000e+01,   -6.234898e+00
   11502,   -7.818315e+00,   -2.800000e+01,   -6.234898e+00
   11503,   -7.818315e+00,   -3.200000e+01,   -6.234898e+00
   11504,   -7.818315e+00,   -3.600000e+01,   -6.234898e+00
   11505,   -7.818315e+00,   -4.000000e+01,   -6.234898e+00
   11506,   -7.818315e+00,   -4.400000e+01,   -6.234898e+00
   11507,   -7.818315e+00,   -4.800000e+01,   -6.234898e+00
   11508,   -7.818315e+00,   -5.200000e+01,   -6.234898e+00
   11509,   -7.818315e+00,   -5.600000e+01,   -6.234898e+00
   11510,   -7.818315e+00,   -6.000000e+01,   -6.234898e+00
   11511,   -7.818315e+00,   -6.400000e+01,   -6.234898e+00
   11512,   -7.818315e+00,   -6.800000e+01,   -6.234898e+00
   11513,   -7.818315e+00,   -7.200000e+01,   -6.234898e+00
   11514,   -7.818315e+00,   -7.600000e+01,   -6.234898e+00
   11515,   -9.009689e+00,   -4.000000e+00,   -4.338837e+00
   11516,   -9.009689e+00,   -8.000000e+00,   -4.338837e+00
   11517,   -9.009689e+00,   -1.200000e+01,   -4.338837e+00
   11518,   -9.009689e+00,   -1.600000e+01,   -4.338837e+00
   11519,   -9.009689e+00,   -2.000000e+01,   -4.338837e+00
   11520,   -9.009689e+00,   -2.400000e+01,   -4.338837e+00
   11521,   -9.009689e+00,   -2.800000e+01,   -4.338837e+00
   11522,   -9.009689e+00,   -3.200000e+01,   -4.338837e+00
   11523,   -9.009689e+00,   -3.600000e+01,   -4.338837e+00
   11524,   -9.009689e+00,   -4.000000e+01,   -4.338837e+00
   11525,   -9.009689e+00,   -4.400000e+01,   -4.338837e+00
   11526,   -9.009689e+00,   -4.800000e+01,   -4.338837e+00
   11527,   -9.009689e+00,   -5.200000e+01,   -4.338837e+00
   11528,   -9.009689e+00,   -5.600000e+01,   -4.338837e+00
   11529,   -9.009689e+00,   -6.000000e+01,   -4.338837e+00
   11530,   -9.009689e+00,   -6.400000e+01,   -4.338837e+00
   11531,   -9.009689e+00,   -6.800000e+01,   -4.338837e+00
   11532,   -9.009689e+00,   -7.200000e+01,   -4.338837e+00
   11533,   -9.009689e+00,   -7.600000e+01,   -4.338837e+00
   11534,   -9.749279e+00,   -4.000000e+00,   -2.225209e+00
   11535,   -9.749279e+00,   -8.000000e+00,   -2.225209e+00
   11536,   -9.749279e+00,   -1.200000e+01,   -2.225209e+00
   11537,   -9.749279e+00,   -1.600000e+01,   -2.225209e+00
   11538,   -9.749279e+00,   -2.000000e+01,   -2.225209e+00
   11539,   -9.749279e+00,   -2.400000e+01,   -2.225209e+00
   11540,   -9.749279e+00,   -2.800000e+01,   -2.225209e+00
   11541,   -9.749279e+00,   -3.200000e+01,   -2.225209e+00
   11542,   -9.749279e+00,   -3.600000e+01,   -2.225209e+00
   11543,   -9.749279e+00,   -4.000000e+01,   -2.225209e+00
   11544,   -9.749279e+00,   -4.400000e+01,   -2.225209e+00
   11545,   -9.749279e+00,   -4.800000e+01,   -2.225209e+00
   11546,   -9.749279e+00,   -5.200000e+01,   -2.225209e+00
   11547,   -9.749279e+00,   -5.600000e+01,   -2.225209e+00
   11548,   -9.749279e+00,   -6.000000e+01,   -2.225209e+00
   11549,   -9.749279e+00,   -6.400000e+01,   -2.225209e+00
   11550,   -9.749279e+00,   -6.800000e+01,   -2.225209e+00
   11551,   -9.749279e+00,   -7.200000e+01,   -2.225209e+00
   11552,   -9.749279e+00,   -7.600000e+01,   -2.225209e+00
   11553,   -8.000000e+00,   -8.000000e+01,    0.000000e+00
   11554,   -6.000000e+00,   -8.000000e+01,    0.000000e+00
   11555,   -4.000000e+00,   -8.000000e+01,    0.000000e+00
   11556,   -2.000000e+00,   -8.000000e+01,    0.000000e+00
   11557,   -2.000000e+00,   -7.600000e+01,    0.000000e+00
   11558,   -2.000000e+00,   -7.200000e+01,    0.000000e+00
   11559,   -2.000000e+00,   -6.800000e+01,    0.000000e+00
   11560,   -2.000000e+00,   -6.400000e+01,    0.000000e+00
   11561,   -2.000000e+00,   -6.000000e+01,    0.000000e+00
   11562,   -2.000000e+00,   -5.600000e+01,    0.000000e+00
   11563,   -2.000000e+00,   -5.200000e+01,    0.000000e+00
   11564,   -2.000000e+00,   -4.800000e+01,    0.000000e+00
   11565,   -2.000000e+00,   -4.400000e+01,    0.000000e+00
   11566,   -2.000000e+00,   -4.000000e+01,    0.000000e+00
   11567,   -2.000000e+00,   -3.600000e+01,    0.000000e+00
   11568,   -2.000000e+00,   -3.200000e+01,    0.000000e+00
   11569,   -2.000000e+00,   -2.800000e+01,    0.000000e+00
   11570,   -2.000000e+00,   -2.400000e+01,    0.000000e+00
   11571,   -2.000000e+00,   -2.000000e+01,    0.000000e+00
   11572,   -2.000000e+00,   -1.600000e+01,    0.000000e+00
   11573,   -2.000000e+00,   -1.200000e+01,    0.000000e+00
   11574,   -2.000000e+00,   -8.000000e+00,    0.000000e+00
   11575,   -2.000000e+00,   -4.000000e+00,    0.000000e+00
   11576,   -4.000000e+00,   -7.600000e+01,    0.000000e+00
   11577,   -4.000000e+00,   -7.200000e+01,    0.000000e+00
   11578,   -4.000000e+00,   -6.800000e+01,    0.000000e+00
   11579,   -4.000000e+00,   -6.400000e+01,    0.000000e+00
   11580,   -4.000000e+00,   -6.000000e+01,    0.000000e+00
   11581,   -4.000000e+00,   -5.600000e+01,    0.000000e+00
   11582,   -4.000000e+00,   -5.200000e+01,    0.000000e+00
   11583,   -4.000000e+00,   -4.800000e+01,    0.000000e+00
   11584,   -4.000000e+00,   -4.400000e+01,    0.000000e+00
   11585,   -4.000000e+00,   -4.000000e+01,    0.000000e+00
   11586,   -4.000000e+00,   -3.600000e+01,    0.000000e+00
   11587,   -4.000000e+00,   -3.200000e+01,    0.000000e+00
   11588,   -4.000000e+00,   -2.800000e+01,    0.000000e+00
   11589,   -4.000000e+00,   -2.400000e+01,    0.000000e+00
   11590,   -4.000000e+00,   -2.000000e+01,    0.000000e+00
   11591,   -4.000000e+00,   -1.600000e+01,    0.000000e+00
   11592,   -4.000000e+00,   -1.200000e+01,    0.000000e+00
   11593,   -4.000000e+00,   -8.000000e+00,    0.000000e+00
   11594,   -4.000000e+00,   -4.000000e+00,    0.000000e+00
   11595,   -6.000000e+00,   -7.600000e+01,    0.000000e+00
   11596,   -6.000000e+00,   -7.200000e+01,    0.000000e+00
   11597,   -6.000000e+00,   -6.800000e+01,    0.000000e+00
   11598,   -6.000000e+00,   -6.400000e+01,    0.000000e+00
   11599,   -6.000000e+00,   -6.000000e+01,    0.000000e+00
   11600,   -6.000000e+00,   -5.600000e+01,    0.000000e+00
   11601,   -6.000000e+00,   -5.200000e+01,    0.000000e+00
   11602,   -6.000000e+00,   -4.800000e+01,    0.000000e+00
   11603,   -6.000000e+00,   -4.400000e+01,    0.000000e+00
   11604,   -6.000000e+00,   -4.000000e+01,    0.000000e+00
   11605,   -6.000000e+00,   -3.600000e+01,    0.000000e+00
   11606,   -6.000000e+00,   -3.200000e+01,    0.000000e+00
   11607,   -6.000000e+00,   -2.800000e+01,    0.000000e+00
   11608,   -6.000000e+00,   -2.400000e+01,    0.000000e+00
   11609,   -6.000000e+00,   -2.000000e+01,    0.000000e+00
   11610,   -6.000000e+00,   -1.600000e+01,    0.000000e+00
   11611,   -6.000000e+00,   -1.200000e+01,    0.000000e+00
   11612,   -6.000000e+00,   -8.000000e+00,    0.000000e+00
   11613,   -6.000000e+00,   -4.000000e+00,    0.000000e+00
   11614,   -8.000000e+00,   -7.600000e+01,    0.000000e+00
   11615,   -8.000000e+00,   -7.200000e+01,    0.000000e+00
   11616,   -8.000000e+00,   -6.800000e+01,    0.000000e+00
   11617,   -8.000000e+00,   -6.400000e+01,    0.000000e+00
   11618,   -8.000000e+00,   -6.000000e+01,    0.000000e+00
   11619,   -8.000000e+00,   -5.600000e+01,    0.000000e+00
   11620,   -8.000000e+00,   -5.200000e+01,    0.000000e+00
   11621,   -8.000000e+00,   -4.800000e+01,    0.000000e+00
   11622,   -8.000000e+00,   -4.400000e+01,    0.000000e+00
   11623,   -8.000000e+00,   -4.000000e+01,    0.000000e+00
   11624,   -8.000000e+00,   -3.600000e+01,    0.000000e+00
   11625,   -8.000000e+00,   -3.200000e+01,    0.000000e+00
   11626,   -8.000000e+00,   -2.800000e+01,    0.000000e+00
   11627,   -8.000000e+00,   -2.400000e+01,    0.000000e+00
   11628,   -8.000000e+00,   -2.000000e+01,    0.000000e+00
   11629,   -8.000000e+00,   -1.600000e+01,    0.000000e+00
   11630,   -8.000000e+00,   -1.200000e+01,    0.000000e+00
   11631,   -8.000000e+00,   -8.000000e+00,    0.000000e+00
   11632,   -8.000000e+00,   -4.000000e+00,    0.000000e+00
   11633,   -5.713434e+00,   -4.000000e+00,   -2.015796e+00
   11634,   -7.639033e+00,   -4.000000e+00,   -2.024699e+00
   11635,   -3.835050e+00,   -4.000000e+00,   -2.141056e+00
   11636,   -1.907728e+00,   -4.000000e+00,   -2.295649e+00
   11637,   -5.521504e+00,   -4.000000e+00,   -3.990354e+00
   11638,   -7.208559e+00,   -4.000000e+00,   -3.898144e+00
   11639,   -3.758587e+00,   -4.000000e+00,   -4.291406e+00
   11640,   -1.904575e+00,   -4.000000e+00,   -4.642807e+00
   11641,   -5.539967e+00,   -4.000000e+00,   -5.836899e+00
   11642,   -6.830325e+00,   -4.000000e+00,   -5.307483e+00
   11643,   -3.870860e+00,   -4.000000e+00,   -6.487469e+00
   11644,   -1.975771e+00,   -4.000000e+00,   -7.050566e+00
   11645,   -5.713434e+00,   -8.000000e+00,   -2.015796e+00
   11646,   -7.639033e+00,   -8.000000e+00,   -2.024699e+00
   11647,   -3.835050e+00,   -8.000000e+00,   -2.141056e+00
   11648,   -1.907728e+00,   -8.000000e+00,   -2.295649e+00
   11649,   -5.521504e+00,   -8.000000e+00,   -3.990354e+00
   11650,   -7.208559e+00,   -8.000000e+00,   -3.898144e+00
   11651,   -3.758587e+00,   -8.000000e+00,   -4.291406e+00
   11652,   -1.904575e+00,   -8.000000e+00,   -4.642807e+00
   11653,   -5.539967e+00,   -8.000000e+00,   -5.836899e+00
   11654,   -6.830325e+00,   -8.000000e+00,   -5.307483e+00
   11655,   -3.870860e+00,   -8.000000e+00,   -6.487469e+00
   11656,   -1.975771e+00,   -8.000000e+00,   -7.050566e+00
   11657,   -5.713434e+00,   -1.200000e+01,   -2.015796e+00
   11658,   -7.639033e+00,   -1.200000e+01,   -2.024699e+00
   11659,   -3.835050e+00,   -1.200000e+01,   -2.141056e+00
   11660,   -1.907728e+00,   -1.200000e+01,   -2.295649e+00
   11661,   -5.521504e+00,   -1.200000e+01,   -3.990354e+00
   11662,   -7.208559e+00,   -1.200000e+01,   -3.898144e+00
   11663,   -3.758587e+00,   -1.200000e+01,   -4.291406e+00
   11664,   -1.904575e+00,   -1.200000e+01,   -4.642807e+00
   11665,   -5.539967e+00,   -1.200000e+01,   -5.836899e+00
   11666,   -6.830325e+00,   -1.200000e+01,   -5.307483e+00
   11667,   -3.870860e+00,   -1.200000e+01,   -6.487469e+00
   11668,   -1.975771e+00,   -1.200000e+01,   -7.050566e+00
   11669,   -5.713434e+00,   -1.600000e+01,   -2.015796e+00
   11670,   -7.639033e+00,   -1.600000e+01,   -2.024699e+00
   11671,   -3.835050e+00,   -1.600000e+01,   -2.141056e+00
   11672,   -1.907728e+00,   -1.600000e+01,   -2.295649e+00
   11673,   -5.521504e+00,   -1.600000e+01,   -3.990354e+00
   11674,   -7.208559e+00,   -1.600000e+01,   -3.898144e+00
   11675,   -3.758587e+00,   -1.600000e+01,   -4.291406e+00
   11676,   -1.904575e+00,   -1.600000e+01,   -4.642807e+00
   11677,   -5.539967e+00,   -1.600000e+01,   -5.836899e+00
   11678,   -6.830325e+00,   -1.600000e+01,   -5.307483e+00
   11679,   -3.870860e+00,   -1.600000e+01,   -6.487469e+00
   11680,   -1.975771e+00,   -1.600000e+01,   -7.050566e+00
   11681,   -5.713434e+00,   -2.000000e+01,   -2.015796e+00
   11682,   -7.639033e+00,   -2.000000e+01,   -2.024699e+00
   11683,   -3.835050e+00,   -2.000000e+01,   -2.141056e+00
   11684,   -1.907728e+00,   -2.000000e+01,   -2.295649e+00
   11685,   -5.521504e+00,   -2.000000e+01,   -3.990354e+00
   11686,   -7.208559e+00,   -2.000000e+01,   -3.898144e+00
   11687,   -3.758587e+00,   -2.000000e+01,   -4.291406e+00
   11688,   -1.904575e+00,   -2.000000e+01,   -4.642807e+00
   11689,   -5.539967e+00,   -2.000000e+01,   -5.836899e+00
   11690,   -6.830325e+00,   -2.000000e+01,   -5.307483e+00
   11691,   -3.870860e+00,   -2.000000e+01,   -6.487469e+00
   11692,   -1.975771e+00,   -2.000000e+01,   -7.050566e+00
   11693,   -5.713434e+00,   -2.400000e+01,   -2.015796e+00
   11694,   -7.639033e+00,   -2.400000e+01,   -2.024699e+00
   11695,   -3.835050e+00,   -2.400000e+01,   -2.141056e+00
   11696,   -1.907728e+00,   -2.400000e+01,   -2.295649e+00
   11697,   -5.521504e+00,   -2.400000e+01,   -3.990354e+00
   11698,   -7.208559e+00,   -2.400000e+01,   -3.898144e+00
   11699,   -3.758587e+00,   -2.400000e+01,   -4.291406e+00
   11700,   -1.904575e+00,   -2.400000e+01,   -4.642807e+00
   11701,   -5.539967e+00,   -2.400000e+01,   -5.836899e+00
   11702,   -6.830325e+00,   -2.400000e+01,   -5.307483e+00
   11703,   -3.870860e+00,   -2.400000e+01,   -6.487469e+00
   11704,   -1.975771e+00,   -2.400000e+01,   -7.050566e+00
   11705,   -5.713434e+00,   -2.800000e+01,   -2.015796e+00
   11706,   -7.639033e+00,   -2.800000e+01,   -2.024699e+00
   11707,   -3.835050e+00,   -2.800000e+01,   -2.141056e+00
   11708,   -1.907728e+00,   -2.800000e+01,   -2.295649e+00
   11709,   -5.521504e+00,   -2.800000e+01,   -3.990354e+00
   11710,   -7.208559e+00,   -2.800000e+01,   -3.898144e+00
   11711,   -3.758587e+00,   -2.800000e+01,   -4.291406e+00
   11712,   -1.904575e+00,   -2.800000e+01,   -4.642807e+00
   11713,   -5.539967e+00,   -2.800000e+01,   -5.836899e+00
   11714,   -6.830325e+00,   -2.800000e+01,   -5.307483e+00
   11715,   -3.870860e+00,   -2.800000e+01,   -6.487469e+00
   11716,   -1.975771e+00,   -2.800000e+01,   -7.050566e+00
   11717,   -5.713434e+00,   -3.200000e+01,   -2.015796e+00
   11718,   -7.639033e+00,   -3.200000e+01,   -2.024699e+00
   11719,   -3.835050e+00,   -3.200000e+01,   -2.141056e+00
   11720,   -1.907728e+00,   -3.200000e+01,   -2.295649e+00
   11721,   -5.521504e+00,   -3.200000e+01,   -3.990354e+00
   11722,   -7.208559e+00,   -3.200000e+01,   -3.898144e+00
   11723,   -3.758587e+00,   -3.200000e+01,   -4.291406e+00
   11724,   -1.904575e+00,   -3.200000e+01,   -4.642807e+00
   11725,   -5.539967e+00,   -3.200000e+01,   -5.836899e+00
   11726,   -6.830325e+00,   -3.200000e+01,   -5.307483e+00
   11727,   -3.870860e+00,   -3.200000e+01,   -6.487469e+00
   11728,   -1.975771e+00,   -3.200000e+01,   -7.050566e+00
   11729,   -5.713434e+00,   -3.600000e+01,   -2.015796e+00
   11730,   -7.639033e+00,   -3.600000e+01,   -2.024699e+00
   11731,   -3.835050e+00,   -3.600000e+01,   -2.141056e+00
   11732,   -1.907728e+00,   -3.600000e+01,   -2.295649e+00
   11733,   -5.521504e+00,   -3.600000e+01,   -3.990354e+00
   11734,   -7.208559e+00,   -3.600000e+01,   -3.898144e+00
   11735,   -3.758587e+00,   -3.600000e+01,   -4.291406e+00
   11736,   -1.904575e+00,   -3.600000e+01,   -4.642807e+00
   11737,   -5.539967e+00,   -3.600000e+01,   -5.836899e+00
   11738,   -6.830325e+00,   -3.600000e+01,   -5.307483e+00
   11739,   -3.870860e+00,   -3.600000e+01,   -6.487469e+00
   11740,   -1.975771e+00,   -3.600000e+01,   -7.050566e+00
   11741,   -5.713434e+00,   -4.000000e+01,   -2.015796e+00
   11742,   -7.639033e+00,   -4.000000e+01,   -2.024699e+00
   11743,   -3.835050e+00,   -4.000000e+01,   -2.141056e+00
   11744,   -1.907728e+00,   -4.000000e+01,   -2.295649e+00
   11745,   -5.521504e+00,   -4.000000e+01,   -3.990354e+00
   11746,   -7.208559e+00,   -4.000000e+01,   -3.898144e+00
   11747,   -3.758587e+00,   -4.000000e+01,   -4.291406e+00
   11748,   -1.904575e+00,   -4.000000e+01,   -4.642807e+00
   11749,   -5.539967e+00,   -4.000000e+01,   -5.836899e+00
   11750,   -6.830325e+00,   -4.000000e+01,   -5.307483e+00
   11751,   -3.870860e+00,   -4.000000e+01,   -6.487469e+00
   11752,   -1.975771e+00,   -4.000000e+01,   -7.050566e+00
   11753,   -5.713434e+00,   -4.400000e+01,   -2.015796e+00
   11754,   -7.639033e+00,   -4.400000e+01,   -2.024699e+00
   11755,   -3.835050e+00,   -4.400000e+01,   -2.141056e+00
   11756,   -1.907728e+00,   -4.400000e+01,   -2.295649e+00
   11757,   -5.521504e+00,   -4.400000e+01,   -3.990354e+00
   11758,   -7.208559e+00,   -4.400000e+01,   -3.898144e+00
   11759,   -3.758587e+00,   -4.400000e+01,   -4.291406e+00
   11760,   -1.904575e+00,   -4.400000e+01,   -4.642807e+00
   11761,   -5.539967e+00,   -4.400000e+01,   -5.836899e+00
   11762,   -6.830325e+00,   -4.400000e+01,   -5.307483e+00
   11763,   -3.870860e+00,   -4.400000e+01,   -6.487469e+00
   11764,   -1.975771e+00,   -4.400000e+01,   -7.050566e+00
   11765,   -5.713434e+00,   -4.800000e+01,   -2.015796e+00
   11766,   -7.639033e+00,   -4.800000e+01,   -2.024699e+00
   11767,   -3.835050e+00,   -4.800000e+01,   -2.141056e+00
   11768,   -1.907728e+00,   -4.800000e+01,   -2.295649e+00
   11769,   -5.521504e+00,   -4.800000e+01,   -3.990354e+00
   11770,   -7.208559e+00,   -4.800000e+01,   -3.898144e+00
   11771,   -3.758587e+00,   -4.800000e+01,   -4.291406e+00
   11772,   -1.904575e+00,   -4.800000e+01,   -4.642807e+00
   11773,   -5.539967e+00,   -4.800000e+01,   -5.836899e+00
   11774,   -6.830325e+00,   -4.800000e+01,   -5.307483e+00
   11775,   -3.870860e+00,   -4.800000e+01,   -6.487469e+00
   11776,   -1.975771e+00,   -4.800000e+01,   -7.050566e+00
   11777,   -5.713434e+00,   -5.200000e+01,   -2.015796e+00
   11778,   -7.639033e+00,   -5.200000e+01,   -2.024699e+00
   11779,   -3.835050e+00,   -5.200000e+01,   -2.141056e+00
   11780,   -1.907728e+00,   -5.200000e+01,   -2.295649e+00
   11781,   -5.521504e+00,   -5.200000e+01,   -3.990354e+00
   11782,   -7.208559e+00,   -5.200000e+01,   -3.898144e+00
   11783,   -3.758587e+00,   -5.200000e+01,   -4.291406e+00
   11784,   -1.904575e+00,   -5.200000e+01,   -4.642807e+00
   11785,   -5.539967e+00,   -5.200000e+01,   -5.836899e+00
   11786,   -6.830325e+00,   -5.200000e+01,   -5.307483e+00
   11787,   -3.870860e+00,   -5.200000e+01,   -6.487469e+00
   11788,   -1.975771e+00,   -5.200000e+01,   -7.050566e+00
   11789,   -5.713434e+00,   -5.600000e+01,   -2.015796e+00
   11790,   -7.639033e+00,   -5.600000e+01,   -2.024699e+00
   11791,   -3.835050e+00,   -5.600000e+01,   -2.141056e+00
   11792,   -1.907728e+00,   -5.600000e+01,   -2.295649e+00
   11793,   -5.521504e+00,   -5.600000e+01,   -3.990354e+00
   11794,   -7.208559e+00,   -5.600000e+01,   -3.898144e+00
   11795,   -3.758587e+00,   -5.600000e+01,   -4.291406e+00
   11796,   -1.904575e+00,   -5.600000e+01,   -4.642807e+00
   11797,   -5.539967e+00,   -5.600000e+01,   -5.836899e+00
   11798,   -6.830325e+00,   -5.600000e+01,   -5.307483e+00
   11799,   -3.870860e+00,   -5.600000e+01,   -6.487469e+00
   11800,   -1.975771e+00,   -5.600000e+01,   -7.050566e+00
   11801,   -5.713434e+00,   -6.000000e+01,   -2.015796e+00
   11802,   -7.639033e+00,   -6.000000e+01,   -2.024699e+00
   11803,   -3.835050e+00,   -6.000000e+01,   -2.141056e+00
   11804,   -1.907728e+00,   -6.000000e+01,   -2.295649e+00
   11805,   -5.521504e+00,   -6.000000e+01,   -3.990354e+00
   11806,   -7.208559e+00,   -6.000000e+01,   -3.898144e+00
   11807,   -3.758587e+00,   -6.000000e+01,   -4.291406e+00
   11808,   -1.904575e+00,   -6.000000e+01,   -4.642807e+00
   11809,   -5.539967e+00,   -6.000000e+01,   -5.836899e+00
   11810,   -6.830325e+00,   -6.000000e+01,   -5.307483e+00
   11811,   -3.870860e+00,   -6.000000e+01,   -6.487469e+00
   11812,   -1.975771e+00,   -6.000000e+01,   -7.050566e+00
   11813,   -5.713434e+00,   -6.400000e+01,   -2.015796e+00
   11814,   -7.639033e+00,   -6.400000e+01,   -2.024699e+00
   11815,   -3.835050e+00,   -6.400000e+01,   -2.141056e+00
   11816,   -1.907728e+00,   -6.400000e+01,   -2.295649e+00
   11817,   -5.521504e+00,   -6.400000e+01,   -3.990354e+00
   11818,   -7.208559e+00,   -6.400000e+01,   -3.898144e+00
   11819,   -3.758587e+00,   -6.400000e+01,   -4.291406e+00
   11820,   -1.904575e+00,   -6.400000e+01,   -4.642807e+00
   11821,   -5.539967e+00,   -6.400000e+01,   -5.836899e+00
   11822,   -6.830325e+00,   -6.400000e+01,   -5.307483e+00
   11823,   -3.870860e+00,   -6.400000e+01,   -6.487469e+00
   11824,   -1.975771e+00,   -6.400000e+01,   -7.050566e+00
   11825,   -5.713434e+00,   -6.800000e+01,   -2.015796e+00
   11826,   -7.639033e+00,   -6.800000e+01,   -2.024699e+00
   11827,   -3.835050e+00,   -6.800000e+01,   -2.141056e+00
   11828,   -1.907728e+00,   -6.800000e+01,   -2.295649e+00
   11829,   -5.521504e+00,   -6.800000e+01,   -3.990354e+00
   11830,   -7.208559e+00,   -6.800000e+01,   -3.898144e+00
   11831,   -3.758587e+00,   -6.800000e+01,   -4.291406e+00
   11832,   -1.904575e+00,   -6.800000e+01,   -4.642807e+00
   11833,   -5.539967e+00,   -6.800000e+01,   -5.836899e+00
   11834,   -6.830325e+00,   -6.800000e+01,   -5.307483e+00
   11835,   -3.870860e+00,   -6.800000e+01,   -6.487469e+00
   11836,   -1.975771e+00,   -6.800000e+01,   -7.050566e+00
   11837,   -5.713434e+00,   -7.200000e+01,   -2.015796e+00
   11838,   -7.639033e+00,   -7.200000e+01,   -2.024699e+00
   11839,   -3.835050e+00,   -7.200000e+01,   -2.141056e+00
   11840,   -1.907728e+00,   -7.200000e+01,   -2.295649e+00
   11841,   -5.521504e+00,   -7.200000e+01,   -3.990354e+00
   11842,   -7.208559e+00,   -7.200000e+01,   -3.898144e+00
   11843,   -3.758587e+00,   -7.200000e+01,   -4.291406e+00
   11844,   -1.904575e+00,   -7.200000e+01,   -4.642807e+00
   11845,   -5.539967e+00,   -7.200000e+01,   -5.836899e+00
   11846,   -6.830325e+00,   -7.200000e+01,   -5.307483e+00
   11847,   -3.870860e+00,   -7.200000e+01,   -6.487469e+00
   11848,   -1.975771e+00,   -7.200000e+01,   -7.050566e+00
   11849,   -5.713434e+00,   -7.600000e+01,   -2.015796e+00
   11850,   -7.639033e+00,   -7.600000e+01,   -2.024699e+00
   11851,   -3.835050e+00,   -7.600000e+01,   -2.141056e+00
   11852,   -1.907728e+00,   -7.600000e+01,   -2.295649e+00
   11853,   -5.521504e+00,   -7.600000e+01,   -3.990354e+00
   11854,   -7.208559e+00,   -7.600000e+01,   -3.898144e+00
   11855,   -3.758587e+00,   -7.600000e+01,   -4.291406e+00
   11856,   -1.904575e+00,   -7.600000e+01,   -4.642807e+00
   11857,   -5.539967e+00,   -7.600000e+01,   -5.836899e+00
   11858,   -6.830325e+00,   -7.600000e+01,   -5.307483e+00
   11859,   -3.870860e+00,   -7.600000e+01,   -6.487469e+00
   11860,   -1.975771e+00,   -7.600000e+01,   -7.050566e+00
   11861,   -5.713434e+00,   -8.000000e+01,   -2.015796e+00
   11862,   -7.639033e+00,   -8.000000e+01,   -2.024699e+00
   11863,   -3.835050e+00,   -8.000000e+01,   -2.141056e+00
   11864,   -1.907728e+00,   -8.000000e+01,   -2.295649e+00
   11865,   -5.521504e+00,   -8.000000e+01,   -3.990354e+00
   11866,   -7.208559e+00,   -8.000000e+01,   -3.898144e+00
   11867,   -3.758587e+00,   -8.000000e+01,   -4.291406e+00
   11868,   -1.904575e+00,   -8.000000e+01,   -4.642807e+00
   11869,   -5.539967e+00,   -8.000000e+01,   -5.836899e+00
   11870,   -6.830325e+00,   -8.000000e+01,   -5.307483e+00
   11871,   -3.870860e+00,   -8.000000e+01,   -6.487469e+00
   11872,   -1.975771e+00,   -8.000000e+01,   -7.050566e+00
   12195,    0.000000e+00,   -6.735557e-16,   -1.100000e+01
   12196,    0.000000e+00,   -6.123234e-16,   -1.000000e+01
   12197,    0.000000e+00,   -8.000000e+01,   -1.100000e+01
   12198,    0.000000e+00,   -7.750000e+01,   -1.100000e+01
   12199,    0.000000e+00,   -7.500000e+01,   -1.100000e+01
   12200,    0.000000e+00,   -7.250000e+01,   -1.100000e+01
   12201,    0.000000e+00,   -7.000000e+01,   -1.100000e+01
   12202,    0.000000e+00,   -6.750000e+01,   -1.100000e+01
   12203,    0.000000e+00,   -6.500000e+01,   -1.100000e+01
   12204,    0.000000e+00,   -6.250000e+01,   -1.100000e+01
   12205,    0.000000e+00,   -6.000000e+01,   -1.100000e+01
   12206,    0.000000e+00,   -5.750000e+01,   -1.100000e+01
   12207,    0.000000e+00,   -5.500000e+01,   -1.100000e+01
   12208,    0.000000e+00,   -5.250000e+01,   -1.100000e+01
   12209,    0.000000e+00,   -5.000000e+01,   -1.100000e+01
   12210,    0.000000e+00,   -4.750000e+01,   -1.100000e+01
   12211,    0.000000e+00,   -4.500000e+01,   -1.100000e+01
   12212,    0.000000e+00,   -4.250000e+01,   -1.100000e+01
   12213,    0.000000e+00,   -4.000000e+01,   -1.100000e+01
   12214,    0.000000e+00,   -3.750000e+01,   -1.100000e+01
   12215,    0.000000e+00,   -3.500000e+01,   -1.100000e+01
   12216,    0.000000e+00,   -3.250000e+01,   -1.100000e+01
   12217,    0.000000e+00,   -3.000000e+01,   -1.100000e+01
   12218,    0.000000e+00,   -2.750000e+01,   -1.100000e+01
   12219,    0.000000e+00,   -2.500000e+01,   -1.100000e+01
   12220,    0.000000e+00,   -2.250000e+01,   -1.100000e+01
   12221,    0.000000e+00,   -2.000000e+01,   -1.100000e+01
   12222,    0.000000e+00,   -1.750000e+01,   -1.100000e+01
   12223,    0.000000e+00,   -1.500000e+01,   -1.100000e+01
   12224,    0.000000e+00,   -1.250000e+01,   -1.100000e+01
   12225,    0.000000e+00,   -1.000000e+01,   -1.100000e+01
   12226,    0.000000e+00,   -7.500000e+00,   -1.100000e+01
   12227,    0.000000e+00,   -5.000000e+00,   -1.100000e+01
   12228,    0.000000e+00,   -2.500000e+00,   -1.100000e+01
   12229,    0.000000e+00,   -8.000000e+01,   -1.000000e+01
   12230,    0.000000e+00,   -2.500000e+00,   -1.000000e+01
   12231,    0.000000e+00,   -5.000000e+00,   -1.000000e+01
   12232,    0.000000e+00,   -7.500000e+00,   -1.000000e+01
   12233,    0.000000e+00,   -1.000000e+01,   -1.000000e+01
   12234,    0.000000e+00,   -1.250000e+01,   -1.000000e+01
   12235,    0.000000e+00,   -1.500000e+01,   -1.000000e+01
   12236,    0.000000e+00,   -1.750000e+01,   -1.000000e+01
   12237,    0.000000e+00,   -2.000000e+01,   -1.000000e+01
   12238,    0.000000e+00,   -2.250000e+01,   -1.000000e+01
   12239,    0.000000e+00,   -2.500000e+01,   -1.000000e+01
   12240,    0.000000e+00,   -2.750000e+01,   -1.000000e+01
   12241,    0.000000e+00,   -3.000000e+01,   -1.000000e+01
   12242,    0.000000e+00,   -3.250000e+01,   -1.000000e+01
   12243,    0.000000e+00,   -3.500000e+01,   -1.000000e+01
   12244,    0.000000e+00,   -3.750000e+01,   -1.000000e+01
   12245,    0.000000e+00,   -4.000000e+01,   -1.000000e+01
   12246,    0.000000e+00,   -4.250000e+01,   -1.000000e+01
   12247,    0.000000e+00,   -4.500000e+01,   -1.000000e+01
   12248,    0.000000e+00,   -4.750000e+01,   -1.000000e+01
   12249,    0.000000e+00,   -5.000000e+01,   -1.000000e+01
   12250,    0.000000e+00,   -5.250000e+01,   -1.000000e+01
   12251,    0.000000e+00,   -5.500000e+01,   -1.000000e+01
   12252,    0.000000e+00,   -5.750000e+01,   -1.000000e+01
   12253,    0.000000e+00,   -6.000000e+01,   -1.000000e+01
   12254,    0.000000e+00,   -6.250000e+01,   -1.000000e+01
   12255,    0.000000e+00,   -6.500000e+01,   -1.000000e+01
   12256,    0.000000e+00,   -6.750000e+01,   -1.000000e+01
   12257,    0.000000e+00,   -7.000000e+01,   -1.000000e+01
   12258,    0.000000e+00,   -7.250000e+01,   -1.000000e+01
   12259,    0.000000e+00,   -7.500000e+01,   -1.000000e+01
   12260,    0.000000e+00,   -7.750000e+01,   -1.000000e+01
   12261,    1.100000e+01,   -8.000000e+01,    2.449294e-15
   12262,    2.447730e+00,   -8.000000e+01,   -1.072421e+01
   12263,    4.772721e+00,   -8.000000e+01,   -9.910658e+00
   12264,    6.858388e+00,   -8.000000e+01,   -8.600146e+00
   12265,    8.600146e+00,   -8.000000e+01,   -6.858388e+00
   12266,    9.910658e+00,   -8.000000e+01,   -4.772721e+00
   12267,    1.072421e+01,   -8.000000e+01,   -2.447730e+00
   12268,    1.000000e+01,   -8.000000e+01,    2.449294e-15
   12269,    9.749279e+00,   -8.000000e+01,   -2.225209e+00
   12270,    9.009689e+00,   -8.000000e+01,   -4.338837e+00
   12271,    7.818315e+00,   -8.000000e+01,   -6.234898e+00
   12272,    6.234898e+00,   -8.000000e+01,   -7.818315e+00
   12273,    4.338837e+00,   -8.000000e+01,   -9.009689e+00
   12274,    2.225209e+00,   -8.000000e+01,   -9.749279e+00
   12275,    1.100000e+01,    0.000000e+00,   -2.449294e-15
   12276,    1.072421e+01,   -1.498803e-16,   -2.447730e+00
   12277,    9.910658e+00,   -2.922449e-16,   -4.772721e+00
   12278,    8.600146e+00,   -4.199551e-16,   -6.858388e+00
   12279,    6.858388e+00,   -5.266071e-16,   -8.600146e+00
   12280,    4.772721e+00,   -6.068528e-16,   -9.910658e+00
   12281,    2.447730e+00,   -6.566683e-16,   -1.072421e+01
   12282,    1.100000e+01,   -7.750000e+01,    2.296213e-15
   12283,    1.100000e+01,   -7.500000e+01,    2.143132e-15
   12284,    1.100000e+01,   -7.250000e+01,    1.990051e-15
   12285,    1.100000e+01,   -7.000000e+01,    1.836970e-15
   12286,    1.100000e+01,   -6.750000e+01,    1.683889e-15
   12287,    1.100000e+01,   -6.500000e+01,    1.530808e-15
   12288,    1.100000e+01,   -6.250000e+01,    1.377728e-15
   12289,    1.100000e+01,   -6.000000e+01,    1.224647e-15
   12290,    1.100000e+01,   -5.750000e+01,    1.071566e-15
   12291,    1.100000e+01,   -5.500000e+01,    9.184851e-16
   12292,    1.100000e+01,   -5.250000e+01,    7.654042e-16
   12293,    1.100000e+01,   -5.000000e+01,    6.123234e-16
   12294,    1.100000e+01,   -4.750000e+01,    4.592425e-16
   12295,    1.100000e+01,   -4.500000e+01,    3.061617e-16
   12296,    1.100000e+01,   -4.250000e+01,    1.530808e-16
   12297,    1.100000e+01,   -4.000000e+01,    0.000000e+00
   12298,    1.100000e+01,   -3.750000e+01,   -1.530808e-16
   12299,    1.100000e+01,   -3.500000e+01,   -3.061617e-16
   12300,    1.100000e+01,   -3.250000e+01,   -4.592425e-16
   12301,    1.100000e+01,   -3.000000e+01,   -6.123234e-16
   12302,    1.100000e+01,   -2.750000e+01,   -7.654042e-16
   12303,    1.100000e+01,   -2.500000e+01,   -9.184851e-16
   12304,    1.100000e+01,   -2.250000e+01,   -1.071566e-15
   12305,    1.100000e+01,   -2.000000e+01,   -1.224647e-15
   12306,    1.100000e+01,   -1.750000e+01,   -1.377728e-15
   12307,    1.100000e+01,   -1.500000e+01,   -1.530808e-15
   12308,    1.100000e+01,   -1.250000e+01,   -1.683889e-15
   12309,    1.100000e+01,   -1.000000e+01,   -1.836970e-15
   12310,    1.100000e+01,   -7.500000e+00,   -1.990051e-15
   12311,    1.100000e+01,   -5.000000e+00,   -2.143132e-15
   12312,    1.100000e+01,   -2.500000e+00,   -2.296213e-15
   12313,    2.447730e+00,   -7.750000e+01,   -1.072421e+01
   12314,    2.447730e+00,   -7.500000e+01,   -1.072421e+01
   12315,    2.447730e+00,   -7.250000e+01,   -1.072421e+01
   12316,    2.447730e+00,   -7.000000e+01,   -1.072421e+01
   12317,    2.447730e+00,   -6.750000e+01,   -1.072421e+01
   12318,    2.447730e+00,   -6.500000e+01,   -1.072421e+01
   12319,    2.447730e+00,   -6.250000e+01,   -1.072421e+01
   12320,    2.447730e+00,   -6.000000e+01,   -1.072421e+01
   12321,    2.447730e+00,   -5.750000e+01,   -1.072421e+01
   12322,    2.447730e+00,   -5.500000e+01,   -1.072421e+01
   12323,    2.447730e+00,   -5.250000e+01,   -1.072421e+01
   12324,    2.447730e+00,   -5.000000e+01,   -1.072421e+01
   12325,    2.447730e+00,   -4.750000e+01,   -1.072421e+01
   12326,    2.447730e+00,   -4.500000e+01,   -1.072421e+01
   12327,    2.447730e+00,   -4.250000e+01,   -1.072421e+01
   12328,    2.447730e+00,   -4.000000e+01,   -1.072421e+01
   12329,    2.447730e+00,   -3.750000e+01,   -1.072421e+01
   12330,    2.447730e+00,   -3.500000e+01,   -1.072421e+01
   12331,    2.447730e+00,   -3.250000e+01,   -1.072421e+01
   12332,    2.447730e+00,   -3.000000e+01,   -1.072421e+01
   12333,    2.447730e+00,   -2.750000e+01,   -1.072421e+01
   12334,    2.447730e+00,   -2.500000e+01,   -1.072421e+01
   12335,    2.447730e+00,   -2.250000e+01,   -1.072421e+01
   12336,    2.447730e+00,   -2.000000e+01,   -1.072421e+01
   12337,    2.447730e+00,   -1.750000e+01,   -1.072421e+01
   12338,    2.447730e+00,   -1.500000e+01,   -1.072421e+01
   12339,    2.447730e+00,   -1.250000e+01,   -1.072421e+01
   12340,    2.447730e+00,   -1.000000e+01,   -1.072421e+01
   12341,    2.447730e+00,   -7.500000e+00,   -1.072421e+01
   12342,    2.447730e+00,   -5.000000e+00,   -1.072421e+01
   12343,    2.447730e+00,   -2.500000e+00,   -1.072421e+01
   12344,    4.772721e+00,   -7.750000e+01,   -9.910658e+00
   12345,    4.772721e+00,   -7.500000e+01,   -9.910658e+00
   12346,    4.772721e+00,   -7.250000e+01,   -9.910658e+00
   12347,    4.772721e+00,   -7.000000e+01,   -9.910658e+00
   12348,    4.772721e+00,   -6.750000e+01,   -9.910658e+00
   12349,    4.772721e+00,   -6.500000e+01,   -9.910658e+00
   12350,    4.772721e+00,   -6.250000e+01,   -9.910658e+00
   12351,    4.772721e+00,   -6.000000e+01,   -9.910658e+00
   12352,    4.772721e+00,   -5.750000e+01,   -9.910658e+00
   12353,    4.772721e+00,   -5.500000e+01,   -9.910658e+00
   12354,    4.772721e+00,   -5.250000e+01,   -9.910658e+00
   12355,    4.772721e+00,   -5.000000e+01,   -9.910658e+00
   12356,    4.772721e+00,   -4.750000e+01,   -9.910658e+00
   12357,    4.772721e+00,   -4.500000e+01,   -9.910658e+00
   12358,    4.772721e+00,   -4.250000e+01,   -9.910658e+00
   12359,    4.772721e+00,   -4.000000e+01,   -9.910658e+00
   12360,    4.772721e+00,   -3.750000e+01,   -9.910658e+00
   12361,    4.772721e+00,   -3.500000e+01,   -9.910658e+00
   12362,    4.772721e+00,   -3.250000e+01,   -9.910658e+00
   12363,    4.772721e+00,   -3.000000e+01,   -9.910658e+00
   12364,    4.772721e+00,   -2.750000e+01,   -9.910658e+00
   12365,    4.772721e+00,   -2.500000e+01,   -9.910658e+00
   12366,    4.772721e+00,   -2.250000e+01,   -9.910658e+00
   12367,    4.772721e+00,   -2.000000e+01,   -9.910658e+00
   12368,    4.772721e+00,   -1.750000e+01,   -9.910658e+00
   12369,    4.772721e+00,   -1.500000e+01,   -9.910658e+00
   12370,    4.772721e+00,   -1.250000e+01,   -9.910658e+00
   12371,    4.772721e+00,   -1.000000e+01,   -9.910658e+00
   12372,    4.772721e+00,   -7.500000e+00,   -9.910658e+00
   12373,    4.772721e+00,   -5.000000e+00,   -9.910658e+00
   12374,    4.772721e+00,   -2.500000e+00,   -9.910658e+00
   12375,    6.858388e+00,   -7.750000e+01,   -8.600146e+00
   12376,    6.858388e+00,   -7.500000e+01,   -8.600146e+00
   12377,    6.858388e+00,   -7.250000e+01,   -8.600146e+00
   12378,    6.858388e+00,   -7.000000e+01,   -8.600146e+00
   12379,    6.858388e+00,   -6.750000e+01,   -8.600146e+00
   12380,    6.858388e+00,   -6.500000e+01,   -8.600146e+00
   12381,    6.858388e+00,   -6.250000e+01,   -8.600146e+00
   12382,    6.858388e+00,   -6.000000e+01,   -8.600146e+00
   12383,    6.858388e+00,   -5.750000e+01,   -8.600146e+00
   12384,    6.858388e+00,   -5.500000e+01,   -8.600146e+00
   12385,    6.858388e+00,   -5.250000e+01,   -8.600146e+00
   12386,    6.858388e+00,   -5.000000e+01,   -8.600146e+00
   12387,    6.858388e+00,   -4.750000e+01,   -8.600146e+00
   12388,    6.858388e+00,   -4.500000e+01,   -8.600146e+00
   12389,    6.858388e+00,   -4.250000e+01,   -8.600146e+00
   12390,    6.858388e+00,   -4.000000e+01,   -8.600146e+00
   12391,    6.858388e+00,   -3.750000e+01,   -8.600146e+00
   12392,    6.858388e+00,   -3.500000e+01,   -8.600146e+00
   12393,    6.858388e+00,   -3.250000e+01,   -8.600146e+00
   12394,    6.858388e+00,   -3.000000e+01,   -8.600146e+00
   12395,    6.858388e+00,   -2.750000e+01,   -8.600146e+00
   12396,    6.858388e+00,   -2.500000e+01,   -8.600146e+00
   12397,    6.858388e+00,   -2.250000e+01,   -8.600146e+00
   12398,    6.858388e+00,   -2.000000e+01,   -8.600146e+00
   12399,    6.858388e+00,   -1.750000e+01,   -8.600146e+00
   12400,    6.858388e+00,   -1.500000e+01,   -8.600146e+00
   12401,    6.858388e+00,   -1.250000e+01,   -8.600146e+00
   12402,    6.858388e+00,   -1.000000e+01,   -8.600146e+00
   12403,    6.858388e+00,   -7.500000e+00,   -8.600146e+00
   12404,    6.858388e+00,   -5.000000e+00,   -8.600146e+00
   12405,    6.858388e+00,   -2.500000e+00,   -8.600146e+00
   12406,    8.600146e+00,   -7.750000e+01,   -6.858388e+00
   12407,    8.600146e+00,   -7.500000e+01,   -6.858388e+00
   12408,    8.600146e+00,   -7.250000e+01,   -6.858388e+00
   12409,    8.600146e+00,   -7.000000e+01,   -6.858388e+00
   12410,    8.600146e+00,   -6.750000e+01,   -6.858388e+00
   12411,    8.600146e+00,   -6.500000e+01,   -6.858388e+00
   12412,    8.600146e+00,   -6.250000e+01,   -6.858388e+00
   12413,    8.600146e+00,   -6.000000e+01,   -6.858388e+00
   12414,    8.600146e+00,   -5.750000e+01,   -6.858388e+00
   12415,    8.600146e+00,   -5.500000e+01,   -6.858388e+00
   12416,    8.600146e+00,   -5.250000e+01,   -6.858388e+00
   12417,    8.600146e+00,   -5.000000e+01,   -6.858388e+00
   12418,    8.600146e+00,   -4.750000e+01,   -6.858388e+00
   12419,    8.600146e+00,   -4.500000e+01,   -6.858388e+00
   12420,    8.600146e+00,   -4.250000e+01,   -6.858388e+00
   12421,    8.600146e+00,   -4.000000e+01,   -6.858388e+00
   12422,    8.600146e+00,   -3.750000e+01,   -6.858388e+00
   12423,    8.600146e+00,   -3.500000e+01,   -6.858388e+00
   12424,    8.600146e+00,   -3.250000e+01,   -6.858388e+00
   12425,    8.600146e+00,   -3.000000e+01,   -6.858388e+00
   12426,    8.600146e+00,   -2.750000e+01,   -6.858388e+00
   12427,    8.600146e+00,   -2.500000e+01,   -6.858388e+00
   12428,    8.600146e+00,   -2.250000e+01,   -6.858388e+00
   12429,    8.600146e+00,   -2.000000e+01,   -6.858388e+00
   12430,    8.600146e+00,   -1.750000e+01,   -6.858388e+00
   12431,    8.600146e+00,   -1.500000e+01,   -6.858388e+00
   12432,    8.600146e+00,   -1.250000e+01,   -6.858388e+00
   12433,    8.600146e+00,   -1.000000e+01,   -6.858388e+00
   12434,    8.600146e+00,   -7.500000e+00,   -6.858388e+00
   12435,    8.600146e+00,   -5.000000e+00,   -6.858388e+00
   12436,    8.600146e+00,   -2.500000e+00,   -6.858388e+00
   12437,    9.910658e+00,   -7.750000e+01,   -4.772721e+00
   12438,    9.910658e+00,   -7.500000e+01,   -4.772721e+00
   12439,    9.910658e+00,   -7.250000e+01,   -4.772721e+00
   12440,    9.910658e+00,   -7.000000e+01,   -4.772721e+00
   12441,    9.910658e+00,   -6.750000e+01,   -4.772721e+00
   12442,    9.910658e+00,   -6.500000e+01,   -4.772721e+00
   12443,    9.910658e+00,   -6.250000e+01,   -4.772721e+00
   12444,    9.910658e+00,   -6.000000e+01,   -4.772721e+00
   12445,    9.910658e+00,   -5.750000e+01,   -4.772721e+00
   12446,    9.910658e+00,   -5.500000e+01,   -4.772721e+00
   12447,    9.910658e+00,   -5.250000e+01,   -4.772721e+00
   12448,    9.910658e+00,   -5.000000e+01,   -4.772721e+00
   12449,    9.910658e+00,   -4.750000e+01,   -4.772721e+00
   12450,    9.910658e+00,   -4.500000e+01,   -4.772721e+00
   12451,    9.910658e+00,   -4.250000e+01,   -4.772721e+00
   12452,    9.910658e+00,   -4.000000e+01,   -4.772721e+00
   12453,    9.910658e+00,   -3.750000e+01,   -4.772721e+00
   12454,    9.910658e+00,   -3.500000e+01,   -4.772721e+00
   12455,    9.910658e+00,   -3.250000e+01,   -4.772721e+00
   12456,    9.910658e+00,   -3.000000e+01,   -4.772721e+00
   12457,    9.910658e+00,   -2.750000e+01,   -4.772721e+00
   12458,    9.910658e+00,   -2.500000e+01,   -4.772721e+00
   12459,    9.910658e+00,   -2.250000e+01,   -4.772721e+00
   12460,    9.910658e+00,   -2.000000e+01,   -4.772721e+00
   12461,    9.910658e+00,   -1.750000e+01,   -4.772721e+00
   12462,    9.910658e+00,   -1.500000e+01,   -4.772721e+00
   12463,    9.910658e+00,   -1.250000e+01,   -4.772721e+00
   12464,    9.910658e+00,   -1.000000e+01,   -4.772721e+00
   12465,    9.910658e+00,   -7.500000e+00,   -4.772721e+00
   12466,    9.910658e+00,   -5.000000e+00,   -4.772721e+00
   12467,    9.910658e+00,   -2.500000e+00,   -4.772721e+00
   12468,    1.072421e+01,   -7.750000e+01,   -2.447730e+00
   12469,    1.072421e+01,   -7.500000e+01,   -2.447730e+00
   12470,    1.072421e+01,   -7.250000e+01,   -2.447730e+00
   12471,    1.072421e+01,   -7.000000e+01,   -2.447730e+00
   12472,    1.072421e+01,   -6.750000e+01,   -2.447730e+00
   12473,    1.072421e+01,   -6.500000e+01,   -2.447730e+00
   12474,    1.072421e+01,   -6.250000e+01,   -2.447730e+00
   12475,    1.072421e+01,   -6.000000e+01,   -2.447730e+00
   12476,    1.072421e+01,   -5.750000e+01,   -2.447730e+00
   12477,    1.072421e+01,   -5.500000e+01,   -2.447730e+00
   12478,    1.072421e+01,   -5.250000e+01,   -2.447730e+00
   12479,    1.072421e+01,   -5.000000e+01,   -2.447730e+00
   12480,    1.072421e+01,   -4.750000e+01,   -2.447730e+00
   12481,    1.072421e+01,   -4.500000e+01,   -2.447730e+00
   12482,    1.072421e+01,   -4.250000e+01,   -2.447730e+00
   12483,    1.072421e+01,   -4.000000e+01,   -2.447730e+00
   12484,    1.072421e+01,   -3.750000e+01,   -2.447730e+00
   12485,    1.072421e+01,   -3.500000e+01,   -2.447730e+00
   12486,    1.072421e+01,   -3.250000e+01,   -2.447730e+00
   12487,    1.072421e+01,   -3.000000e+01,   -2.447730e+00
   12488,    1.072421e+01,   -2.750000e+01,   -2.447730e+00
   12489,    1.072421e+01,   -2.500000e+01,   -2.447730e+00
   12490,    1.072421e+01,   -2.250000e+01,   -2.447730e+00
   12491,    1.072421e+01,   -2.000000e+01,   -2.447730e+00
   12492,    1.072421e+01,   -1.750000e+01,   -2.447730e+00
   12493,    1.072421e+01,   -1.500000e+01,   -2.447730e+00
   12494,    1.072421e+01,   -1.250000e+01,   -2.447730e+00
   12495,    1.072421e+01,   -1.000000e+01,   -2.447730e+00
   12496,    1.072421e+01,   -7.500000e+00,   -2.447730e+00
   12497,    1.072421e+01,   -5.000000e+00,   -2.447730e+00
   12498,    1.072421e+01,   -2.500000e+00,   -2.447730e+00
   12499,    1.000000e+01,    0.000000e+00,   -2.449294e-15
   12500,    1.000000e+01,   -2.500000e+00,   -2.296213e-15
   12501,    1.000000e+01,   -5.000000e+00,   -2.143132e-15
   12502,    1.000000e+01,   -7.500000e+00,   -1.990051e-15
   12503,    1.000000e+01,   -1.000000e+01,   -1.836970e-15
   12504,    1.000000e+01,   -1.250000e+01,   -1.683889e-15
   12505,    1.000000e+01,   -1.500000e+01,   -1.530808e-15
   12506,    1.000000e+01,   -1.750000e+01,   -1.377728e-15
   12507,    1.000000e+01,   -2.000000e+01,   -1.224647e-15
   12508,    1.000000e+01,   -2.250000e+01,   -1.071566e-15
   12509,    1.000000e+01,   -2.500000e+01,   -9.184851e-16
   12510,    1.000000e+01,   -2.750000e+01,   -7.654042e-16
   12511,    1.000000e+01,   -3.000000e+01,   -6.123234e-16
   12512,    1.000000e+01,   -3.250000e+01,   -4.592425e-16
   12513,    1.000000e+01,   -3.500000e+01,   -3.061617e-16
   12514,    1.000000e+01,   -3.750000e+01,   -1.530808e-16
   12515,    1.000000e+01,   -4.000000e+01,    0.000000e+00
   12516,    1.000000e+01,   -4.250000e+01,    1.530808e-16
   12517,    1.000000e+01,   -4.500000e+01,    3.061617e-16
   12518,    1.000000e+01,   -4.750000e+01,    4.592425e-16
   12519,    1.000000e+01,   -5.000000e+01,    6.123234e-16
   12520,    1.000000e+01,   -5.250000e+01,    7.654042e-16
   12521,    1.000000e+01,   -5.500000e+01,    9.184851e-16
   12522,    1.000000e+01,   -5.750000e+01,    1.071566e-15
   12523,    1.000000e+01,   -6.000000e+01,    1.224647e-15
   12524,    1.000000e+01,   -6.250000e+01,    1.377728e-15
   12525,    1.000000e+01,   -6.500000e+01,    1.530808e-15
   12526,    1.000000e+01,   -6.750000e+01,    1.683889e-15
   12527,    1.000000e+01,   -7.000000e+01,    1.836970e-15
   12528,    1.000000e+01,   -7.250000e+01,    1.990051e-15
   12529,    1.000000e+01,   -7.500000e+01,    2.143132e-15
   12530,    1.000000e+01,   -7.750000e+01,    2.296213e-15
   12531,    2.225209e+00,   -5.969712e-16,   -9.749279e+00
   12532,    4.338837e+00,   -5.516843e-16,   -9.009689e+00
   12533,    6.234898e+00,   -4.787337e-16,   -7.818315e+00
   12534,    7.818315e+00,   -3.817774e-16,   -6.234898e+00
   12535,    9.009689e+00,   -2.656772e-16,   -4.338837e+00
   12536,    9.749279e+00,   -1.362548e-16,   -2.225209e+00
   12537,    2.225209e+00,   -2.500000e+00,   -9.749279e+00
   12538,    2.225209e+00,   -5.000000e+00,   -9.749279e+00
   12539,    2.225209e+00,   -7.500000e+00,   -9.749279e+00
   12540,    2.225209e+00,   -1.000000e+01,   -9.749279e+00
   12541,    2.225209e+00,   -1.250000e+01,   -9.749279e+00
   12542,    2.225209e+00,   -1.500000e+01,   -9.749279e+00
   12543,    2.225209e+00,   -1.750000e+01,   -9.749279e+00
   12544,    2.225209e+00,   -2.000000e+01,   -9.749279e+00
   12545,    2.225209e+00,   -2.250000e+01,   -9.749279e+00
   12546,    2.225209e+00,   -2.500000e+01,   -9.749279e+00
   12547,    2.225209e+00,   -2.750000e+01,   -9.749279e+00
   12548,    2.225209e+00,   -3.000000e+01,   -9.749279e+00
   12549,    2.225209e+00,   -3.250000e+01,   -9.749279e+00
   12550,    2.225209e+00,   -3.500000e+01,   -9.749279e+00
   12551,    2.225209e+00,   -3.750000e+01,   -9.749279e+00
   12552,    2.225209e+00,   -4.000000e+01,   -9.749279e+00
   12553,    2.225209e+00,   -4.250000e+01,   -9.749279e+00
   12554,    2.225209e+00,   -4.500000e+01,   -9.749279e+00
   12555,    2.225209e+00,   -4.750000e+01,   -9.749279e+00
   12556,    2.225209e+00,   -5.000000e+01,   -9.749279e+00
   12557,    2.225209e+00,   -5.250000e+01,   -9.749279e+00
   12558,    2.225209e+00,   -5.500000e+01,   -9.749279e+00
   12559,    2.225209e+00,   -5.750000e+01,   -9.749279e+00
   12560,    2.225209e+00,   -6.000000e+01,   -9.749279e+00
   12561,    2.225209e+00,   -6.250000e+01,   -9.749279e+00
   12562,    2.225209e+00,   -6.500000e+01,   -9.749279e+00
   12563,    2.225209e+00,   -6.750000e+01,   -9.749279e+00
   12564,    2.225209e+00,   -7.000000e+01,   -9.749279e+00
   12565,    2.225209e+00,   -7.250000e+01,   -9.749279e+00
   12566,    2.225209e+00,   -7.500000e+01,   -9.749279e+00
   12567,    2.225209e+00,   -7.750000e+01,   -9.749279e+00
   12568,    4.338837e+00,   -2.500000e+00,   -9.009689e+00
   12569,    4.338837e+00,   -5.000000e+00,   -9.009689e+00
   12570,    4.338837e+00,   -7.500000e+00,   -9.009689e+00
   12571,    4.338837e+00,   -1.000000e+01,   -9.009689e+00
   12572,    4.338837e+00,   -1.250000e+01,   -9.009689e+00
   12573,    4.338837e+00,   -1.500000e+01,   -9.009689e+00
   12574,    4.338837e+00,   -1.750000e+01,   -9.009689e+00
   12575,    4.338837e+00,   -2.000000e+01,   -9.009689e+00
   12576,    4.338837e+00,   -2.250000e+01,   -9.009689e+00
   12577,    4.338837e+00,   -2.500000e+01,   -9.009689e+00
   12578,    4.338837e+00,   -2.750000e+01,   -9.009689e+00
   12579,    4.338837e+00,   -3.000000e+01,   -9.009689e+00
   12580,    4.338837e+00,   -3.250000e+01,   -9.009689e+00
   12581,    4.338837e+00,   -3.500000e+01,   -9.009689e+00
   12582,    4.338837e+00,   -3.750000e+01,   -9.009689e+00
   12583,    4.338837e+00,   -4.000000e+01,   -9.009689e+00
   12584,    4.338837e+00,   -4.250000e+01,   -9.009689e+00
   12585,    4.338837e+00,   -4.500000e+01,   -9.009689e+00
   12586,    4.338837e+00,   -4.750000e+01,   -9.009689e+00
   12587,    4.338837e+00,   -5.000000e+01,   -9.009689e+00
   12588,    4.338837e+00,   -5.250000e+01,   -9.009689e+00
   12589,    4.338837e+00,   -5.500000e+01,   -9.009689e+00
   12590,    4.338837e+00,   -5.750000e+01,   -9.009689e+00
   12591,    4.338837e+00,   -6.000000e+01,   -9.009689e+00
   12592,    4.338837e+00,   -6.250000e+01,   -9.009689e+00
   12593,    4.338837e+00,   -6.500000e+01,   -9.009689e+00
   12594,    4.338837e+00,   -6.750000e+01,   -9.009689e+00
   12595,    4.338837e+00,   -7.000000e+01,   -9.009689e+00
   12596,    4.338837e+00,   -7.250000e+01,   -9.009689e+00
   12597,    4.338837e+00,   -7.500000e+01,   -9.009689e+00
   12598,    4.338837e+00,   -7.750000e+01,   -9.009689e+00
   12599,    6.234898e+00,   -2.500000e+00,   -7.818315e+00
   12600,    6.234898e+00,   -5.000000e+00,   -7.818315e+00
   12601,    6.234898e+00,   -7.500000e+00,   -7.818315e+00
   12602,    6.234898e+00,   -1.000000e+01,   -7.818315e+00
   12603,    6.234898e+00,   -1.250000e+01,   -7.818315e+00
   12604,    6.234898e+00,   -1.500000e+01,   -7.818315e+00
   12605,    6.234898e+00,   -1.750000e+01,   -7.818315e+00
   12606,    6.234898e+00,   -2.000000e+01,   -7.818315e+00
   12607,    6.234898e+00,   -2.250000e+01,   -7.818315e+00
   12608,    6.234898e+00,   -2.500000e+01,   -7.818315e+00
   12609,    6.234898e+00,   -2.750000e+01,   -7.818315e+00
   12610,    6.234898e+00,   -3.000000e+01,   -7.818315e+00
   12611,    6.234898e+00,   -3.250000e+01,   -7.818315e+00
   12612,    6.234898e+00,   -3.500000e+01,   -7.818315e+00
   12613,    6.234898e+00,   -3.750000e+01,   -7.818315e+00
   12614,    6.234898e+00,   -4.000000e+01,   -7.818315e+00
   12615,    6.234898e+00,   -4.250000e+01,   -7.818315e+00
   12616,    6.234898e+00,   -4.500000e+01,   -7.818315e+00
   12617,    6.234898e+00,   -4.750000e+01,   -7.818315e+00
   12618,    6.234898e+00,   -5.000000e+01,   -7.818315e+00
   12619,    6.234898e+00,   -5.250000e+01,   -7.818315e+00
   12620,    6.234898e+00,   -5.500000e+01,   -7.818315e+00
   12621,    6.234898e+00,   -5.750000e+01,   -7.818315e+00
   12622,    6.234898e+00,   -6.000000e+01,   -7.818315e+00
   12623,    6.234898e+00,   -6.250000e+01,   -7.818315e+00
   12624,    6.234898e+00,   -6.500000e+01,   -7.818315e+00
   12625,    6.234898e+00,   -6.750000e+01,   -7.818315e+00
   12626,    6.234898e+00,   -7.000000e+01,   -7.818315e+00
   12627,    6.234898e+00,   -7.250000e+01,   -7.818315e+00
   12628,    6.234898e+00,   -7.500000e+01,   -7.818315e+00
   12629,    6.234898e+00,   -7.750000e+01,   -7.818315e+00
   12630,    7.818315e+00,   -2.500000e+00,   -6.234898e+00
   12631,    7.818315e+00,   -5.000000e+00,   -6.234898e+00
   12632,    7.818315e+00,   -7.500000e+00,   -6.234898e+00
   12633,    7.818315e+00,   -1.000000e+01,   -6.234898e+00
   12634,    7.818315e+00,   -1.250000e+01,   -6.234898e+00
   12635,    7.818315e+00,   -1.500000e+01,   -6.234898e+00
   12636,    7.818315e+00,   -1.750000e+01,   -6.234898e+00
   12637,    7.818315e+00,   -2.000000e+01,   -6.234898e+00
   12638,    7.818315e+00,   -2.250000e+01,   -6.234898e+00
   12639,    7.818315e+00,   -2.500000e+01,   -6.234898e+00
   12640,    7.818315e+00,   -2.750000e+01,   -6.234898e+00
   12641,    7.818315e+00,   -3.000000e+01,   -6.234898e+00
   12642,    7.818315e+00,   -3.250000e+01,   -6.234898e+00
   12643,    7.818315e+00,   -3.500000e+01,   -6.234898e+00
   12644,    7.818315e+00,   -3.750000e+01,   -6.234898e+00
   12645,    7.818315e+00,   -4.000000e+01,   -6.234898e+00
   12646,    7.818315e+00,   -4.250000e+01,   -6.234898e+00
   12647,    7.818315e+00,   -4.500000e+01,   -6.234898e+00
   12648,    7.818315e+00,   -4.750000e+01,   -6.234898e+00
   12649,    7.818315e+00,   -5.000000e+01,   -6.234898e+00
   12650,    7.818315e+00,   -5.250000e+01,   -6.234898e+00
   12651,    7.818315e+00,   -5.500000e+01,   -6.234898e+00
   12652,    7.818315e+00,   -5.750000e+01,   -6.234898e+00
   12653,    7.818315e+00,   -6.000000e+01,   -6.234898e+00
   12654,    7.818315e+00,   -6.250000e+01,   -6.234898e+00
   12655,    7.818315e+00,   -6.500000e+01,   -6.234898e+00
   12656,    7.818315e+00,   -6.750000e+01,   -6.234898e+00
   12657,    7.818315e+00,   -7.000000e+01,   -6.234898e+00
   12658,    7.818315e+00,   -7.250000e+01,   -6.234898e+00
   12659,    7.818315e+00,   -7.500000e+01,   -6.234898e+00
   12660,    7.818315e+00,   -7.750000e+01,   -6.234898e+00
   12661,    9.009689e+00,   -2.500000e+00,   -4.338837e+00
   12662,    9.009689e+00,   -5.000000e+00,   -4.338837e+00
   12663,    9.009689e+00,   -7.500000e+00,   -4.338837e+00
   12664,    9.009689e+00,   -1.000000e+01,   -4.338837e+00
   12665,    9.009689e+00,   -1.250000e+01,   -4.338837e+00
   12666,    9.009689e+00,   -1.500000e+01,   -4.338837e+00
   12667,    9.009689e+00,   -1.750000e+01,   -4.338837e+00
   12668,    9.009689e+00,   -2.000000e+01,   -4.338837e+00
   12669,    9.009689e+00,   -2.250000e+01,   -4.338837e+00
   12670,    9.009689e+00,   -2.500000e+01,   -4.338837e+00
   12671,    9.009689e+00,   -2.750000e+01,   -4.338837e+00
   12672,    9.009689e+00,   -3.000000e+01,   -4.338837e+00
   12673,    9.009689e+00,   -3.250000e+01,   -4.338837e+00
   12674,    9.009689e+00,   -3.500000e+01,   -4.338837e+00
   12675,    9.009689e+00,   -3.750000e+01,   -4.338837e+00
   12676,    9.009689e+00,   -4.000000e+01,   -4.338837e+00
   12677,    9.009689e+00,   -4.250000e+01,   -4.338837e+00
   12678,    9.009689e+00,   -4.500000e+01,   -4.338837e+00
   12679,    9.009689e+00,   -4.750000e+01,   -4.338837e+00
   12680,    9.009689e+00,   -5.000000e+01,   -4.338837e+00
   12681,    9.009689e+00,   -5.250000e+01,   -4.338837e+00
   12682,    9.009689e+00,   -5.500000e+01,   -4.338837e+00
   12683,    9.009689e+00,   -5.750000e+01,   -4.338837e+00
   12684,    9.009689e+00,   -6.000000e+01,   -4.338837e+00
   12685,    9.009689e+00,   -6.250000e+01,   -4.338837e+00
   12686,    9.009689e+00,   -6.500000e+01,   -4.338837e+00
   12687,    9.009689e+00,   -6.750000e+01,   -4.338837e+00
   12688,    9.009689e+00,   -7.000000e+01,   -4.338837e+00
   12689,    9.009689e+00,   -7.250000e+01,   -4.338837e+00
   12690,    9.009689e+00,   -7.500000e+01,   -4.338837e+00
   12691,    9.009689e+00,   -7.750000e+01,   -4.338837e+00
   12692,    9.749279e+00,   -2.500000e+00,   -2.225209e+00
   12693,    9.749279e+00,   -5.000000e+00,   -2.225209e+00
   12694,    9.749279e+00,   -7.500000e+00,   -2.225209e+00
   12695,    9.749279e+00,   -1.000000e+01,   -2.225209e+00
   12696,    9.749279e+00,   -1.250000e+01,   -2.225209e+00
   12697,    9.749279e+00,   -1.500000e+01,   -2.225209e+00
   12698,    9.749279e+00,   -1.750000e+01,   -2.225209e+00
   12699,    9.749279e+00,   -2.000000e+01,   -2.225209e+00
   12700,    9.749279e+00,   -2.250000e+01,   -2.225209e+00
   12701,    9.749279e+00,   -2.500000e+01,   -2.225209e+00
   12702,    9.749279e+00,   -2.750000e+01,   -2.225209e+00
   12703,    9.749279e+00,   -3.000000e+01,   -2.225209e+00
   12704,    9.749279e+00,   -3.250000e+01,   -2.225209e+00
   12705,    9.749279e+00,   -3.500000e+01,   -2.225209e+00
   12706,    9.749279e+00,   -3.750000e+01,   -2.225209e+00
   12707,    9.749279e+00,   -4.000000e+01,   -2.225209e+00
   12708,    9.749279e+00,   -4.250000e+01,   -2.225209e+00
   12709,    9.749279e+00,   -4.500000e+01,   -2.225209e+00
   12710,    9.749279e+00,   -4.750000e+01,   -2.225209e+00
   12711,    9.749279e+00,   -5.000000e+01,   -2.225209e+00
   12712,    9.749279e+00,   -5.250000e+01,   -2.225209e+00
   12713,    9.749279e+00,   -5.500000e+01,   -2.225209e+00
   12714,    9.749279e+00,   -5.750000e+01,   -2.225209e+00
   12715,    9.749279e+00,   -6.000000e+01,   -2.225209e+00
   12716,    9.749279e+00,   -6.250000e+01,   -2.225209e+00
   12717,    9.749279e+00,   -6.500000e+01,   -2.225209e+00
   12718,    9.749279e+00,   -6.750000e+01,   -2.225209e+00
   12719,    9.749279e+00,   -7.000000e+01,   -2.225209e+00
   12720,    9.749279e+00,   -7.250000e+01,   -2.225209e+00
   12721,    9.749279e+00,   -7.500000e+01,   -2.225209e+00
   12722,    9.749279e+00,   -7.750000e+01,   -2.225209e+00
   15033,   -1.000000e+01,    1.499760e-31,    0.000000e+00
   15034,   -9.749279e+00,   -1.362548e-16,   -2.225209e+00
   15035,   -9.009689e+00,   -2.656772e-16,   -4.338837e+00
   15036,   -7.818315e+00,   -3.817774e-16,   -6.234898e+00
   15037,   -6.234898e+00,   -4.787337e-16,   -7.818315e+00
   15038,   -4.338837e+00,   -5.516843e-16,   -9.009689e+00
   15039,   -2.225209e+00,   -5.969712e-16,   -9.749279e+00
   15040,   -1.000000e+01,   -8.000000e+01,    0.000000e+00
   15041,   -1.000000e+01,   -7.750000e+01,    2.296213e-15
   15042,   -1.000000e+01,   -7.500000e+01,    2.143132e-15
   15043,   -1.000000e+01,   -7.250000e+01,    1.990051e-15
   15044,   -1.000000e+01,   -7.000000e+01,    1.836970e-15
   15045,   -1.000000e+01,   -6.750000e+01,    1.683889e-15
   15046,   -1.000000e+01,   -6.500000e+01,    1.530808e-15
   15047,   -1.000000e+01,   -6.250000e+01,    1.377728e-15
   15048,   -1.000000e+01,   -6.000000e+01,    1.224647e-15
   15049,   -1.000000e+01,   -5.750000e+01,    1.071566e-15
   15050,   -1.000000e+01,   -5.500000e+01,    9.184851e-16
   15051,   -1.000000e+01,   -5.250000e+01,    7.654042e-16
   15052,   -1.000000e+01,   -5.000000e+01,    6.123234e-16
   15053,   -1.000000e+01,   -4.750000e+01,    4.592425e-16
   15054,   -1.000000e+01,   -4.500000e+01,    3.061617e-16
   15055,   -1.000000e+01,   -4.250000e+01,    1.530808e-16
   15056,   -1.000000e+01,   -4.000000e+01,    0.000000e+00
   15057,   -1.000000e+01,   -3.750000e+01,   -1.530808e-16
   15058,   -1.000000e+01,   -3.500000e+01,   -3.061617e-16
   15059,   -1.000000e+01,   -3.250000e+01,   -4.592425e-16
   15060,   -1.000000e+01,   -3.000000e+01,   -6.123234e-16
   15061,   -1.000000e+01,   -2.750000e+01,   -7.654042e-16
   15062,   -1.000000e+01,   -2.500000e+01,   -9.184851e-16
   15063,   -1.000000e+01,   -2.250000e+01,   -1.071566e-15
   15064,   -1.000000e+01,   -2.000000e+01,   -1.224647e-15
   15065,   -1.000000e+01,   -1.750000e+01,   -1.377728e-15
   15066,   -1.000000e+01,   -1.500000e+01,   -1.530808e-15
   15067,   -1.000000e+01,   -1.250000e+01,   -1.683889e-15
   15068,   -1.000000e+01,   -1.000000e+01,   -1.836970e-15
   15069,   -1.000000e+01,   -7.500000e+00,   -1.990051e-15
   15070,   -1.000000e+01,   -5.000000e+00,   -2.143132e-15
   15071,   -1.000000e+01,   -2.500000e+00,   -2.296213e-15
   15072,   -2.225209e+00,   -8.000000e+01,   -9.749279e+00
   15073,   -4.338837e+00,   -8.000000e+01,   -9.009689e+00
   15074,   -6.234898e+00,   -8.000000e+01,   -7.818315e+00
   15075,   -7.818315e+00,   -8.000000e+01,   -6.234898e+00
   15076,   -9.009689e+00,   -8.000000e+01,   -4.338837e+00
   15077,   -9.749279e+00,   -8.000000e+01,   -2.225209e+00
   15078,   -2.225209e+00,   -7.750000e+01,   -9.749279e+00
   15079,   -2.225209e+00,   -7.500000e+01,   -9.749279e+00
   15080,   -2.225209e+00,   -7.250000e+01,   -9.749279e+00
   15081,   -2.225209e+00,   -7.000000e+01,   -9.749279e+00
   15082,   -2.225209e+00,   -6.750000e+01,   -9.749279e+00
   15083,   -2.225209e+00,   -6.500000e+01,   -9.749279e+00
   15084,   -2.225209e+00,   -6.250000e+01,   -9.749279e+00
   15085,   -2.225209e+00,   -6.000000e+01,   -9.749279e+00
   15086,   -2.225209e+00,   -5.750000e+01,   -9.749279e+00
   15087,   -2.225209e+00,   -5.500000e+01,   -9.749279e+00
   15088,   -2.225209e+00,   -5.250000e+01,   -9.749279e+00
   15089,   -2.225209e+00,   -5.000000e+01,   -9.749279e+00
   15090,   -2.225209e+00,   -4.750000e+01,   -9.749279e+00
   15091,   -2.225209e+00,   -4.500000e+01,   -9.749279e+00
   15092,   -2.225209e+00,   -4.250000e+01,   -9.749279e+00
   15093,   -2.225209e+00,   -4.000000e+01,   -9.749279e+00
   15094,   -2.225209e+00,   -3.750000e+01,   -9.749279e+00
   15095,   -2.225209e+00,   -3.500000e+01,   -9.749279e+00
   15096,   -2.225209e+00,   -3.250000e+01,   -9.749279e+00
   15097,   -2.225209e+00,   -3.000000e+01,   -9.749279e+00
   15098,   -2.225209e+00,   -2.750000e+01,   -9.749279e+00
   15099,   -2.225209e+00,   -2.500000e+01,   -9.749279e+00
   15100,   -2.225209e+00,   -2.250000e+01,   -9.749279e+00
   15101,   -2.225209e+00,   -2.000000e+01,   -9.749279e+00
   15102,   -2.225209e+00,   -1.750000e+01,   -9.749279e+00
   15103,   -2.225209e+00,   -1.500000e+01,   -9.749279e+00
   15104,   -2.225209e+00,   -1.250000e+01,   -9.749279e+00
   15105,   -2.225209e+00,   -1.000000e+01,   -9.749279e+00
   15106,   -2.225209e+00,   -7.500000e+00,   -9.749279e+00
   15107,   -2.225209e+00,   -5.000000e+00,   -9.749279e+00
   15108,   -2.225209e+00,   -2.500000e+00,   -9.749279e+00
   15109,   -4.338837e+00,   -7.750000e+01,   -9.009689e+00
   15110,   -4.338837e+00,   -7.500000e+01,   -9.009689e+00
   15111,   -4.338837e+00,   -7.250000e+01,   -9.009689e+00
   15112,   -4.338837e+00,   -7.000000e+01,   -9.009689e+00
   15113,   -4.338837e+00,   -6.750000e+01,   -9.009689e+00
   15114,   -4.338837e+00,   -6.500000e+01,   -9.009689e+00
   15115,   -4.338837e+00,   -6.250000e+01,   -9.009689e+00
   15116,   -4.338837e+00,   -6.000000e+01,   -9.009689e+00
   15117,   -4.338837e+00,   -5.750000e+01,   -9.009689e+00
   15118,   -4.338837e+00,   -5.500000e+01,   -9.009689e+00
   15119,   -4.338837e+00,   -5.250000e+01,   -9.009689e+00
   15120,   -4.338837e+00,   -5.000000e+01,   -9.009689e+00
   15121,   -4.338837e+00,   -4.750000e+01,   -9.009689e+00
   15122,   -4.338837e+00,   -4.500000e+01,   -9.009689e+00
   15123,   -4.338837e+00,   -4.250000e+01,   -9.009689e+00
   15124,   -4.338837e+00,   -4.000000e+01,   -9.009689e+00
   15125,   -4.338837e+00,   -3.750000e+01,   -9.009689e+00
   15126,   -4.338837e+00,   -3.500000e+01,   -9.009689e+00
   15127,   -4.338837e+00,   -3.250000e+01,   -9.009689e+00
   15128,   -4.338837e+00,   -3.000000e+01,   -9.009689e+00
   15129,   -4.338837e+00,   -2.750000e+01,   -9.009689e+00
   15130,   -4.338837e+00,   -2.500000e+01,   -9.009689e+00
   15131,   -4.338837e+00,   -2.250000e+01,   -9.009689e+00
   15132,   -4.338837e+00,   -2.000000e+01,   -9.009689e+00
   15133,   -4.338837e+00,   -1.750000e+01,   -9.009689e+00
   15134,   -4.338837e+00,   -1.500000e+01,   -9.009689e+00
   15135,   -4.338837e+00,   -1.250000e+01,   -9.009689e+00
   15136,   -4.338837e+00,   -1.000000e+01,   -9.009689e+00
   15137,   -4.338837e+00,   -7.500000e+00,   -9.009689e+00
   15138,   -4.338837e+00,   -5.000000e+00,   -9.009689e+00
   15139,   -4.338837e+00,   -2.500000e+00,   -9.009689e+00
   15140,   -6.234898e+00,   -7.750000e+01,   -7.818315e+00
   15141,   -6.234898e+00,   -7.500000e+01,   -7.818315e+00
   15142,   -6.234898e+00,   -7.250000e+01,   -7.818315e+00
   15143,   -6.234898e+00,   -7.000000e+01,   -7.818315e+00
   15144,   -6.234898e+00,   -6.750000e+01,   -7.818315e+00
   15145,   -6.234898e+00,   -6.500000e+01,   -7.818315e+00
   15146,   -6.234898e+00,   -6.250000e+01,   -7.818315e+00
   15147,   -6.234898e+00,   -6.000000e+01,   -7.818315e+00
   15148,   -6.234898e+00,   -5.750000e+01,   -7.818315e+00
   15149,   -6.234898e+00,   -5.500000e+01,   -7.818315e+00
   15150,   -6.234898e+00,   -5.250000e+01,   -7.818315e+00
   15151,   -6.234898e+00,   -5.000000e+01,   -7.818315e+00
   15152,   -6.234898e+00,   -4.750000e+01,   -7.818315e+00
   15153,   -6.234898e+00,   -4.500000e+01,   -7.818315e+00
   15154,   -6.234898e+00,   -4.250000e+01,   -7.818315e+00
   15155,   -6.234898e+00,   -4.000000e+01,   -7.818315e+00
   15156,   -6.234898e+00,   -3.750000e+01,   -7.818315e+00
   15157,   -6.234898e+00,   -3.500000e+01,   -7.818315e+00
   15158,   -6.234898e+00,   -3.250000e+01,   -7.818315e+00
   15159,   -6.234898e+00,   -3.000000e+01,   -7.818315e+00
   15160,   -6.234898e+00,   -2.750000e+01,   -7.818315e+00
   15161,   -6.234898e+00,   -2.500000e+01,   -7.818315e+00
   15162,   -6.234898e+00,   -2.250000e+01,   -7.818315e+00
   15163,   -6.234898e+00,   -2.000000e+01,   -7.818315e+00
   15164,   -6.234898e+00,   -1.750000e+01,   -7.818315e+00
   15165,   -6.234898e+00,   -1.500000e+01,   -7.818315e+00
   15166,   -6.234898e+00,   -1.250000e+01,   -7.818315e+00
   15167,   -6.234898e+00,   -1.000000e+01,   -7.818315e+00
   15168,   -6.234898e+00,   -7.500000e+00,   -7.818315e+00
   15169,   -6.234898e+00,   -5.000000e+00,   -7.818315e+00
   15170,   -6.234898e+00,   -2.500000e+00,   -7.818315e+00
   15171,   -7.818315e+00,   -7.750000e+01,   -6.234898e+00
   15172,   -7.818315e+00,   -7.500000e+01,   -6.234898e+00
   15173,   -7.818315e+00,   -7.250000e+01,   -6.234898e+00
   15174,   -7.818315e+00,   -7.000000e+01,   -6.234898e+00
   15175,   -7.818315e+00,   -6.750000e+01,   -6.234898e+00
   15176,   -7.818315e+00,   -6.500000e+01,   -6.234898e+00
   15177,   -7.818315e+00,   -6.250000e+01,   -6.234898e+00
   15178,   -7.818315e+00,   -6.000000e+01,   -6.234898e+00
   15179,   -7.818315e+00,   -5.750000e+01,   -6.234898e+00
   15180,   -7.818315e+00,   -5.500000e+01,   -6.234898e+00
   15181,   -7.818315e+00,   -5.250000e+01,   -6.234898e+00
   15182,   -7.818315e+00,   -5.000000e+01,   -6.234898e+00
   15183,   -7.818315e+00,   -4.750000e+01,   -6.234898e+00
   15184,   -7.818315e+00,   -4.500000e+01,   -6.234898e+00
   15185,   -7.818315e+00,   -4.250000e+01,   -6.234898e+00
   15186,   -7.818315e+00,   -4.000000e+01,   -6.234898e+00
   15187,   -7.818315e+00,   -3.750000e+01,   -6.234898e+00
   15188,   -7.818315e+00,   -3.500000e+01,   -6.234898e+00
   15189,   -7.818315e+00,   -3.250000e+01,   -6.234898e+00
   15190,   -7.818315e+00,   -3.000000e+01,   -6.234898e+00
   15191,   -7.818315e+00,   -2.750000e+01,   -6.234898e+00
   15192,   -7.818315e+00,   -2.500000e+01,   -6.234898e+00
   15193,   -7.818315e+00,   -2.250000e+01,   -6.234898e+00
   15194,   -7.818315e+00,   -2.000000e+01,   -6.234898e+00
   15195,   -7.818315e+00,   -1.750000e+01,   -6.234898e+00
   15196,   -7.818315e+00,   -1.500000e+01,   -6.234898e+00
   15197,   -7.818315e+00,   -1.250000e+01,   -6.234898e+00
   15198,   -7.818315e+00,   -1.000000e+01,   -6.234898e+00
   15199,   -7.818315e+00,   -7.500000e+00,   -6.234898e+00
   15200,   -7.818315e+00,   -5.000000e+00,   -6.234898e+00
   15201,   -7.818315e+00,   -2.500000e+00,   -6.234898e+00
   15202,   -9.009689e+00,   -7.750000e+01,   -4.338837e+00
   15203,   -9.009689e+00,   -7.500000e+01,   -4.338837e+00
   15204,   -9.009689e+00,   -7.250000e+01,   -4.338837e+00
   15205,   -9.009689e+00,   -7.000000e+01,   -4.338837e+00
   15206,   -9.009689e+00,   -6.750000e+01,   -4.338837e+00
   15207,   -9.009689e+00,   -6.500000e+01,   -4.338837e+00
   15208,   -9.009689e+00,   -6.250000e+01,   -4.338837e+00
   15209,   -9.009689e+00,   -6.000000e+01,   -4.338837e+00
   15210,   -9.009689e+00,   -5.750000e+01,   -4.338837e+00
   15211,   -9.009689e+00,   -5.500000e+01,   -4.338837e+00
   15212,   -9.009689e+00,   -5.250000e+01,   -4.338837e+00
   15213,   -9.009689e+00,   -5.000000e+01,   -4.338837e+00
   15214,   -9.009689e+00,   -4.750000e+01,   -4.338837e+00
   15215,   -9.009689e+00,   -4.500000e+01,   -4.338837e+00
   15216,   -9.009689e+00,   -4.250000e+01,   -4.338837e+00
   15217,   -9.009689e+00,   -4.000000e+01,   -4.338837e+00
   15218,   -9.009689e+00,   -3.750000e+01,   -4.338837e+00
   15219,   -9.009689e+00,   -3.500000e+01,   -4.338837e+00
   15220,   -9.009689e+00,   -3.250000e+01,   -4.338837e+00
   15221,   -9.009689e+00,   -3.000000e+01,   -4.338837e+00
   15222,   -9.009689e+00,   -2.750000e+01,   -4.338837e+00
   15223,   -9.009689e+00,   -2.500000e+01,   -4.338837e+00
   15224,   -9.009689e+00,   -2.250000e+01,   -4.338837e+00
   15225,   -9.009689e+00,   -2.000000e+01,   -4.338837e+00
   15226,   -9.009689e+00,   -1.750000e+01,   -4.338837e+00
   15227,   -9.009689e+00,   -1.500000e+01,   -4.338837e+00
   15228,   -9.009689e+00,   -1.250000e+01,   -4.338837e+00
   15229,   -9.009689e+00,   -1.000000e+01,   -4.338837e+00
   15230,   -9.009689e+00,   -7.500000e+00,   -4.338837e+00
   15231,   -9.009689e+00,   -5.000000e+00,   -4.338837e+00
   15232,   -9.009689e+00,   -2.500000e+00,   -4.338837e+00
   15233,   -9.749279e+00,   -7.750000e+01,   -2.225209e+00
   15234,   -9.749279e+00,   -7.500000e+01,   -2.225209e+00
   15235,   -9.749279e+00,   -7.250000e+01,   -2.225209e+00
   15236,   -9.749279e+00,   -7.000000e+01,   -2.225209e+00
   15237,   -9.749279e+00,   -6.750000e+01,   -2.225209e+00
   15238,   -9.749279e+00,   -6.500000e+01,   -2.225209e+00
   15239,   -9.749279e+00,   -6.250000e+01,   -2.225209e+00
   15240,   -9.749279e+00,   -6.000000e+01,   -2.225209e+00
   15241,   -9.749279e+00,   -5.750000e+01,   -2.225209e+00
   15242,   -9.749279e+00,   -5.500000e+01,   -2.225209e+00
   15243,   -9.749279e+00,   -5.250000e+01,   -2.225209e+00
   15244,   -9.749279e+00,   -5.000000e+01,   -2.225209e+00
   15245,   -9.749279e+00,   -4.750000e+01,   -2.225209e+00
   15246,   -9.749279e+00,   -4.500000e+01,   -2.225209e+00
   15247,   -9.749279e+00,   -4.250000e+01,   -2.225209e+00
   15248,   -9.749279e+00,   -4.000000e+01,   -2.225209e+00
   15249,   -9.749279e+00,   -3.750000e+01,   -2.225209e+00
   15250,   -9.749279e+00,   -3.500000e+01,   -2.225209e+00
   15251,   -9.749279e+00,   -3.250000e+01,   -2.225209e+00
   15252,   -9.749279e+00,   -3.000000e+01,   -2.225209e+00
   15253,   -9.749279e+00,   -2.750000e+01,   -2.225209e+00
   15254,   -9.749279e+00,   -2.500000e+01,   -2.225209e+00
   15255,   -9.749279e+00,   -2.250000e+01,   -2.225209e+00
   15256,   -9.749279e+00,   -2.000000e+01,   -2.225209e+00
   15257,   -9.749279e+00,   -1.750000e+01,   -2.225209e+00
   15258,   -9.749279e+00,   -1.500000e+01,   -2.225209e+00
   15259,   -9.749279e+00,   -1.250000e+01,   -2.225209e+00
   15260,   -9.749279e+00,   -1.000000e+01,   -2.225209e+00
   15261,   -9.749279e+00,   -7.500000e+00,   -2.225209e+00
   15262,   -9.749279e+00,   -5.000000e+00,   -2.225209e+00
   15263,   -9.749279e+00,   -2.500000e+00,   -2.225209e+00
   15264,   -1.100000e+01,    1.499760e-31,    0.000000e+00
   15265,   -2.447730e+00,   -6.566683e-16,   -1.072421e+01
   15266,   -4.772721e+00,   -6.068528e-16,   -9.910658e+00
   15267,   -6.858388e+00,   -5.266071e-16,   -8.600146e+00
   15268,   -8.600146e+00,   -4.199551e-16,   -6.858388e+00
   15269,   -9.910658e+00,   -2.922449e-16,   -4.772721e+00
   15270,   -1.072421e+01,   -1.498803e-16,   -2.447730e+00
   15271,   -1.100000e+01,   -8.000000e+01,    0.000000e+00
   15272,   -1.100000e+01,   -2.500000e+00,   -2.296213e-15
   15273,   -1.100000e+01,   -5.000000e+00,   -2.143132e-15
   15274,   -1.100000e+01,   -7.500000e+00,   -1.990051e-15
   15275,   -1.100000e+01,   -1.000000e+01,   -1.836970e-15
   15276,   -1.100000e+01,   -1.250000e+01,   -1.683889e-15
   15277,   -1.100000e+01,   -1.500000e+01,   -1.530808e-15
   15278,   -1.100000e+01,   -1.750000e+01,   -1.377728e-15
   15279,   -1.100000e+01,   -2.000000e+01,   -1.224647e-15
   15280,   -1.100000e+01,   -2.250000e+01,   -1.071566e-15
   15281,   -1.100000e+01,   -2.500000e+01,   -9.184851e-16
   15282,   -1.100000e+01,   -2.750000e+01,   -7.654042e-16
   15283,   -1.100000e+01,   -3.000000e+01,   -6.123234e-16
   15284,   -1.100000e+01,   -3.250000e+01,   -4.592425e-16
   15285,   -1.100000e+01,   -3.500000e+01,   -3.061617e-16
   15286,   -1.100000e+01,   -3.750000e+01,   -1.530808e-16
   15287,   -1.100000e+01,   -4.000000e+01,    0.000000e+00
   15288,   -1.100000e+01,   -4.250000e+01,    1.530808e-16
   15289,   -1.100000e+01,   -4.500000e+01,    3.061617e-16
   15290,   -1.100000e+01,   -4.750000e+01,    4.592425e-16
   15291,   -1.100000e+01,   -5.000000e+01,    6.123234e-16
   15292,   -1.100000e+01,   -5.250000e+01,    7.654042e-16
   15293,   -1.100000e+01,   -5.500000e+01,    9.184851e-16
   15294,   -1.100000e+01,   -5.750000e+01,    1.071566e-15
   15295,   -1.100000e+01,   -6.000000e+01,    1.224647e-15
   15296,   -1.100000e+01,   -6.250000e+01,    1.377728e-15
   15297,   -1.100000e+01,   -6.500000e+01,    1.530808e-15
   15298,   -1.100000e+01,   -6.750000e+01,    1.683889e-15
   15299,   -1.100000e+01,   -7.000000e+01,    1.836970e-15
   15300,   -1.100000e+01,   -7.250000e+01,    1.990051e-15
   15301,   -1.100000e+01,   -7.500000e+01,    2.143132e-15
   15302,   -1.100000e+01,   -7.750000e+01,    2.296213e-15
   15303,   -1.072421e+01,   -8.000000e+01,   -2.447730e+00
   15304,   -9.910658e+00,   -8.000000e+01,   -4.772721e+00
   15305,   -8.600146e+00,   -8.000000e+01,   -6.858388e+00
   15306,   -6.858388e+00,   -8.000000e+01,   -8.600146e+00
   15307,   -4.772721e+00,   -8.000000e+01,   -9.910658e+00
   15308,   -2.447730e+00,   -8.000000e+01,   -1.072421e+01
   15309,   -2.447730e+00,   -2.500000e+00,   -1.072421e+01
   15310,   -2.447730e+00,   -5.000000e+00,   -1.072421e+01
   15311,   -2.447730e+00,   -7.500000e+00,   -1.072421e+01
   15312,   -2.447730e+00,   -1.000000e+01,   -1.072421e+01
   15313,   -2.447730e+00,   -1.250000e+01,   -1.072421e+01
   15314,   -2.447730e+00,   -1.500000e+01,   -1.072421e+01
   15315,   -2.447730e+00,   -1.750000e+01,   -1.072421e+01
   15316,   -2.447730e+00,   -2.000000e+01,   -1.072421e+01
   15317,   -2.447730e+00,   -2.250000e+01,   -1.072421e+01
   15318,   -2.447730e+00,   -2.500000e+01,   -1.072421e+01
   15319,   -2.447730e+00,   -2.750000e+01,   -1.072421e+01
   15320,   -2.447730e+00,   -3.000000e+01,   -1.072421e+01
   15321,   -2.447730e+00,   -3.250000e+01,   -1.072421e+01
   15322,   -2.447730e+00,   -3.500000e+01,   -1.072421e+01
   15323,   -2.447730e+00,   -3.750000e+01,   -1.072421e+01
   15324,   -2.447730e+00,   -4.000000e+01,   -1.072421e+01
   15325,   -2.447730e+00,   -4.250000e+01,   -1.072421e+01
   15326,   -2.447730e+00,   -4.500000e+01,   -1.072421e+01
   15327,   -2.447730e+00,   -4.750000e+01,   -1.072421e+01
   15328,   -2.447730e+00,   -5.000000e+01,   -1.072421e+01
   15329,   -2.447730e+00,   -5.250000e+01,   -1.072421e+01
   15330,   -2.447730e+00,   -5.500000e+01,   -1.072421e+01
   15331,   -2.447730e+00,   -5.750000e+01,   -1.072421e+01
   15332,   -2.447730e+00,   -6.000000e+01,   -1.072421e+01
   15333,   -2.447730e+00,   -6.250000e+01,   -1.072421e+01
   15334,   -2.447730e+00,   -6.500000e+01,   -1.072421e+01
   15335,   -2.447730e+00,   -6.750000e+01,   -1.072421e+01
   15336,   -2.447730e+00,   -7.000000e+01,   -1.072421e+01
   15337,   -2.447730e+00,   -7.250000e+01,   -1.072421e+01
   15338,   -2.447730e+00,   -7.500000e+01,   -1.072421e+01
   15339,   -2.447730e+00,   -7.750000e+01,   -1.072421e+01
   15340,   -4.772721e+00,   -2.500000e+00,   -9.910658e+00
   15341,   -4.772721e+00,   -5.000000e+00,   -9.910658e+00
   15342,   -4.772721e+00,   -7.500000e+00,   -9.910658e+00
   15343,   -4.772721e+00,   -1.000000e+01,   -9.910658e+00
   15344,   -4.772721e+00,   -1.250000e+01,   -9.910658e+00
   15345,   -4.772721e+00,   -1.500000e+01,   -9.910658e+00
   15346,   -4.772721e+00,   -1.750000e+01,   -9.910658e+00
   15347,   -4.772721e+00,   -2.000000e+01,   -9.910658e+00
   15348,   -4.772721e+00,   -2.250000e+01,   -9.910658e+00
   15349,   -4.772721e+00,   -2.500000e+01,   -9.910658e+00
   15350,   -4.772721e+00,   -2.750000e+01,   -9.910658e+00
   15351,   -4.772721e+00,   -3.000000e+01,   -9.910658e+00
   15352,   -4.772721e+00,   -3.250000e+01,   -9.910658e+00
   15353,   -4.772721e+00,   -3.500000e+01,   -9.910658e+00
   15354,   -4.772721e+00,   -3.750000e+01,   -9.910658e+00
   15355,   -4.772721e+00,   -4.000000e+01,   -9.910658e+00
   15356,   -4.772721e+00,   -4.250000e+01,   -9.910658e+00
   15357,   -4.772721e+00,   -4.500000e+01,   -9.910658e+00
   15358,   -4.772721e+00,   -4.750000e+01,   -9.910658e+00
   15359,   -4.772721e+00,   -5.000000e+01,   -9.910658e+00
   15360,   -4.772721e+00,   -5.250000e+01,   -9.910658e+00
   15361,   -4.772721e+00,   -5.500000e+01,   -9.910658e+00
   15362,   -4.772721e+00,   -5.750000e+01,   -9.910658e+00
   15363,   -4.772721e+00,   -6.000000e+01,   -9.910658e+00
   15364,   -4.772721e+00,   -6.250000e+01,   -9.910658e+00
   15365,   -4.772721e+00,   -6.500000e+01,   -9.910658e+00
   15366,   -4.772721e+00,   -6.750000e+01,   -9.910658e+00
   15367,   -4.772721e+00,   -7.000000e+01,   -9.910658e+00
   15368,   -4.772721e+00,   -7.250000e+01,   -9.910658e+00
   15369,   -4.772721e+00,   -7.500000e+01,   -9.910658e+00
   15370,   -4.772721e+00,   -7.750000e+01,   -9.910658e+00
   15371,   -6.858388e+00,   -2.500000e+00,   -8.600146e+00
   15372,   -6.858388e+00,   -5.000000e+00,   -8.600146e+00
   15373,   -6.858388e+00,   -7.500000e+00,   -8.600146e+00
   15374,   -6.858388e+00,   -1.000000e+01,   -8.600146e+00
   15375,   -6.858388e+00,   -1.250000e+01,   -8.600146e+00
   15376,   -6.858388e+00,   -1.500000e+01,   -8.600146e+00
   15377,   -6.858388e+00,   -1.750000e+01,   -8.600146e+00
   15378,   -6.858388e+00,   -2.000000e+01,   -8.600146e+00
   15379,   -6.858388e+00,   -2.250000e+01,   -8.600146e+00
   15380,   -6.858388e+00,   -2.500000e+01,   -8.600146e+00
   15381,   -6.858388e+00,   -2.750000e+01,   -8.600146e+00
   15382,   -6.858388e+00,   -3.000000e+01,   -8.600146e+00
   15383,   -6.858388e+00,   -3.250000e+01,   -8.600146e+00
   15384,   -6.858388e+00,   -3.500000e+01,   -8.600146e+00
   15385,   -6.858388e+00,   -3.750000e+01,   -8.600146e+00
   15386,   -6.858388e+00,   -4.000000e+01,   -8.600146e+00
   15387,   -6.858388e+00,   -4.250000e+01,   -8.600146e+00
   15388,   -6.858388e+00,   -4.500000e+01,   -8.600146e+00
   15389,   -6.858388e+00,   -4.750000e+01,   -8.600146e+00
   15390,   -6.858388e+00,   -5.000000e+01,   -8.600146e+00
   15391,   -6.858388e+00,   -5.250000e+01,   -8.600146e+00
   15392,   -6.858388e+00,   -5.500000e+01,   -8.600146e+00
   15393,   -6.858388e+00,   -5.750000e+01,   -8.600146e+00
   15394,   -6.858388e+00,   -6.000000e+01,   -8.600146e+00
   15395,   -6.858388e+00,   -6.250000e+01,   -8.600146e+00
   15396,   -6.858388e+00,   -6.500000e+01,   -8.600146e+00
   15397,   -6.858388e+00,   -6.750000e+01,   -8.600146e+00
   15398,   -6.858388e+00,   -7.000000e+01,   -8.600146e+00
   15399,   -6.858388e+00,   -7.250000e+01,   -8.600146e+00
   15400,   -6.858388e+00,   -7.500000e+01,   -8.600146e+00
   15401,   -6.858388e+00,   -7.750000e+01,   -8.600146e+00
   15402,   -8.600146e+00,   -2.500000e+00,   -6.858388e+00
   15403,   -8.600146e+00,   -5.000000e+00,   -6.858388e+00
   15404,   -8.600146e+00,   -7.500000e+00,   -6.858388e+00
   15405,   -8.600146e+00,   -1.000000e+01,   -6.858388e+00
   15406,   -8.600146e+00,   -1.250000e+01,   -6.858388e+00
   15407,   -8.600146e+00,   -1.500000e+01,   -6.858388e+00
   15408,   -8.600146e+00,   -1.750000e+01,   -6.858388e+00
   15409,   -8.600146e+00,   -2.000000e+01,   -6.858388e+00
   15410,   -8.600146e+00,   -2.250000e+01,   -6.858388e+00
   15411,   -8.600146e+00,   -2.500000e+01,   -6.858388e+00
   15412,   -8.600146e+00,   -2.750000e+01,   -6.858388e+00
   15413,   -8.600146e+00,   -3.000000e+01,   -6.858388e+00
   15414,   -8.600146e+00,   -3.250000e+01,   -6.858388e+00
   15415,   -8.600146e+00,   -3.500000e+01,   -6.858388e+00
   15416,   -8.600146e+00,   -3.750000e+01,   -6.858388e+00
   15417,   -8.600146e+00,   -4.000000e+01,   -6.858388e+00
   15418,   -8.600146e+00,   -4.250000e+01,   -6.858388e+00
   15419,   -8.600146e+00,   -4.500000e+01,   -6.858388e+00
   15420,   -8.600146e+00,   -4.750000e+01,   -6.858388e+00
   15421,   -8.600146e+00,   -5.000000e+01,   -6.858388e+00
   15422,   -8.600146e+00,   -5.250000e+01,   -6.858388e+00
   15423,   -8.600146e+00,   -5.500000e+01,   -6.858388e+00
   15424,   -8.600146e+00,   -5.750000e+01,   -6.858388e+00
   15425,   -8.600146e+00,   -6.000000e+01,   -6.858388e+00
   15426,   -8.600146e+00,   -6.250000e+01,   -6.858388e+00
   15427,   -8.600146e+00,   -6.500000e+01,   -6.858388e+00
   15428,   -8.600146e+00,   -6.750000e+01,   -6.858388e+00
   15429,   -8.600146e+00,   -7.000000e+01,   -6.858388e+00
   15430,   -8.600146e+00,   -7.250000e+01,   -6.858388e+00
   15431,   -8.600146e+00,   -7.500000e+01,   -6.858388e+00
   15432,   -8.600146e+00,   -7.750000e+01,   -6.858388e+00
   15433,   -9.910658e+00,   -2.500000e+00,   -4.772721e+00
   15434,   -9.910658e+00,   -5.000000e+00,   -4.772721e+00
   15435,   -9.910658e+00,   -7.500000e+00,   -4.772721e+00
   15436,   -9.910658e+00,   -1.000000e+01,   -4.772721e+00
   15437,   -9.910658e+00,   -1.250000e+01,   -4.772721e+00
   15438,   -9.910658e+00,   -1.500000e+01,   -4.772721e+00
   15439,   -9.910658e+00,   -1.750000e+01,   -4.772721e+00
   15440,   -9.910658e+00,   -2.000000e+01,   -4.772721e+00
   15441,   -9.910658e+00,   -2.250000e+01,   -4.772721e+00
   15442,   -9.910658e+00,   -2.500000e+01,   -4.772721e+00
   15443,   -9.910658e+00,   -2.750000e+01,   -4.772721e+00
   15444,   -9.910658e+00,   -3.000000e+01,   -4.772721e+00
   15445,   -9.910658e+00,   -3.250000e+01,   -4.772721e+00
   15446,   -9.910658e+00,   -3.500000e+01,   -4.772721e+00
   15447,   -9.910658e+00,   -3.750000e+01,   -4.772721e+00
   15448,   -9.910658e+00,   -4.000000e+01,   -4.772721e+00
   15449,   -9.910658e+00,   -4.250000e+01,   -4.772721e+00
   15450,   -9.910658e+00,   -4.500000e+01,   -4.772721e+00
   15451,   -9.910658e+00,   -4.750000e+01,   -4.772721e+00
   15452,   -9.910658e+00,   -5.000000e+01,   -4.772721e+00
   15453,   -9.910658e+00,   -5.250000e+01,   -4.772721e+00
   15454,   -9.910658e+00,   -5.500000e+01,   -4.772721e+00
   15455,   -9.910658e+00,   -5.750000e+01,   -4.772721e+00
   15456,   -9.910658e+00,   -6.000000e+01,   -4.772721e+00
   15457,   -9.910658e+00,   -6.250000e+01,   -4.772721e+00
   15458,   -9.910658e+00,   -6.500000e+01,   -4.772721e+00
   15459,   -9.910658e+00,   -6.750000e+01,   -4.772721e+00
   15460,   -9.910658e+00,   -7.000000e+01,   -4.772721e+00
   15461,   -9.910658e+00,   -7.250000e+01,   -4.772721e+00
   15462,   -9.910658e+00,   -7.500000e+01,   -4.772721e+00
   15463,   -9.910658e+00,   -7.750000e+01,   -4.772721e+00
   15464,   -1.072421e+01,   -2.500000e+00,   -2.447730e+00
   15465,   -1.072421e+01,   -5.000000e+00,   -2.447730e+00
   15466,   -1.072421e+01,   -7.500000e+00,   -2.447730e+00
   15467,   -1.072421e+01,   -1.000000e+01,   -2.447730e+00
   15468,   -1.072421e+01,   -1.250000e+01,   -2.447730e+00
   15469,   -1.072421e+01,   -1.500000e+01,   -2.447730e+00
   15470,   -1.072421e+01,   -1.750000e+01,   -2.447730e+00
   15471,   -1.072421e+01,   -2.000000e+01,   -2.447730e+00
   15472,   -1.072421e+01,   -2.250000e+01,   -2.447730e+00
   15473,   -1.072421e+01,   -2.500000e+01,   -2.447730e+00
   15474,   -1.072421e+01,   -2.750000e+01,   -2.447730e+00
   15475,   -1.072421e+01,   -3.000000e+01,   -2.447730e+00
   15476,   -1.072421e+01,   -3.250000e+01,   -2.447730e+00
   15477,   -1.072421e+01,   -3.500000e+01,   -2.447730e+00
   15478,   -1.072421e+01,   -3.750000e+01,   -2.447730e+00
   15479,   -1.072421e+01,   -4.000000e+01,   -2.447730e+00
   15480,   -1.072421e+01,   -4.250000e+01,   -2.447730e+00
   15481,   -1.072421e+01,   -4.500000e+01,   -2.447730e+00
   15482,   -1.072421e+01,   -4.750000e+01,   -2.447730e+00
   15483,   -1.072421e+01,   -5.000000e+01,   -2.447730e+00
   15484,   -1.072421e+01,   -5.250000e+01,   -2.447730e+00
   15485,   -1.072421e+01,   -5.500000e+01,   -2.447730e+00
   15486,   -1.072421e+01,   -5.750000e+01,   -2.447730e+00
   15487,   -1.072421e+01,   -6.000000e+01,   -2.447730e+00
   15488,   -1.072421e+01,   -6.250000e+01,   -2.447730e+00
   15489,   -1.072421e+01,   -6.500000e+01,   -2.447730e+00
   15490,   -1.072421e+01,   -6.750000e+01,   -2.447730e+00
   15491,   -1.072421e+01,   -7.000000e+01,   -2.447730e+00
   15492,   -1.072421e+01,   -7.250000e+01,   -2.447730e+00
   15493,   -1.072421e+01,   -7.500000e+01,   -2.447730e+00
   15494,   -1.072421e+01,   -7.750000e+01,   -2.447730e+00
********************************** E L E M E N T S ****************************
*ELEMENT, TYPE=C3D8I, ELSET=anchor
       1,    5771,    5741,    5722,    5762,    5429,    5355,    5354,    5430
       2,    5772,    5760,    5741,    5771,    5431,    5356,    5355,    5429
       3,    5622,    5564,    5760,    5772,    5327,    5326,    5356,    5431
       4,    5770,    5603,    5622,    5772,    5432,    5328,    5327,    5431
       5,    5769,    5770,    5772,    5771,    5433,    5432,    5431,    5429
       6,    5761,    5769,    5771,    5762,    5434,    5433,    5429,    5430
       7,    5768,    5584,    5603,    5770,    5435,    5329,    5328,    5432
       8,    5767,    5768,    5770,    5769,    5436,    5435,    5432,    5433
       9,    5763,    5767,    5769,    5761,    5437,    5436,    5433,    5434
      10,    5766,    5565,    5584,    5768,    5438,    5330,    5329,    5435
      11,    5765,    5766,    5768,    5767,    5439,    5438,    5435,    5436
      12,    5764,    5765,    5767,    5763,    5440,    5439,    5436,    5437
      13,    5522,    5465,    5565,    5766,    5309,    5306,    5330,    5438
      14,    5503,    5522,    5766,    5765,    5308,    5309,    5438,    5439
      15,    5484,    5503,    5765,    5764,    5307,    5308,    5439,    5440
      16,    5665,    5460,    5484,    5764,    5351,    5301,    5307,    5440
      17,    5684,    5665,    5764,    5763,    5352,    5351,    5440,    5437
      18,    5703,    5684,    5763,    5761,    5353,    5352,    5437,    5434
      19,    5722,    5703,    5761,    5762,    5354,    5353,    5434,    5430
      20,    5783,    5740,    5721,    5774,    5771,    5741,    5722,    5762
      21,    5784,    5759,    5740,    5783,    5772,    5760,    5741,    5771
      22,    5623,    5563,    5759,    5784,    5622,    5564,    5760,    5772
      23,    5782,    5604,    5623,    5784,    5770,    5603,    5622,    5772
      24,    5781,    5782,    5784,    5783,    5769,    5770,    5772,    5771
      25,    5773,    5781,    5783,    5774,    5761,    5769,    5771,    5762
      26,    5780,    5585,    5604,    5782,    5768,    5584,    5603,    5770
      27,    5779,    5780,    5782,    5781,    5767,    5768,    5770,    5769
      28,    5775,    5779,    5781,    5773,    5763,    5767,    5769,    5761
      29,    5778,    5566,    5585,    5780,    5766,    5565,    5584,    5768
      30,    5777,    5778,    5780,    5779,    5765,    5766,    5768,    5767
      31,    5776,    5777,    5779,    5775,    5764,    5765,    5767,    5763
      32,    5523,    5466,    5566,    5778,    5522,    5465,    5565,    5766
      33,    5504,    5523,    5778,    5777,    5503,    5522,    5766,    5765
      34,    5485,    5504,    5777,    5776,    5484,    5503,    5765,    5764
      35,    5664,    5459,    5485,    5776,    5665,    5460,    5484,    5764
      36,    5683,    5664,    5776,    5775,    5684,    5665,    5764,    5763
      37,    5702,    5683,    5775,    5773,    5703,    5684,    5763,    5761
      38,    5721,    5702,    5773,    5774,    5722,    5703,    5761,    5762
      39,    5795,    5739,    5720,    5786,    5783,    5740,    5721,    5774
      40,    5796,    5758,    5739,    5795,    5784,    5759,    5740,    5783
      41,    5624,    5562,    5758,    5796,    5623,    5563,    5759,    5784
      42,    5794,    5605,    5624,    5796,    5782,    5604,    5623,    5784
      43,    5793,    5794,    5796,    5795,    5781,    5782,    5784,    5783
      44,    5785,    5793,    5795,    5786,    5773,    5781,    5783,    5774
      45,    5792,    5586,    5605,    5794,    5780,    5585,    5604,    5782
      46,    5791,    5792,    5794,    5793,    5779,    5780,    5782,    5781
      47,    5787,    5791,    5793,    5785,    5775,    5779,    5781,    5773
      48,    5790,    5567,    5586,    5792,    5778,    5566,    5585,    5780
      49,    5789,    5790,    5792,    5791,    5777,    5778,    5780,    5779
      50,    5788,    5789,    5791,    5787,    5776,    5777,    5779,    5775
      51,    5524,    5467,    5567,    5790,    5523,    5466,    5566,    5778
      52,    5505,    5524,    5790,    5789,    5504,    5523,    5778,    5777
      53,    5486,    5505,    5789,    5788,    5485,    5504,    5777,    5776
      54,    5663,    5458,    5486,    5788,    5664,    5459,    5485,    5776
      55,    5682,    5663,    5788,    5787,    5683,    5664,    5776,    5775
      56,    5701,    5682,    5787,    5785,    5702,    5683,    5775,    5773
      57,    5720,    5701,    5785,    5786,    5721,    5702,    5773,    5774
      58,    5807,    5738,    5719,    5798,    5795,    5739,    5720,    5786
      59,    5808,    5757,    5738,    5807,    5796,    5758,    5739,    5795
      60,    5625,    5561,    5757,    5808,    5624,    5562,    5758,    5796
      61,    5806,    5606,    5625,    5808,    5794,    5605,    5624,    5796
      62,    5805,    5806,    5808,    5807,    5793,    5794,    5796,    5795
      63,    5797,    5805,    5807,    5798,    5785,    5793,    5795,    5786
      64,    5804,    5587,    5606,    5806,    5792,    5586,    5605,    5794
      65,    5803,    5804,    5806,    5805,    5791,    5792,    5794,    5793
      66,    5799,    5803,    5805,    5797,    5787,    5791,    5793,    5785
      67,    5802,    5568,    5587,    5804,    5790,    5567,    5586,    5792
      68,    5801,    5802,    5804,    5803,    5789,    5790,    5792,    5791
      69,    5800,    5801,    5803,    5799,    5788,    5789,    5791,    5787
      70,    5525,    5468,    5568,    5802,    5524,    5467,    5567,    5790
      71,    5506,    5525,    5802,    5801,    5505,    5524,    5790,    5789
      72,    5487,    5506,    5801,    5800,    5486,    5505,    5789,    5788
      73,    5662,    5457,    5487,    5800,    5663,    5458,    5486,    5788
      74,    5681,    5662,    5800,    5799,    5682,    5663,    5788,    5787
      75,    5700,    5681,    5799,    5797,    5701,    5682,    5787,    5785
      76,    5719,    5700,    5797,    5798,    5720,    5701,    5785,    5786
      77,    5819,    5737,    5718,    5810,    5807,    5738,    5719,    5798
      78,    5820,    5756,    5737,    5819,    5808,    5757,    5738,    5807
      79,    5626,    5560,    5756,    5820,    5625,    5561,    5757,    5808
      80,    5818,    5607,    5626,    5820,    5806,    5606,    5625,    5808
      81,    5817,    5818,    5820,    5819,    5805,    5806,    5808,    5807
      82,    5809,    5817,    5819,    5810,    5797,    5805,    5807,    5798
      83,    5816,    5588,    5607,    5818,    5804,    5587,    5606,    5806
      84,    5815,    5816,    5818,    5817,    5803,    5804,    5806,    5805
      85,    5811,    5815,    5817,    5809,    5799,    5803,    5805,    5797
      86,    5814,    5569,    5588,    5816,    5802,    5568,    5587,    5804
      87,    5813,    5814,    5816,    5815,    5801,    5802,    5804,    5803
      88,    5812,    5813,    5815,    5811,    5800,    5801,    5803,    5799
      89,    5526,    5469,    5569,    5814,    5525,    5468,    5568,    5802
      90,    5507,    5526,    5814,    5813,    5506,    5525,    5802,    5801
      91,    5488,    5507,    5813,    5812,    5487,    5506,    5801,    5800
      92,    5661,    5456,    5488,    5812,    5662,    5457,    5487,    5800
      93,    5680,    5661,    5812,    5811,    5681,    5662,    5800,    5799
      94,    5699,    5680,    5811,    5809,    5700,    5681,    5799,    5797
      95,    5718,    5699,    5809,    5810,    5719,    5700,    5797,    5798
      96,    5831,    5736,    5717,    5822,    5819,    5737,    5718,    5810
      97,    5832,    5755,    5736,    5831,    5820,    5756,    5737,    5819
      98,    5627,    5559,    5755,    5832,    5626,    5560,    5756,    5820
      99,    5830,    5608,    5627,    5832,    5818,    5607,    5626,    5820
     100,    5829,    5830,    5832,    5831,    5817,    5818,    5820,    5819
     101,    5821,    5829,    5831,    5822,    5809,    5817,    5819,    5810
     102,    5828,    5589,    5608,    5830,    5816,    5588,    5607,    5818
     103,    5827,    5828,    5830,    5829,    5815,    5816,    5818,    5817
     104,    5823,    5827,    5829,    5821,    5811,    5815,    5817,    5809
     105,    5826,    5570,    5589,    5828,    5814,    5569,    5588,    5816
     106,    5825,    5826,    5828,    5827,    5813,    5814,    5816,    5815
     107,    5824,    5825,    5827,    5823,    5812,    5813,    5815,    5811
     108,    5527,    5470,    5570,    5826,    5526,    5469,    5569,    5814
     109,    5508,    5527,    5826,    5825,    5507,    5526,    5814,    5813
     110,    5489,    5508,    5825,    5824,    5488,    5507,    5813,    5812
     111,    5660,    5455,    5489,    5824,    5661,    5456,    5488,    5812
     112,    5679,    5660,    5824,    5823,    5680,    5661,    5812,    5811
     113,    5698,    5679,    5823,    5821,    5699,    5680,    5811,    5809
     114,    5717,    5698,    5821,    5822,    5718,    5699,    5809,    5810
     115,    5843,    5735,    5716,    5834,    5831,    5736,    5717,    5822
     116,    5844,    5754,    5735,    5843,    5832,    5755,    5736,    5831
     117,    5628,    5558,    5754,    5844,    5627,    5559,    5755,    5832
     118,    5842,    5609,    5628,    5844,    5830,    5608,    5627,    5832
     119,    5841,    5842,    5844,    5843,    5829,    5830,    5832,    5831
     120,    5833,    5841,    5843,    5834,    5821,    5829,    5831,    5822
     121,    5840,    5590,    5609,    5842,    5828,    5589,    5608,    5830
     122,    5839,    5840,    5842,    5841,    5827,    5828,    5830,    5829
     123,    5835,    5839,    5841,    5833,    5823,    5827,    5829,    5821
     124,    5838,    5571,    5590,    5840,    5826,    5570,    5589,    5828
     125,    5837,    5838,    5840,    5839,    5825,    5826,    5828,    5827
     126,    5836,    5837,    5839,    5835,    5824,    5825,    5827,    5823
     127,    5528,    5471,    5571,    5838,    5527,    5470,    5570,    5826
     128,    5509,    5528,    5838,    5837,    5508,    5527,    5826,    5825
     129,    5490,    5509,    5837,    5836,    5489,    5508,    5825,    5824
     130,    5659,    5454,    5490,    5836,    5660,    5455,    5489,    5824
     131,    5678,    5659,    5836,    5835,    5679,    5660,    5824,    5823
     132,    5697,    5678,    5835,    5833,    5698,    5679,    5823,    5821
     133,    5716,    5697,    5833,    5834,    5717,    5698,    5821,    5822
     134,    5855,    5734,    5715,    5846,    5843,    5735,    5716,    5834
     135,    5856,    5753,    5734,    5855,    5844,    5754,    5735,    5843
     136,    5629,    5557,    5753,    5856,    5628,    5558,    5754,    5844
     137,    5854,    5610,    5629,    5856,    5842,    5609,    5628,    5844
     138,    5853,    5854,    5856,    5855,    5841,    5842,    5844,    5843
     139,    5845,    5853,    5855,    5846,    5833,    5841,    5843,    5834
     140,    5852,    5591,    5610,    5854,    5840,    5590,    5609,    5842
     141,    5851,    5852,    5854,    5853,    5839,    5840,    5842,    5841
     142,    5847,    5851,    5853,    5845,    5835,    5839,    5841,    5833
     143,    5850,    5572,    5591,    5852,    5838,    5571,    5590,    5840
     144,    5849,    5850,    5852,    5851,    5837,    5838,    5840,    5839
     145,    5848,    5849,    5851,    5847,    5836,    5837,    5839,    5835
     146,    5529,    5472,    5572,    5850,    5528,    5471,    5571,    5838
     147,    5510,    5529,    5850,    5849,    5509,    5528,    5838,    5837
     148,    5491,    5510,    5849,    5848,    5490,    5509,    5837,    5836
     149,    5658,    5453,    5491,    5848,    5659,    5454,    5490,    5836
     150,    5677,    5658,    5848,    5847,    5678,    5659,    5836,    5835
     151,    5696,    5677,    5847,    5845,    5697,    5678,    5835,    5833
     152,    5715,    5696,    5845,    5846,    5716,    5697,    5833,    5834
     153,    5867,    5733,    5714,    5858,    5855,    5734,    5715,    5846
     154,    5868,    5752,    5733,    5867,    5856,    5753,    5734,    5855
     155,    5630,    5556,    5752,    5868,    5629,    5557,    5753,    5856
     156,    5866,    5611,    5630,    5868,    5854,    5610,    5629,    5856
     157,    5865,    5866,    5868,    5867,    5853,    5854,    5856,    5855
     158,    5857,    5865,    5867,    5858,    5845,    5853,    5855,    5846
     159,    5864,    5592,    5611,    5866,    5852,    5591,    5610,    5854
     160,    5863,    5864,    5866,    5865,    5851,    5852,    5854,    5853
     161,    5859,    5863,    5865,    5857,    5847,    5851,    5853,    5845
     162,    5862,    5573,    5592,    5864,    5850,    5572,    5591,    5852
     163,    5861,    5862,    5864,    5863,    5849,    5850,    5852,    5851
     164,    5860,    5861,    5863,    5859,    5848,    5849,    5851,    5847
     165,    5530,    5473,    5573,    5862,    5529,    5472,    5572,    5850
     166,    5511,    5530,    5862,    5861,    5510,    5529,    5850,    5849
     167,    5492,    5511,    5861,    5860,    5491,    5510,    5849,    5848
     168,    5657,    5452,    5492,    5860,    5658,    5453,    5491,    5848
     169,    5676,    5657,    5860,    5859,    5677,    5658,    5848,    5847
     170,    5695,    5676,    5859,    5857,    5696,    5677,    5847,    5845
     171,    5714,    5695,    5857,    5858,    5715,    5696,    5845,    5846
     172,    5879,    5732,    5713,    5870,    5867,    5733,    5714,    5858
     173,    5880,    5751,    5732,    5879,    5868,    5752,    5733,    5867
     174,    5631,    5555,    5751,    5880,    5630,    5556,    5752,    5868
     175,    5878,    5612,    5631,    5880,    5866,    5611,    5630,    5868
     176,    5877,    5878,    5880,    5879,    5865,    5866,    5868,    5867
     177,    5869,    5877,    5879,    5870,    5857,    5865,    5867,    5858
     178,    5876,    5593,    5612,    5878,    5864,    5592,    5611,    5866
     179,    5875,    5876,    5878,    5877,    5863,    5864,    5866,    5865
     180,    5871,    5875,    5877,    5869,    5859,    5863,    5865,    5857
     181,    5874,    5574,    5593,    5876,    5862,    5573,    5592,    5864
     182,    5873,    5874,    5876,    5875,    5861,    5862,    5864,    5863
     183,    5872,    5873,    5875,    5871,    5860,    5861,    5863,    5859
     184,    5531,    5474,    5574,    5874,    5530,    5473,    5573,    5862
     185,    5512,    5531,    5874,    5873,    5511,    5530,    5862,    5861
     186,    5493,    5512,    5873,    5872,    5492,    5511,    5861,    5860
     187,    5656,    5451,    5493,    5872,    5657,    5452,    5492,    5860
     188,    5675,    5656,    5872,    5871,    5676,    5657,    5860,    5859
     189,    5694,    5675,    5871,    5869,    5695,    5676,    5859,    5857
     190,    5713,    5694,    5869,    5870,    5714,    5695,    5857,    5858
     191,    5891,    5731,    5712,    5882,    5879,    5732,    5713,    5870
     192,    5892,    5750,    5731,    5891,    5880,    5751,    5732,    5879
     193,    5632,    5554,    5750,    5892,    5631,    5555,    5751,    5880
     194,    5890,    5613,    5632,    5892,    5878,    5612,    5631,    5880
     195,    5889,    5890,    5892,    5891,    5877,    5878,    5880,    5879
     196,    5881,    5889,    5891,    5882,    5869,    5877,    5879,    5870
     197,    5888,    5594,    5613,    5890,    5876,    5593,    5612,    5878
     198,    5887,    5888,    5890,    5889,    5875,    5876,    5878,    5877
     199,    5883,    5887,    5889,    5881,    5871,    5875,    5877,    5869
     200,    5886,    5575,    5594,    5888,    5874,    5574,    5593,    5876
     201,    5885,    5886,    5888,    5887,    5873,    5874,    5876,    5875
     202,    5884,    5885,    5887,    5883,    5872,    5873,    5875,    5871
     203,    5532,    5475,    5575,    5886,    5531,    5474,    5574,    5874
     204,    5513,    5532,    5886,    5885,    5512,    5531,    5874,    5873
     205,    5494,    5513,    5885,    5884,    5493,    5512,    5873,    5872
     206,    5655,    5450,    5494,    5884,    5656,    5451,    5493,    5872
     207,    5674,    5655,    5884,    5883,    5675,    5656,    5872,    5871
     208,    5693,    5674,    5883,    5881,    5694,    5675,    5871,    5869
     209,    5712,    5693,    5881,    5882,    5713,    5694,    5869,    5870
     210,    5903,    5730,    5711,    5894,    5891,    5731,    5712,    5882
     211,    5904,    5749,    5730,    5903,    5892,    5750,    5731,    5891
     212,    5633,    5553,    5749,    5904,    5632,    5554,    5750,    5892
     213,    5902,    5614,    5633,    5904,    5890,    5613,    5632,    5892
     214,    5901,    5902,    5904,    5903,    5889,    5890,    5892,    5891
     215,    5893,    5901,    5903,    5894,    5881,    5889,    5891,    5882
     216,    5900,    5595,    5614,    5902,    5888,    5594,    5613,    5890
     217,    5899,    5900,    5902,    5901,    5887,    5888,    5890,    5889
     218,    5895,    5899,    5901,    5893,    5883,    5887,    5889,    5881
     219,    5898,    5576,    5595,    5900,    5886,    5575,    5594,    5888
     220,    5897,    5898,    5900,    5899,    5885,    5886,    5888,    5887
     221,    5896,    5897,    5899,    5895,    5884,    5885,    5887,    5883
     222,    5533,    5476,    5576,    5898,    5532,    5475,    5575,    5886
     223,    5514,    5533,    5898,    5897,    5513,    5532,    5886,    5885
     224,    5495,    5514,    5897,    5896,    5494,    5513,    5885,    5884
     225,    5654,    5449,    5495,    5896,    5655,    5450,    5494,    5884
     226,    5673,    5654,    5896,    5895,    5674,    5655,    5884,    5883
     227,    5692,    5673,    5895,    5893,    5693,    5674,    5883,    5881
     228,    5711,    5692,    5893,    5894,    5712,    5693,    5881,    5882
     229,    5915,    5729,    5710,    5906,    5903,    5730,    5711,    5894
     230,    5916,    5748,    5729,    5915,    5904,    5749,    5730,    5903
     231,    5634,    5552,    5748,    5916,    5633,    5553,    5749,    5904
     232,    5914,    5615,    5634,    5916,    5902,    5614,    5633,    5904
     233,    5913,    5914,    5916,    5915,    5901,    5902,    5904,    5903
     234,    5905,    5913,    5915,    5906,    5893,    5901,    5903,    5894
     235,    5912,    5596,    5615,    5914,    5900,    5595,    5614,    5902
     236,    5911,    5912,    5914,    5913,    5899,    5900,    5902,    5901
     237,    5907,    5911,    5913,    5905,    5895,    5899,    5901,    5893
     238,    5910,    5577,    5596,    5912,    5898,    5576,    5595,    5900
     239,    5909,    5910,    5912,    5911,    5897,    5898,    5900,    5899
     240,    5908,    5909,    5911,    5907,    5896,    5897,    5899,    5895
     241,    5534,    5477,    5577,    5910,    5533,    5476,    5576,    5898
     242,    5515,    5534,    5910,    5909,    5514,    5533,    5898,    5897
     243,    5496,    5515,    5909,    5908,    5495,    5514,    5897,    5896
     244,    5653,    5448,    5496,    5908,    5654,    5449,    5495,    5896
     245,    5672,    5653,    5908,    5907,    5673,    5654,    5896,    5895
     246,    5691,    5672,    5907,    5905,    5692,    5673,    5895,    5893
     247,    5710,    5691,    5905,    5906,    5711,    5692,    5893,    5894
     248,    5927,    5728,    5709,    5918,    5915,    5729,    5710,    5906
     249,    5928,    5747,    5728,    5927,    5916,    5748,    5729,    5915
     250,    5635,    5551,    5747,    5928,    5634,    5552,    5748,    5916
     251,    5926,    5616,    5635,    5928,    5914,    5615,    5634,    5916
     252,    5925,    5926,    5928,    5927,    5913,    5914,    5916,    5915
     253,    5917,    5925,    5927,    5918,    5905,    5913,    5915,    5906
     254,    5924,    5597,    5616,    5926,    5912,    5596,    5615,    5914
     255,    5923,    5924,    5926,    5925,    5911,    5912,    5914,    5913
     256,    5919,    5923,    5925,    5917,    5907,    5911,    5913,    5905
     257,    5922,    5578,    5597,    5924,    5910,    5577,    5596,    5912
     258,    5921,    5922,    5924,    5923,    5909,    5910,    5912,    5911
     259,    5920,    5921,    5923,    5919,    5908,    5909,    5911,    5907
     260,    5535,    5478,    5578,    5922,    5534,    5477,    5577,    5910
     261,    5516,    5535,    5922,    5921,    5515,    5534,    5910,    5909
     262,    5497,    5516,    5921,    5920,    5496,    5515,    5909,    5908
     263,    5652,    5447,    5497,    5920,    5653,    5448,    5496,    5908
     264,    5671,    5652,    5920,    5919,    5672,    5653,    5908,    5907
     265,    5690,    5671,    5919,    5917,    5691,    5672,    5907,    5905
     266,    5709,    5690,    5917,    5918,    5710,    5691,    5905,    5906
     267,    5939,    5727,    5708,    5930,    5927,    5728,    5709,    5918
     268,    5940,    5746,    5727,    5939,    5928,    5747,    5728,    5927
     269,    5636,    5550,    5746,    5940,    5635,    5551,    5747,    5928
     270,    5938,    5617,    5636,    5940,    5926,    5616,    5635,    5928
     271,    5937,    5938,    5940,    5939,    5925,    5926,    5928,    5927
     272,    5929,    5937,    5939,    5930,    5917,    5925,    5927,    5918
     273,    5936,    5598,    5617,    5938,    5924,    5597,    5616,    5926
     274,    5935,    5936,    5938,    5937,    5923,    5924,    5926,    5925
     275,    5931,    5935,    5937,    5929,    5919,    5923,    5925,    5917
     276,    5934,    5579,    5598,    5936,    5922,    5578,    5597,    5924
     277,    5933,    5934,    5936,    5935,    5921,    5922,    5924,    5923
     278,    5932,    5933,    5935,    5931,    5920,    5921,    5923,    5919
     279,    5536,    5479,    5579,    5934,    5535,    5478,    5578,    5922
     280,    5517,    5536,    5934,    5933,    5516,    5535,    5922,    5921
     281,    5498,    5517,    5933,    5932,    5497,    5516,    5921,    5920
     282,    5651,    5446,    5498,    5932,    5652,    5447,    5497,    5920
     283,    5670,    5651,    5932,    5931,    5671,    5652,    5920,    5919
     284,    5689,    5670,    5931,    5929,    5690,    5671,    5919,    5917
     285,    5708,    5689,    5929,    5930,    5709,    5690,    5917,    5918
     286,    5951,    5726,    5707,    5942,    5939,    5727,    5708,    5930
     287,    5952,    5745,    5726,    5951,    5940,    5746,    5727,    5939
     288,    5637,    5549,    5745,    5952,    5636,    5550,    5746,    5940
     289,    5950,    5618,    5637,    5952,    5938,    5617,    5636,    5940
     290,    5949,    5950,    5952,    5951,    5937,    5938,    5940,    5939
     291,    5941,    5949,    5951,    5942,    5929,    5937,    5939,    5930
     292,    5948,    5599,    5618,    5950,    5936,    5598,    5617,    5938
     293,    5947,    5948,    5950,    5949,    5935,    5936,    5938,    5937
     294,    5943,    5947,    5949,    5941,    5931,    5935,    5937,    5929
     295,    5946,    5580,    5599,    5948,    5934,    5579,    5598,    5936
     296,    5945,    5946,    5948,    5947,    5933,    5934,    5936,    5935
     297,    5944,    5945,    5947,    5943,    5932,    5933,    5935,    5931
     298,    5537,    5480,    5580,    5946,    5536,    5479,    5579,    5934
     299,    5518,    5537,    5946,    5945,    5517,    5536,    5934,    5933
     300,    5499,    5518,    5945,    5944,    5498,    5517,    5933,    5932
     301,    5650,    5445,    5499,    5944,    5651,    5446,    5498,    5932
     302,    5669,    5650,    5944,    5943,    5670,    5651,    5932,    5931
     303,    5688,    5669,    5943,    5941,    5689,    5670,    5931,    5929
     304,    5707,    5688,    5941,    5942,    5708,    5689,    5929,    5930
     305,    5963,    5725,    5706,    5954,    5951,    5726,    5707,    5942
     306,    5964,    5744,    5725,    5963,    5952,    5745,    5726,    5951
     307,    5638,    5548,    5744,    5964,    5637,    5549,    5745,    5952
     308,    5962,    5619,    5638,    5964,    5950,    5618,    5637,    5952
     309,    5961,    5962,    5964,    5963,    5949,    5950,    5952,    5951
     310,    5953,    5961,    5963,    5954,    5941,    5949,    5951,    5942
     311,    5960,    5600,    5619,    5962,    5948,    5599,    5618,    5950
     312,    5959,    5960,    5962,    5961,    5947,    5948,    5950,    5949
     313,    5955,    5959,    5961,    5953,    5943,    5947,    5949,    5941
     314,    5958,    5581,    5600,    5960,    5946,    5580,    5599,    5948
     315,    5957,    5958,    5960,    5959,    5945,    5946,    5948,    5947
     316,    5956,    5957,    5959,    5955,    5944,    5945,    5947,    5943
     317,    5538,    5481,    5581,    5958,    5537,    5480,    5580,    5946
     318,    5519,    5538,    5958,    5957,    5518,    5537,    5946,    5945
     319,    5500,    5519,    5957,    5956,    5499,    5518,    5945,    5944
     320,    5649,    5444,    5500,    5956,    5650,    5445,    5499,    5944
     321,    5668,    5649,    5956,    5955,    5669,    5650,    5944,    5943
     322,    5687,    5668,    5955,    5953,    5688,    5669,    5943,    5941
     323,    5706,    5687,    5953,    5954,    5707,    5688,    5941,    5942
     324,    5975,    5724,    5705,    5966,    5963,    5725,    5706,    5954
     325,    5976,    5743,    5724,    5975,    5964,    5744,    5725,    5963
     326,    5639,    5547,    5743,    5976,    5638,    5548,    5744,    5964
     327,    5974,    5620,    5639,    5976,    5962,    5619,    5638,    5964
     328,    5973,    5974,    5976,    5975,    5961,    5962,    5964,    5963
     329,    5965,    5973,    5975,    5966,    5953,    5961,    5963,    5954
     330,    5972,    5601,    5620,    5974,    5960,    5600,    5619,    5962
     331,    5971,    5972,    5974,    5973,    5959,    5960,    5962,    5961
     332,    5967,    5971,    5973,    5965,    5955,    5959,    5961,    5953
     333,    5970,    5582,    5601,    5972,    5958,    5581,    5600,    5960
     334,    5969,    5970,    5972,    5971,    5957,    5958,    5960,    5959
     335,    5968,    5969,    5971,    5967,    5956,    5957,    5959,    5955
     336,    5539,    5482,    5582,    5970,    5538,    5481,    5581,    5958
     337,    5520,    5539,    5970,    5969,    5519,    5538,    5958,    5957
     338,    5501,    5520,    5969,    5968,    5500,    5519,    5957,    5956
     339,    5648,    5443,    5501,    5968,    5649,    5444,    5500,    5956
     340,    5667,    5648,    5968,    5967,    5668,    5649,    5956,    5955
     341,    5686,    5667,    5967,    5965,    5687,    5668,    5955,    5953
     342,    5705,    5686,    5965,    5966,    5706,    5687,    5953,    5954
     343,    5987,    5723,    5704,    5978,    5975,    5724,    5705,    5966
     344,    5988,    5742,    5723,    5987,    5976,    5743,    5724,    5975
     345,    5640,    5546,    5742,    5988,    5639,    5547,    5743,    5976
     346,    5986,    5621,    5640,    5988,    5974,    5620,    5639,    5976
     347,    5985,    5986,    5988,    5987,    5973,    5974,    5976,    5975
     348,    5977,    5985,    5987,    5978,    5965,    5973,    5975,    5966
     349,    5984,    5602,    5621,    5986,    5972,    5601,    5620,    5974
     350,    5983,    5984,    5986,    5985,    5971,    5972,    5974,    5973
     351,    5979,    5983,    5985,    5977,    5967,    5971,    5973,    5965
     352,    5982,    5583,    5602,    5984,    5970,    5582,    5601,    5972
     353,    5981,    5982,    5984,    5983,    5969,    5970,    5972,    5971
     354,    5980,    5981,    5983,    5979,    5968,    5969,    5971,    5967
     355,    5540,    5483,    5583,    5982,    5539,    5482,    5582,    5970
     356,    5521,    5540,    5982,    5981,    5520,    5539,    5970,    5969
     357,    5502,    5521,    5981,    5980,    5501,    5520,    5969,    5968
     358,    5647,    5442,    5502,    5980,    5648,    5443,    5501,    5968
     359,    5666,    5647,    5980,    5979,    5667,    5648,    5968,    5967
     360,    5685,    5666,    5979,    5977,    5686,    5667,    5967,    5965
     361,    5704,    5685,    5977,    5978,    5705,    5686,    5965,    5966
     362,    5999,    5645,    5644,    5990,    5987,    5723,    5704,    5978
     363,    6000,    5646,    5645,    5999,    5988,    5742,    5723,    5987
     364,    5545,    5541,    5646,    6000,    5640,    5546,    5742,    5988
     365,    5998,    5544,    5545,    6000,    5986,    5621,    5640,    5988
     366,    5997,    5998,    6000,    5999,    5985,    5986,    5988,    5987
     367,    5989,    5997,    5999,    5990,    5977,    5985,    5987,    5978
     368,    5996,    5543,    5544,    5998,    5984,    5602,    5621,    5986
     369,    5995,    5996,    5998,    5997,    5983,    5984,    5986,    5985
     370,    5991,    5995,    5997,    5989,    5979,    5983,    5985,    5977
     371,    5994,    5542,    5543,    5996,    5982,    5583,    5602,    5984
     372,    5993,    5994,    5996,    5995,    5981,    5982,    5984,    5983
     373,    5992,    5993,    5995,    5991,    5980,    5981,    5983,    5979
     374,    5462,    5461,    5542,    5994,    5540,    5483,    5583,    5982
     375,    5463,    5462,    5994,    5993,    5521,    5540,    5982,    5981
     376,    5464,    5463,    5993,    5992,    5502,    5521,    5981,    5980
     377,    5641,    5441,    5464,    5992,    5647,    5442,    5502,    5980
     378,    5642,    5641,    5992,    5991,    5666,    5647,    5980,    5979
     379,    5643,    5642,    5991,    5989,    5685,    5666,    5979,    5977
     380,    5644,    5643,    5989,    5990,    5704,    5685,    5977,    5978
     381,    5372,    5368,    5386,    5382,    5106,    5105,    5289,    5290
     382,    5368,    5364,    5389,    5386,    5105,    5104,    5291,    5289
     383,    5364,    5360,    5392,    5389,    5104,    5103,    5292,    5291
     384,    5360,    5305,    5314,    5392,    5103,    4993,    5005,    5292
     385,    5314,    5318,    5391,    5392,    5005,    5006,    5293,    5292
     386,    5318,    5322,    5390,    5391,    5006,    5007,    5294,    5293
     387,    5322,    5310,    5335,    5390,    5007,    5004,    5052,    5294
     388,    5392,    5391,    5388,    5389,    5292,    5293,    5295,    5291
     389,    5391,    5390,    5387,    5388,    5293,    5294,    5296,    5295
     390,    5390,    5335,    5339,    5387,    5294,    5052,    5051,    5296
     391,    5389,    5388,    5385,    5386,    5291,    5295,    5297,    5289
     392,    5388,    5387,    5384,    5385,    5295,    5296,    5298,    5297
     393,    5387,    5339,    5343,    5384,    5296,    5051,    5050,    5298
     394,    5386,    5385,    5381,    5382,    5289,    5297,    5299,    5290
     395,    5385,    5384,    5383,    5381,    5297,    5298,    5300,    5299
     396,    5384,    5343,    5347,    5383,    5298,    5050,    5049,    5300
     397,    5347,    5334,    5380,    5383,    5049,    5048,    5108,    5300
     398,    5383,    5380,    5376,    5381,    5300,    5108,    5107,    5299
     399,    5381,    5376,    5372,    5382,    5299,    5107,    5106,    5290
     400,    5371,    5367,    5398,    5394,    5372,    5368,    5386,    5382
     401,    5367,    5363,    5401,    5398,    5368,    5364,    5389,    5386
     402,    5363,    5359,    5404,    5401,    5364,    5360,    5392,    5389
     403,    5359,    5304,    5315,    5404,    5360,    5305,    5314,    5392
     404,    5315,    5319,    5403,    5404,    5314,    5318,    5391,    5392
     405,    5319,    5323,    5402,    5403,    5318,    5322,    5390,    5391
     406,    5323,    5311,    5336,    5402,    5322,    5310,    5335,    5390
     407,    5404,    5403,    5400,    5401,    5392,    5391,    5388,    5389
     408,    5403,    5402,    5399,    5400,    5391,    5390,    5387,    5388
     409,    5402,    5336,    5340,    5399,    5390,    5335,    5339,    5387
     410,    5401,    5400,    5397,    5398,    5389,    5388,    5385,    5386
     411,    5400,    5399,    5396,    5397,    5388,    5387,    5384,    5385
     412,    5399,    5340,    5344,    5396,    5387,    5339,    5343,    5384
     413,    5398,    5397,    5393,    5394,    5386,    5385,    5381,    5382
     414,    5397,    5396,    5395,    5393,    5385,    5384,    5383,    5381
     415,    5396,    5344,    5348,    5395,    5384,    5343,    5347,    5383
     416,    5348,    5333,    5379,    5395,    5347,    5334,    5380,    5383
     417,    5395,    5379,    5375,    5393,    5383,    5380,    5376,    5381
     418,    5393,    5375,    5371,    5394,    5381,    5376,    5372,    5382
     419,    5370,    5366,    5410,    5406,    5371,    5367,    5398,    5394
     420,    5366,    5362,    5413,    5410,    5367,    5363,    5401,    5398
     421,    5362,    5358,    5416,    5413,    5363,    5359,    5404,    5401
     422,    5358,    5303,    5316,    5416,    5359,    5304,    5315,    5404
     423,    5316,    5320,    5415,    5416,    5315,    5319,    5403,    5404
     424,    5320,    5324,    5414,    5415,    5319,    5323,    5402,    5403
     425,    5324,    5312,    5337,    5414,    5323,    5311,    5336,    5402
     426,    5416,    5415,    5412,    5413,    5404,    5403,    5400,    5401
     427,    5415,    5414,    5411,    5412,    5403,    5402,    5399,    5400
     428,    5414,    5337,    5341,    5411,    5402,    5336,    5340,    5399
     429,    5413,    5412,    5409,    5410,    5401,    5400,    5397,    5398
     430,    5412,    5411,    5408,    5409,    5400,    5399,    5396,    5397
     431,    5411,    5341,    5345,    5408,    5399,    5340,    5344,    5396
     432,    5410,    5409,    5405,    5406,    5398,    5397,    5393,    5394
     433,    5409,    5408,    5407,    5405,    5397,    5396,    5395,    5393
     434,    5408,    5345,    5349,    5407,    5396,    5344,    5348,    5395
     435,    5349,    5332,    5378,    5407,    5348,    5333,    5379,    5395
     436,    5407,    5378,    5374,    5405,    5395,    5379,    5375,    5393
     437,    5405,    5374,    5370,    5406,    5393,    5375,    5371,    5394
     438,    5369,    5365,    5422,    5418,    5370,    5366,    5410,    5406
     439,    5365,    5361,    5425,    5422,    5366,    5362,    5413,    5410
     440,    5361,    5357,    5428,    5425,    5362,    5358,    5416,    5413
     441,    5357,    5302,    5317,    5428,    5358,    5303,    5316,    5416
     442,    5317,    5321,    5427,    5428,    5316,    5320,    5415,    5416
     443,    5321,    5325,    5426,    5427,    5320,    5324,    5414,    5415
     444,    5325,    5313,    5338,    5426,    5324,    5312,    5337,    5414
     445,    5428,    5427,    5424,    5425,    5416,    5415,    5412,    5413
     446,    5427,    5426,    5423,    5424,    5415,    5414,    5411,    5412
     447,    5426,    5338,    5342,    5423,    5414,    5337,    5341,    5411
     448,    5425,    5424,    5421,    5422,    5413,    5412,    5409,    5410
     449,    5424,    5423,    5420,    5421,    5412,    5411,    5408,    5409
     450,    5423,    5342,    5346,    5420,    5411,    5341,    5345,    5408
     451,    5422,    5421,    5417,    5418,    5410,    5409,    5405,    5406
     452,    5421,    5420,    5419,    5417,    5409,    5408,    5407,    5405
     453,    5420,    5346,    5350,    5419,    5408,    5345,    5349,    5407
     454,    5350,    5331,    5377,    5419,    5349,    5332,    5378,    5407
     455,    5419,    5377,    5373,    5417,    5407,    5378,    5374,    5405
     456,    5417,    5373,    5369,    5418,    5405,    5374,    5370,    5406
     457,    5354,    5353,    5434,    5430,    5369,    5365,    5422,    5418
     458,    5353,    5352,    5437,    5434,    5365,    5361,    5425,    5422
     459,    5352,    5351,    5440,    5437,    5361,    5357,    5428,    5425
     460,    5351,    5301,    5307,    5440,    5357,    5302,    5317,    5428
     461,    5307,    5308,    5439,    5440,    5317,    5321,    5427,    5428
     462,    5308,    5309,    5438,    5439,    5321,    5325,    5426,    5427
     463,    5309,    5306,    5330,    5438,    5325,    5313,    5338,    5426
     464,    5440,    5439,    5436,    5437,    5428,    5427,    5424,    5425
     465,    5439,    5438,    5435,    5436,    5427,    5426,    5423,    5424
     466,    5438,    5330,    5329,    5435,    5426,    5338,    5342,    5423
     467,    5437,    5436,    5433,    5434,    5425,    5424,    5421,    5422
     468,    5436,    5435,    5432,    5433,    5424,    5423,    5420,    5421
     469,    5435,    5329,    5328,    5432,    5423,    5342,    5346,    5420
     470,    5434,    5433,    5429,    5430,    5422,    5421,    5417,    5418
     471,    5433,    5432,    5431,    5429,    5421,    5420,    5419,    5417
     472,    5432,    5328,    5327,    5431,    5420,    5346,    5350,    5419
     473,    5327,    5326,    5356,    5431,    5350,    5331,    5377,    5419
     474,    5431,    5356,    5355,    5429,    5419,    5377,    5373,    5417
     475,    5429,    5355,    5354,    5430,    5417,    5373,    5369,    5418
     476,    5179,    5158,    5148,    5170,    4510,    4503,    4502,    4505
     477,    5180,    5168,    5158,    5179,    4509,    4504,    4503,    4510
     478,    5093,    5062,    5168,    5180,    4495,    4494,    4504,    4509
     479,    5178,    5083,    5093,    5180,    4516,    4496,    4495,    4509
     480,    5177,    5178,    5180,    5179,    4515,    4516,    4509,    4510
     481,    5169,    5177,    5179,    5170,    4508,    4515,    4510,    4505
     482,    5176,    5073,    5083,    5178,    4514,    4497,    4496,    4516
     483,    5175,    5176,    5178,    5177,    4513,    4514,    4516,    4515
     484,    5171,    5175,    5177,    5169,    4507,    4513,    4515,    4508
     485,    5174,    5063,    5073,    5176,    4512,    4498,    4497,    4514
     486,    5173,    5174,    5176,    5175,    4511,    4512,    4514,    4513
     487,    5172,    5173,    5175,    5171,    4506,    4511,    4513,    4507
     488,    5038,    5008,    5063,    5174,    4493,    4490,    4498,    4512
     489,    5028,    5038,    5174,    5173,    4492,    4493,    4512,    4511
     490,    5018,    5028,    5173,    5172,    4491,    4492,    4511,    4506
     491,    5118,    5003,    5018,    5172,    4499,    4489,    4491,    4506
     492,    5128,    5118,    5172,    5171,    4500,    4499,    4506,    4507
     493,    5138,    5128,    5171,    5169,    4501,    4500,    4507,    4508
     494,    5148,    5138,    5169,    5170,    4502,    4501,    4508,    4505
     495,    5191,    5157,    5147,    5182,    5179,    5158,    5148,    5170
     496,    5192,    5167,    5157,    5191,    5180,    5168,    5158,    5179
     497,    5094,    5061,    5167,    5192,    5093,    5062,    5168,    5180
     498,    5190,    5084,    5094,    5192,    5178,    5083,    5093,    5180
     499,    5189,    5190,    5192,    5191,    5177,    5178,    5180,    5179
     500,    5181,    5189,    5191,    5182,    5169,    5177,    5179,    5170
     501,    5188,    5074,    5084,    5190,    5176,    5073,    5083,    5178
     502,    5187,    5188,    5190,    5189,    5175,    5176,    5178,    5177
     503,    5183,    5187,    5189,    5181,    5171,    5175,    5177,    5169
     504,    5186,    5064,    5074,    5188,    5174,    5063,    5073,    5176
     505,    5185,    5186,    5188,    5187,    5173,    5174,    5176,    5175
     506,    5184,    5185,    5187,    5183,    5172,    5173,    5175,    5171
     507,    5039,    5009,    5064,    5186,    5038,    5008,    5063,    5174
     508,    5029,    5039,    5186,    5185,    5028,    5038,    5174,    5173
     509,    5019,    5029,    5185,    5184,    5018,    5028,    5173,    5172
     510,    5117,    5002,    5019,    5184,    5118,    5003,    5018,    5172
     511,    5127,    5117,    5184,    5183,    5128,    5118,    5172,    5171
     512,    5137,    5127,    5183,    5181,    5138,    5128,    5171,    5169
     513,    5147,    5137,    5181,    5182,    5148,    5138,    5169,    5170
     514,    5203,    5156,    5146,    5194,    5191,    5157,    5147,    5182
     515,    5204,    5166,    5156,    5203,    5192,    5167,    5157,    5191
     516,    5095,    5060,    5166,    5204,    5094,    5061,    5167,    5192
     517,    5202,    5085,    5095,    5204,    5190,    5084,    5094,    5192
     518,    5201,    5202,    5204,    5203,    5189,    5190,    5192,    5191
     519,    5193,    5201,    5203,    5194,    5181,    5189,    5191,    5182
     520,    5200,    5075,    5085,    5202,    5188,    5074,    5084,    5190
     521,    5199,    5200,    5202,    5201,    5187,    5188,    5190,    5189
     522,    5195,    5199,    5201,    5193,    5183,    5187,    5189,    5181
     523,    5198,    5065,    5075,    5200,    5186,    5064,    5074,    5188
     524,    5197,    5198,    5200,    5199,    5185,    5186,    5188,    5187
     525,    5196,    5197,    5199,    5195,    5184,    5185,    5187,    5183
     526,    5040,    5010,    5065,    5198,    5039,    5009,    5064,    5186
     527,    5030,    5040,    5198,    5197,    5029,    5039,    5186,    5185
     528,    5020,    5030,    5197,    5196,    5019,    5029,    5185,    5184
     529,    5116,    5001,    5020,    5196,    5117,    5002,    5019,    5184
     530,    5126,    5116,    5196,    5195,    5127,    5117,    5184,    5183
     531,    5136,    5126,    5195,    5193,    5137,    5127,    5183,    5181
     532,    5146,    5136,    5193,    5194,    5147,    5137,    5181,    5182
     533,    5215,    5155,    5145,    5206,    5203,    5156,    5146,    5194
     534,    5216,    5165,    5155,    5215,    5204,    5166,    5156,    5203
     535,    5096,    5059,    5165,    5216,    5095,    5060,    5166,    5204
     536,    5214,    5086,    5096,    5216,    5202,    5085,    5095,    5204
     537,    5213,    5214,    5216,    5215,    5201,    5202,    5204,    5203
     538,    5205,    5213,    5215,    5206,    5193,    5201,    5203,    5194
     539,    5212,    5076,    5086,    5214,    5200,    5075,    5085,    5202
     540,    5211,    5212,    5214,    5213,    5199,    5200,    5202,    5201
     541,    5207,    5211,    5213,    5205,    5195,    5199,    5201,    5193
     542,    5210,    5066,    5076,    5212,    5198,    5065,    5075,    5200
     543,    5209,    5210,    5212,    5211,    5197,    5198,    5200,    5199
     544,    5208,    5209,    5211,    5207,    5196,    5197,    5199,    5195
     545,    5041,    5011,    5066,    5210,    5040,    5010,    5065,    5198
     546,    5031,    5041,    5210,    5209,    5030,    5040,    5198,    5197
     547,    5021,    5031,    5209,    5208,    5020,    5030,    5197,    5196
     548,    5115,    5000,    5021,    5208,    5116,    5001,    5020,    5196
     549,    5125,    5115,    5208,    5207,    5126,    5116,    5196,    5195
     550,    5135,    5125,    5207,    5205,    5136,    5126,    5195,    5193
     551,    5145,    5135,    5205,    5206,    5146,    5136,    5193,    5194
     552,    5227,    5154,    5144,    5218,    5215,    5155,    5145,    5206
     553,    5228,    5164,    5154,    5227,    5216,    5165,    5155,    5215
     554,    5097,    5058,    5164,    5228,    5096,    5059,    5165,    5216
     555,    5226,    5087,    5097,    5228,    5214,    5086,    5096,    5216
     556,    5225,    5226,    5228,    5227,    5213,    5214,    5216,    5215
     557,    5217,    5225,    5227,    5218,    5205,    5213,    5215,    5206
     558,    5224,    5077,    5087,    5226,    5212,    5076,    5086,    5214
     559,    5223,    5224,    5226,    5225,    5211,    5212,    5214,    5213
     560,    5219,    5223,    5225,    5217,    5207,    5211,    5213,    5205
     561,    5222,    5067,    5077,    5224,    5210,    5066,    5076,    5212
     562,    5221,    5222,    5224,    5223,    5209,    5210,    5212,    5211
     563,    5220,    5221,    5223,    5219,    5208,    5209,    5211,    5207
     564,    5042,    5012,    5067,    5222,    5041,    5011,    5066,    5210
     565,    5032,    5042,    5222,    5221,    5031,    5041,    5210,    5209
     566,    5022,    5032,    5221,    5220,    5021,    5031,    5209,    5208
     567,    5114,    4999,    5022,    5220,    5115,    5000,    5021,    5208
     568,    5124,    5114,    5220,    5219,    5125,    5115,    5208,    5207
     569,    5134,    5124,    5219,    5217,    5135,    5125,    5207,    5205
     570,    5144,    5134,    5217,    5218,    5145,    5135,    5205,    5206
     571,    5239,    5153,    5143,    5230,    5227,    5154,    5144,    5218
     572,    5240,    5163,    5153,    5239,    5228,    5164,    5154,    5227
     573,    5098,    5057,    5163,    5240,    5097,    5058,    5164,    5228
     574,    5238,    5088,    5098,    5240,    5226,    5087,    5097,    5228
     575,    5237,    5238,    5240,    5239,    5225,    5226,    5228,    5227
     576,    5229,    5237,    5239,    5230,    5217,    5225,    5227,    5218
     577,    5236,    5078,    5088,    5238,    5224,    5077,    5087,    5226
     578,    5235,    5236,    5238,    5237,    5223,    5224,    5226,    5225
     579,    5231,    5235,    5237,    5229,    5219,    5223,    5225,    5217
     580,    5234,    5068,    5078,    5236,    5222,    5067,    5077,    5224
     581,    5233,    5234,    5236,    5235,    5221,    5222,    5224,    5223
     582,    5232,    5233,    5235,    5231,    5220,    5221,    5223,    5219
     583,    5043,    5013,    5068,    5234,    5042,    5012,    5067,    5222
     584,    5033,    5043,    5234,    5233,    5032,    5042,    5222,    5221
     585,    5023,    5033,    5233,    5232,    5022,    5032,    5221,    5220
     586,    5113,    4998,    5023,    5232,    5114,    4999,    5022,    5220
     587,    5123,    5113,    5232,    5231,    5124,    5114,    5220,    5219
     588,    5133,    5123,    5231,    5229,    5134,    5124,    5219,    5217
     589,    5143,    5133,    5229,    5230,    5144,    5134,    5217,    5218
     590,    5251,    5152,    5142,    5242,    5239,    5153,    5143,    5230
     591,    5252,    5162,    5152,    5251,    5240,    5163,    5153,    5239
     592,    5099,    5056,    5162,    5252,    5098,    5057,    5163,    5240
     593,    5250,    5089,    5099,    5252,    5238,    5088,    5098,    5240
     594,    5249,    5250,    5252,    5251,    5237,    5238,    5240,    5239
     595,    5241,    5249,    5251,    5242,    5229,    5237,    5239,    5230
     596,    5248,    5079,    5089,    5250,    5236,    5078,    5088,    5238
     597,    5247,    5248,    5250,    5249,    5235,    5236,    5238,    5237
     598,    5243,    5247,    5249,    5241,    5231,    5235,    5237,    5229
     599,    5246,    5069,    5079,    5248,    5234,    5068,    5078,    5236
     600,    5245,    5246,    5248,    5247,    5233,    5234,    5236,    5235
     601,    5244,    5245,    5247,    5243,    5232,    5233,    5235,    5231
     602,    5044,    5014,    5069,    5246,    5043,    5013,    5068,    5234
     603,    5034,    5044,    5246,    5245,    5033,    5043,    5234,    5233
     604,    5024,    5034,    5245,    5244,    5023,    5033,    5233,    5232
     605,    5112,    4997,    5024,    5244,    5113,    4998,    5023,    5232
     606,    5122,    5112,    5244,    5243,    5123,    5113,    5232,    5231
     607,    5132,    5122,    5243,    5241,    5133,    5123,    5231,    5229
     608,    5142,    5132,    5241,    5242,    5143,    5133,    5229,    5230
     609,    5263,    5151,    5141,    5254,    5251,    5152,    5142,    5242
     610,    5264,    5161,    5151,    5263,    5252,    5162,    5152,    5251
     611,    5100,    5055,    5161,    5264,    5099,    5056,    5162,    5252
     612,    5262,    5090,    5100,    5264,    5250,    5089,    5099,    5252
     613,    5261,    5262,    5264,    5263,    5249,    5250,    5252,    5251
     614,    5253,    5261,    5263,    5254,    5241,    5249,    5251,    5242
     615,    5260,    5080,    5090,    5262,    5248,    5079,    5089,    5250
     616,    5259,    5260,    5262,    5261,    5247,    5248,    5250,    5249
     617,    5255,    5259,    5261,    5253,    5243,    5247,    5249,    5241
     618,    5258,    5070,    5080,    5260,    5246,    5069,    5079,    5248
     619,    5257,    5258,    5260,    5259,    5245,    5246,    5248,    5247
     620,    5256,    5257,    5259,    5255,    5244,    5245,    5247,    5243
     621,    5045,    5015,    5070,    5258,    5044,    5014,    5069,    5246
     622,    5035,    5045,    5258,    5257,    5034,    5044,    5246,    5245
     623,    5025,    5035,    5257,    5256,    5024,    5034,    5245,    5244
     624,    5111,    4996,    5025,    5256,    5112,    4997,    5024,    5244
     625,    5121,    5111,    5256,    5255,    5122,    5112,    5244,    5243
     626,    5131,    5121,    5255,    5253,    5132,    5122,    5243,    5241
     627,    5141,    5131,    5253,    5254,    5142,    5132,    5241,    5242
     628,    5275,    5150,    5140,    5266,    5263,    5151,    5141,    5254
     629,    5276,    5160,    5150,    5275,    5264,    5161,    5151,    5263
     630,    5101,    5054,    5160,    5276,    5100,    5055,    5161,    5264
     631,    5274,    5091,    5101,    5276,    5262,    5090,    5100,    5264
     632,    5273,    5274,    5276,    5275,    5261,    5262,    5264,    5263
     633,    5265,    5273,    5275,    5266,    5253,    5261,    5263,    5254
     634,    5272,    5081,    5091,    5274,    5260,    5080,    5090,    5262
     635,    5271,    5272,    5274,    5273,    5259,    5260,    5262,    5261
     636,    5267,    5271,    5273,    5265,    5255,    5259,    5261,    5253
     637,    5270,    5071,    5081,    5272,    5258,    5070,    5080,    5260
     638,    5269,    5270,    5272,    5271,    5257,    5258,    5260,    5259
     639,    5268,    5269,    5271,    5267,    5256,    5257,    5259,    5255
     640,    5046,    5016,    5071,    5270,    5045,    5015,    5070,    5258
     641,    5036,    5046,    5270,    5269,    5035,    5045,    5258,    5257
     642,    5026,    5036,    5269,    5268,    5025,    5035,    5257,    5256
     643,    5110,    4995,    5026,    5268,    5111,    4996,    5025,    5256
     644,    5120,    5110,    5268,    5267,    5121,    5111,    5256,    5255
     645,    5130,    5120,    5267,    5265,    5131,    5121,    5255,    5253
     646,    5140,    5130,    5265,    5266,    5141,    5131,    5253,    5254
     647,    5287,    5149,    5139,    5278,    5275,    5150,    5140,    5266
     648,    5288,    5159,    5149,    5287,    5276,    5160,    5150,    5275
     649,    5102,    5053,    5159,    5288,    5101,    5054,    5160,    5276
     650,    5286,    5092,    5102,    5288,    5274,    5091,    5101,    5276
     651,    5285,    5286,    5288,    5287,    5273,    5274,    5276,    5275
     652,    5277,    5285,    5287,    5278,    5265,    5273,    5275,    5266
     653,    5284,    5082,    5092,    5286,    5272,    5081,    5091,    5274
     654,    5283,    5284,    5286,    5285,    5271,    5272,    5274,    5273
     655,    5279,    5283,    5285,    5277,    5267,    5271,    5273,    5265
     656,    5282,    5072,    5082,    5284,    5270,    5071,    5081,    5272
     657,    5281,    5282,    5284,    5283,    5269,    5270,    5272,    5271
     658,    5280,    5281,    5283,    5279,    5268,    5269,    5271,    5267
     659,    5047,    5017,    5072,    5282,    5046,    5016,    5071,    5270
     660,    5037,    5047,    5282,    5281,    5036,    5046,    5270,    5269
     661,    5027,    5037,    5281,    5280,    5026,    5036,    5269,    5268
     662,    5109,    4994,    5027,    5280,    5110,    4995,    5026,    5268
     663,    5119,    5109,    5280,    5279,    5120,    5110,    5268,    5267
     664,    5129,    5119,    5279,    5277,    5130,    5120,    5267,    5265
     665,    5139,    5129,    5277,    5278,    5140,    5130,    5265,    5266
     666,    5299,    5107,    5106,    5290,    5287,    5149,    5139,    5278
     667,    5300,    5108,    5107,    5299,    5288,    5159,    5149,    5287
     668,    5049,    5048,    5108,    5300,    5102,    5053,    5159,    5288
     669,    5298,    5050,    5049,    5300,    5286,    5092,    5102,    5288
     670,    5297,    5298,    5300,    5299,    5285,    5286,    5288,    5287
     671,    5289,    5297,    5299,    5290,    5277,    5285,    5287,    5278
     672,    5296,    5051,    5050,    5298,    5284,    5082,    5092,    5286
     673,    5295,    5296,    5298,    5297,    5283,    5284,    5286,    5285
     674,    5291,    5295,    5297,    5289,    5279,    5283,    5285,    5277
     675,    5294,    5052,    5051,    5296,    5282,    5072,    5082,    5284
     676,    5293,    5294,    5296,    5295,    5281,    5282,    5284,    5283
     677,    5292,    5293,    5295,    5291,    5280,    5281,    5283,    5279
     678,    5007,    5004,    5052,    5294,    5047,    5017,    5072,    5282
     679,    5006,    5007,    5294,    5293,    5037,    5047,    5282,    5281
     680,    5005,    5006,    5293,    5292,    5027,    5037,    5281,    5280
     681,    5103,    4993,    5005,    5292,    5109,    4994,    5027,    5280
     682,    5104,    5103,    5292,    5291,    5119,    5109,    5280,    5279
     683,    5105,    5104,    5291,    5289,    5129,    5119,    5279,    5277
     684,    5106,    5105,    5289,    5290,    5139,    5129,    5277,    5278
     685,    4510,    4503,    4502,    4505,    4799,    4757,    4741,    4789
     686,    4509,    4504,    4503,    4510,    4800,    4773,    4757,    4799
     687,    4495,    4494,    4504,    4509,    4686,    4603,    4773,    4800
     688,    4516,    4496,    4495,    4509,    4798,    4670,    4686,    4800
     689,    4515,    4516,    4509,    4510,    4797,    4798,    4800,    4799
     690,    4508,    4515,    4510,    4505,    4790,    4797,    4799,    4789
     691,    4514,    4497,    4496,    4516,    4796,    4654,    4670,    4798
     692,    4513,    4514,    4516,    4515,    4795,    4796,    4798,    4797
     693,    4507,    4513,    4515,    4508,    4791,    4795,    4797,    4790
     694,    4512,    4498,    4497,    4514,    4794,    4638,    4654,    4796
     695,    4511,    4512,    4514,    4513,    4793,    4794,    4796,    4795
     696,    4506,    4511,    4513,    4507,    4792,    4793,    4795,    4791
     697,    4493,    4490,    4498,    4512,    4601,    4550,    4638,    4794
     698,    4492,    4493,    4512,    4511,    4585,    4601,    4794,    4793
     699,    4491,    4492,    4511,    4506,    4569,    4585,    4793,    4792
     700,    4499,    4489,    4491,    4506,    4693,    4518,    4569,    4792
     701,    4500,    4499,    4506,    4507,    4709,    4693,    4792,    4791
     702,    4501,    4500,    4507,    4508,    4725,    4709,    4791,    4790
     703,    4502,    4501,    4508,    4505,    4741,    4725,    4790,    4789
     704,    4799,    4757,    4741,    4789,    4811,    4758,    4742,    4801
     705,    4800,    4773,    4757,    4799,    4812,    4774,    4758,    4811
     706,    4686,    4603,    4773,    4800,    4685,    4604,    4774,    4812
     707,    4798,    4670,    4686,    4800,    4810,    4669,    4685,    4812
     708,    4797,    4798,    4800,    4799,    4809,    4810,    4812,    4811
     709,    4790,    4797,    4799,    4789,    4802,    4809,    4811,    4801
     710,    4796,    4654,    4670,    4798,    4808,    4653,    4669,    4810
     711,    4795,    4796,    4798,    4797,    4807,    4808,    4810,    4809
     712,    4791,    4795,    4797,    4790,    4803,    4807,    4809,    4802
     713,    4794,    4638,    4654,    4796,    4806,    4637,    4653,    4808
     714,    4793,    4794,    4796,    4795,    4805,    4806,    4808,    4807
     715,    4792,    4793,    4795,    4791,    4804,    4805,    4807,    4803
     716,    4601,    4550,    4638,    4794,    4600,    4549,    4637,    4806
     717,    4585,    4601,    4794,    4793,    4584,    4600,    4806,    4805
     718,    4569,    4585,    4793,    4792,    4568,    4584,    4805,    4804
     719,    4693,    4518,    4569,    4792,    4694,    4519,    4568,    4804
     720,    4709,    4693,    4792,    4791,    4710,    4694,    4804,    4803
     721,    4725,    4709,    4791,    4790,    4726,    4710,    4803,    4802
     722,    4741,    4725,    4790,    4789,    4742,    4726,    4802,    4801
     723,    4811,    4758,    4742,    4801,    4823,    4759,    4743,    4813
     724,    4812,    4774,    4758,    4811,    4824,    4775,    4759,    4823
     725,    4685,    4604,    4774,    4812,    4684,    4605,    4775,    4824
     726,    4810,    4669,    4685,    4812,    4822,    4668,    4684,    4824
     727,    4809,    4810,    4812,    4811,    4821,    4822,    4824,    4823
     728,    4802,    4809,    4811,    4801,    4814,    4821,    4823,    4813
     729,    4808,    4653,    4669,    4810,    4820,    4652,    4668,    4822
     730,    4807,    4808,    4810,    4809,    4819,    4820,    4822,    4821
     731,    4803,    4807,    4809,    4802,    4815,    4819,    4821,    4814
     732,    4806,    4637,    4653,    4808,    4818,    4636,    4652,    4820
     733,    4805,    4806,    4808,    4807,    4817,    4818,    4820,    4819
     734,    4804,    4805,    4807,    4803,    4816,    4817,    4819,    4815
     735,    4600,    4549,    4637,    4806,    4599,    4548,    4636,    4818
     736,    4584,    4600,    4806,    4805,    4583,    4599,    4818,    4817
     737,    4568,    4584,    4805,    4804,    4567,    4583,    4817,    4816
     738,    4694,    4519,    4568,    4804,    4695,    4520,    4567,    4816
     739,    4710,    4694,    4804,    4803,    4711,    4695,    4816,    4815
     740,    4726,    4710,    4803,    4802,    4727,    4711,    4815,    4814
     741,    4742,    4726,    4802,    4801,    4743,    4727,    4814,    4813
     742,    4823,    4759,    4743,    4813,    4835,    4760,    4744,    4825
     743,    4824,    4775,    4759,    4823,    4836,    4776,    4760,    4835
     744,    4684,    4605,    4775,    4824,    4683,    4606,    4776,    4836
     745,    4822,    4668,    4684,    4824,    4834,    4667,    4683,    4836
     746,    4821,    4822,    4824,    4823,    4833,    4834,    4836,    4835
     747,    4814,    4821,    4823,    4813,    4826,    4833,    4835,    4825
     748,    4820,    4652,    4668,    4822,    4832,    4651,    4667,    4834
     749,    4819,    4820,    4822,    4821,    4831,    4832,    4834,    4833
     750,    4815,    4819,    4821,    4814,    4827,    4831,    4833,    4826
     751,    4818,    4636,    4652,    4820,    4830,    4635,    4651,    4832
     752,    4817,    4818,    4820,    4819,    4829,    4830,    4832,    4831
     753,    4816,    4817,    4819,    4815,    4828,    4829,    4831,    4827
     754,    4599,    4548,    4636,    4818,    4598,    4547,    4635,    4830
     755,    4583,    4599,    4818,    4817,    4582,    4598,    4830,    4829
     756,    4567,    4583,    4817,    4816,    4566,    4582,    4829,    4828
     757,    4695,    4520,    4567,    4816,    4696,    4521,    4566,    4828
     758,    4711,    4695,    4816,    4815,    4712,    4696,    4828,    4827
     759,    4727,    4711,    4815,    4814,    4728,    4712,    4827,    4826
     760,    4743,    4727,    4814,    4813,    4744,    4728,    4826,    4825
     761,    4835,    4760,    4744,    4825,    4847,    4761,    4745,    4837
     762,    4836,    4776,    4760,    4835,    4848,    4777,    4761,    4847
     763,    4683,    4606,    4776,    4836,    4682,    4607,    4777,    4848
     764,    4834,    4667,    4683,    4836,    4846,    4666,    4682,    4848
     765,    4833,    4834,    4836,    4835,    4845,    4846,    4848,    4847
     766,    4826,    4833,    4835,    4825,    4838,    4845,    4847,    4837
     767,    4832,    4651,    4667,    4834,    4844,    4650,    4666,    4846
     768,    4831,    4832,    4834,    4833,    4843,    4844,    4846,    4845
     769,    4827,    4831,    4833,    4826,    4839,    4843,    4845,    4838
     770,    4830,    4635,    4651,    4832,    4842,    4634,    4650,    4844
     771,    4829,    4830,    4832,    4831,    4841,    4842,    4844,    4843
     772,    4828,    4829,    4831,    4827,    4840,    4841,    4843,    4839
     773,    4598,    4547,    4635,    4830,    4597,    4546,    4634,    4842
     774,    4582,    4598,    4830,    4829,    4581,    4597,    4842,    4841
     775,    4566,    4582,    4829,    4828,    4565,    4581,    4841,    4840
     776,    4696,    4521,    4566,    4828,    4697,    4522,    4565,    4840
     777,    4712,    4696,    4828,    4827,    4713,    4697,    4840,    4839
     778,    4728,    4712,    4827,    4826,    4729,    4713,    4839,    4838
     779,    4744,    4728,    4826,    4825,    4745,    4729,    4838,    4837
     780,    4847,    4761,    4745,    4837,    4859,    4762,    4746,    4849
     781,    4848,    4777,    4761,    4847,    4860,    4778,    4762,    4859
     782,    4682,    4607,    4777,    4848,    4681,    4608,    4778,    4860
     783,    4846,    4666,    4682,    4848,    4858,    4665,    4681,    4860
     784,    4845,    4846,    4848,    4847,    4857,    4858,    4860,    4859
     785,    4838,    4845,    4847,    4837,    4850,    4857,    4859,    4849
     786,    4844,    4650,    4666,    4846,    4856,    4649,    4665,    4858
     787,    4843,    4844,    4846,    4845,    4855,    4856,    4858,    4857
     788,    4839,    4843,    4845,    4838,    4851,    4855,    4857,    4850
     789,    4842,    4634,    4650,    4844,    4854,    4633,    4649,    4856
     790,    4841,    4842,    4844,    4843,    4853,    4854,    4856,    4855
     791,    4840,    4841,    4843,    4839,    4852,    4853,    4855,    4851
     792,    4597,    4546,    4634,    4842,    4596,    4545,    4633,    4854
     793,    4581,    4597,    4842,    4841,    4580,    4596,    4854,    4853
     794,    4565,    4581,    4841,    4840,    4564,    4580,    4853,    4852
     795,    4697,    4522,    4565,    4840,    4698,    4523,    4564,    4852
     796,    4713,    4697,    4840,    4839,    4714,    4698,    4852,    4851
     797,    4729,    4713,    4839,    4838,    4730,    4714,    4851,    4850
     798,    4745,    4729,    4838,    4837,    4746,    4730,    4850,    4849
     799,    4859,    4762,    4746,    4849,    4871,    4763,    4747,    4861
     800,    4860,    4778,    4762,    4859,    4872,    4779,    4763,    4871
     801,    4681,    4608,    4778,    4860,    4680,    4609,    4779,    4872
     802,    4858,    4665,    4681,    4860,    4870,    4664,    4680,    4872
     803,    4857,    4858,    4860,    4859,    4869,    4870,    4872,    4871
     804,    4850,    4857,    4859,    4849,    4862,    4869,    4871,    4861
     805,    4856,    4649,    4665,    4858,    4868,    4648,    4664,    4870
     806,    4855,    4856,    4858,    4857,    4867,    4868,    4870,    4869
     807,    4851,    4855,    4857,    4850,    4863,    4867,    4869,    4862
     808,    4854,    4633,    4649,    4856,    4866,    4632,    4648,    4868
     809,    4853,    4854,    4856,    4855,    4865,    4866,    4868,    4867
     810,    4852,    4853,    4855,    4851,    4864,    4865,    4867,    4863
     811,    4596,    4545,    4633,    4854,    4595,    4544,    4632,    4866
     812,    4580,    4596,    4854,    4853,    4579,    4595,    4866,    4865
     813,    4564,    4580,    4853,    4852,    4563,    4579,    4865,    4864
     814,    4698,    4523,    4564,    4852,    4699,    4524,    4563,    4864
     815,    4714,    4698,    4852,    4851,    4715,    4699,    4864,    4863
     816,    4730,    4714,    4851,    4850,    4731,    4715,    4863,    4862
     817,    4746,    4730,    4850,    4849,    4747,    4731,    4862,    4861
     818,    4871,    4763,    4747,    4861,    4883,    4764,    4748,    4873
     819,    4872,    4779,    4763,    4871,    4884,    4780,    4764,    4883
     820,    4680,    4609,    4779,    4872,    4679,    4610,    4780,    4884
     821,    4870,    4664,    4680,    4872,    4882,    4663,    4679,    4884
     822,    4869,    4870,    4872,    4871,    4881,    4882,    4884,    4883
     823,    4862,    4869,    4871,    4861,    4874,    4881,    4883,    4873
     824,    4868,    4648,    4664,    4870,    4880,    4647,    4663,    4882
     825,    4867,    4868,    4870,    4869,    4879,    4880,    4882,    4881
     826,    4863,    4867,    4869,    4862,    4875,    4879,    4881,    4874
     827,    4866,    4632,    4648,    4868,    4878,    4631,    4647,    4880
     828,    4865,    4866,    4868,    4867,    4877,    4878,    4880,    4879
     829,    4864,    4865,    4867,    4863,    4876,    4877,    4879,    4875
     830,    4595,    4544,    4632,    4866,    4594,    4543,    4631,    4878
     831,    4579,    4595,    4866,    4865,    4578,    4594,    4878,    4877
     832,    4563,    4579,    4865,    4864,    4562,    4578,    4877,    4876
     833,    4699,    4524,    4563,    4864,    4700,    4525,    4562,    4876
     834,    4715,    4699,    4864,    4863,    4716,    4700,    4876,    4875
     835,    4731,    4715,    4863,    4862,    4732,    4716,    4875,    4874
     836,    4747,    4731,    4862,    4861,    4748,    4732,    4874,    4873
     837,    4883,    4764,    4748,    4873,    4895,    4765,    4749,    4885
     838,    4884,    4780,    4764,    4883,    4896,    4781,    4765,    4895
     839,    4679,    4610,    4780,    4884,    4678,    4611,    4781,    4896
     840,    4882,    4663,    4679,    4884,    4894,    4662,    4678,    4896
     841,    4881,    4882,    4884,    4883,    4893,    4894,    4896,    4895
     842,    4874,    4881,    4883,    4873,    4886,    4893,    4895,    4885
     843,    4880,    4647,    4663,    4882,    4892,    4646,    4662,    4894
     844,    4879,    4880,    4882,    4881,    4891,    4892,    4894,    4893
     845,    4875,    4879,    4881,    4874,    4887,    4891,    4893,    4886
     846,    4878,    4631,    4647,    4880,    4890,    4630,    4646,    4892
     847,    4877,    4878,    4880,    4879,    4889,    4890,    4892,    4891
     848,    4876,    4877,    4879,    4875,    4888,    4889,    4891,    4887
     849,    4594,    4543,    4631,    4878,    4593,    4542,    4630,    4890
     850,    4578,    4594,    4878,    4877,    4577,    4593,    4890,    4889
     851,    4562,    4578,    4877,    4876,    4561,    4577,    4889,    4888
     852,    4700,    4525,    4562,    4876,    4701,    4526,    4561,    4888
     853,    4716,    4700,    4876,    4875,    4717,    4701,    4888,    4887
     854,    4732,    4716,    4875,    4874,    4733,    4717,    4887,    4886
     855,    4748,    4732,    4874,    4873,    4749,    4733,    4886,    4885
     856,    4895,    4765,    4749,    4885,    4907,    4766,    4750,    4897
     857,    4896,    4781,    4765,    4895,    4908,    4782,    4766,    4907
     858,    4678,    4611,    4781,    4896,    4677,    4612,    4782,    4908
     859,    4894,    4662,    4678,    4896,    4906,    4661,    4677,    4908
     860,    4893,    4894,    4896,    4895,    4905,    4906,    4908,    4907
     861,    4886,    4893,    4895,    4885,    4898,    4905,    4907,    4897
     862,    4892,    4646,    4662,    4894,    4904,    4645,    4661,    4906
     863,    4891,    4892,    4894,    4893,    4903,    4904,    4906,    4905
     864,    4887,    4891,    4893,    4886,    4899,    4903,    4905,    4898
     865,    4890,    4630,    4646,    4892,    4902,    4629,    4645,    4904
     866,    4889,    4890,    4892,    4891,    4901,    4902,    4904,    4903
     867,    4888,    4889,    4891,    4887,    4900,    4901,    4903,    4899
     868,    4593,    4542,    4630,    4890,    4592,    4541,    4629,    4902
     869,    4577,    4593,    4890,    4889,    4576,    4592,    4902,    4901
     870,    4561,    4577,    4889,    4888,    4560,    4576,    4901,    4900
     871,    4701,    4526,    4561,    4888,    4702,    4527,    4560,    4900
     872,    4717,    4701,    4888,    4887,    4718,    4702,    4900,    4899
     873,    4733,    4717,    4887,    4886,    4734,    4718,    4899,    4898
     874,    4749,    4733,    4886,    4885,    4750,    4734,    4898,    4897
     875,    4907,    4766,    4750,    4897,    4919,    4767,    4751,    4909
     876,    4908,    4782,    4766,    4907,    4920,    4783,    4767,    4919
     877,    4677,    4612,    4782,    4908,    4676,    4613,    4783,    4920
     878,    4906,    4661,    4677,    4908,    4918,    4660,    4676,    4920
     879,    4905,    4906,    4908,    4907,    4917,    4918,    4920,    4919
     880,    4898,    4905,    4907,    4897,    4910,    4917,    4919,    4909
     881,    4904,    4645,    4661,    4906,    4916,    4644,    4660,    4918
     882,    4903,    4904,    4906,    4905,    4915,    4916,    4918,    4917
     883,    4899,    4903,    4905,    4898,    4911,    4915,    4917,    4910
     884,    4902,    4629,    4645,    4904,    4914,    4628,    4644,    4916
     885,    4901,    4902,    4904,    4903,    4913,    4914,    4916,    4915
     886,    4900,    4901,    4903,    4899,    4912,    4913,    4915,    4911
     887,    4592,    4541,    4629,    4902,    4591,    4540,    4628,    4914
     888,    4576,    4592,    4902,    4901,    4575,    4591,    4914,    4913
     889,    4560,    4576,    4901,    4900,    4559,    4575,    4913,    4912
     890,    4702,    4527,    4560,    4900,    4703,    4528,    4559,    4912
     891,    4718,    4702,    4900,    4899,    4719,    4703,    4912,    4911
     892,    4734,    4718,    4899,    4898,    4735,    4719,    4911,    4910
     893,    4750,    4734,    4898,    4897,    4751,    4735,    4910,    4909
     894,    4919,    4767,    4751,    4909,    4931,    4768,    4752,    4921
     895,    4920,    4783,    4767,    4919,    4932,    4784,    4768,    4931
     896,    4676,    4613,    4783,    4920,    4675,    4614,    4784,    4932
     897,    4918,    4660,    4676,    4920,    4930,    4659,    4675,    4932
     898,    4917,    4918,    4920,    4919,    4929,    4930,    4932,    4931
     899,    4910,    4917,    4919,    4909,    4922,    4929,    4931,    4921
     900,    4916,    4644,    4660,    4918,    4928,    4643,    4659,    4930
     901,    4915,    4916,    4918,    4917,    4927,    4928,    4930,    4929
     902,    4911,    4915,    4917,    4910,    4923,    4927,    4929,    4922
     903,    4914,    4628,    4644,    4916,    4926,    4627,    4643,    4928
     904,    4913,    4914,    4916,    4915,    4925,    4926,    4928,    4927
     905,    4912,    4913,    4915,    4911,    4924,    4925,    4927,    4923
     906,    4591,    4540,    4628,    4914,    4590,    4539,    4627,    4926
     907,    4575,    4591,    4914,    4913,    4574,    4590,    4926,    4925
     908,    4559,    4575,    4913,    4912,    4558,    4574,    4925,    4924
     909,    4703,    4528,    4559,    4912,    4704,    4529,    4558,    4924
     910,    4719,    4703,    4912,    4911,    4720,    4704,    4924,    4923
     911,    4735,    4719,    4911,    4910,    4736,    4720,    4923,    4922
     912,    4751,    4735,    4910,    4909,    4752,    4736,    4922,    4921
     913,    4931,    4768,    4752,    4921,    4943,    4769,    4753,    4933
     914,    4932,    4784,    4768,    4931,    4944,    4785,    4769,    4943
     915,    4675,    4614,    4784,    4932,    4674,    4615,    4785,    4944
     916,    4930,    4659,    4675,    4932,    4942,    4658,    4674,    4944
     917,    4929,    4930,    4932,    4931,    4941,    4942,    4944,    4943
     918,    4922,    4929,    4931,    4921,    4934,    4941,    4943,    4933
     919,    4928,    4643,    4659,    4930,    4940,    4642,    4658,    4942
     920,    4927,    4928,    4930,    4929,    4939,    4940,    4942,    4941
     921,    4923,    4927,    4929,    4922,    4935,    4939,    4941,    4934
     922,    4926,    4627,    4643,    4928,    4938,    4626,    4642,    4940
     923,    4925,    4926,    4928,    4927,    4937,    4938,    4940,    4939
     924,    4924,    4925,    4927,    4923,    4936,    4937,    4939,    4935
     925,    4590,    4539,    4627,    4926,    4589,    4538,    4626,    4938
     926,    4574,    4590,    4926,    4925,    4573,    4589,    4938,    4937
     927,    4558,    4574,    4925,    4924,    4557,    4573,    4937,    4936
     928,    4704,    4529,    4558,    4924,    4705,    4530,    4557,    4936
     929,    4720,    4704,    4924,    4923,    4721,    4705,    4936,    4935
     930,    4736,    4720,    4923,    4922,    4737,    4721,    4935,    4934
     931,    4752,    4736,    4922,    4921,    4753,    4737,    4934,    4933
     932,    4943,    4769,    4753,    4933,    4955,    4770,    4754,    4945
     933,    4944,    4785,    4769,    4943,    4956,    4786,    4770,    4955
     934,    4674,    4615,    4785,    4944,    4673,    4616,    4786,    4956
     935,    4942,    4658,    4674,    4944,    4954,    4657,    4673,    4956
     936,    4941,    4942,    4944,    4943,    4953,    4954,    4956,    4955
     937,    4934,    4941,    4943,    4933,    4946,    4953,    4955,    4945
     938,    4940,    4642,    4658,    4942,    4952,    4641,    4657,    4954
     939,    4939,    4940,    4942,    4941,    4951,    4952,    4954,    4953
     940,    4935,    4939,    4941,    4934,    4947,    4951,    4953,    4946
     941,    4938,    4626,    4642,    4940,    4950,    4625,    4641,    4952
     942,    4937,    4938,    4940,    4939,    4949,    4950,    4952,    4951
     943,    4936,    4937,    4939,    4935,    4948,    4949,    4951,    4947
     944,    4589,    4538,    4626,    4938,    4588,    4537,    4625,    4950
     945,    4573,    4589,    4938,    4937,    4572,    4588,    4950,    4949
     946,    4557,    4573,    4937,    4936,    4556,    4572,    4949,    4948
     947,    4705,    4530,    4557,    4936,    4706,    4531,    4556,    4948
     948,    4721,    4705,    4936,    4935,    4722,    4706,    4948,    4947
     949,    4737,    4721,    4935,    4934,    4738,    4722,    4947,    4946
     950,    4753,    4737,    4934,    4933,    4754,    4738,    4946,    4945
     951,    4955,    4770,    4754,    4945,    4967,    4771,    4755,    4957
     952,    4956,    4786,    4770,    4955,    4968,    4787,    4771,    4967
     953,    4673,    4616,    4786,    4956,    4672,    4617,    4787,    4968
     954,    4954,    4657,    4673,    4956,    4966,    4656,    4672,    4968
     955,    4953,    4954,    4956,    4955,    4965,    4966,    4968,    4967
     956,    4946,    4953,    4955,    4945,    4958,    4965,    4967,    4957
     957,    4952,    4641,    4657,    4954,    4964,    4640,    4656,    4966
     958,    4951,    4952,    4954,    4953,    4963,    4964,    4966,    4965
     959,    4947,    4951,    4953,    4946,    4959,    4963,    4965,    4958
     960,    4950,    4625,    4641,    4952,    4962,    4624,    4640,    4964
     961,    4949,    4950,    4952,    4951,    4961,    4962,    4964,    4963
     962,    4948,    4949,    4951,    4947,    4960,    4961,    4963,    4959
     963,    4588,    4537,    4625,    4950,    4587,    4536,    4624,    4962
     964,    4572,    4588,    4950,    4949,    4571,    4587,    4962,    4961
     965,    4556,    4572,    4949,    4948,    4555,    4571,    4961,    4960
     966,    4706,    4531,    4556,    4948,    4707,    4532,    4555,    4960
     967,    4722,    4706,    4948,    4947,    4723,    4707,    4960,    4959
     968,    4738,    4722,    4947,    4946,    4739,    4723,    4959,    4958
     969,    4754,    4738,    4946,    4945,    4755,    4739,    4958,    4957
     970,    4967,    4771,    4755,    4957,    4979,    4772,    4756,    4969
     971,    4968,    4787,    4771,    4967,    4980,    4788,    4772,    4979
     972,    4672,    4617,    4787,    4968,    4671,    4618,    4788,    4980
     973,    4966,    4656,    4672,    4968,    4978,    4655,    4671,    4980
     974,    4965,    4966,    4968,    4967,    4977,    4978,    4980,    4979
     975,    4958,    4965,    4967,    4957,    4970,    4977,    4979,    4969
     976,    4964,    4640,    4656,    4966,    4976,    4639,    4655,    4978
     977,    4963,    4964,    4966,    4965,    4975,    4976,    4978,    4977
     978,    4959,    4963,    4965,    4958,    4971,    4975,    4977,    4970
     979,    4962,    4624,    4640,    4964,    4974,    4623,    4639,    4976
     980,    4961,    4962,    4964,    4963,    4973,    4974,    4976,    4975
     981,    4960,    4961,    4963,    4959,    4972,    4973,    4975,    4971
     982,    4587,    4536,    4624,    4962,    4586,    4535,    4623,    4974
     983,    4571,    4587,    4962,    4961,    4570,    4586,    4974,    4973
     984,    4555,    4571,    4961,    4960,    4554,    4570,    4973,    4972
     985,    4707,    4532,    4555,    4960,    4708,    4533,    4554,    4972
     986,    4723,    4707,    4960,    4959,    4724,    4708,    4972,    4971
     987,    4739,    4723,    4959,    4958,    4740,    4724,    4971,    4970
     988,    4755,    4739,    4958,    4957,    4756,    4740,    4970,    4969
     989,    4979,    4772,    4756,    4969,    4991,    4688,    4689,    4981
     990,    4980,    4788,    4772,    4979,    4992,    4687,    4688,    4991
     991,    4671,    4618,    4788,    4980,    4619,    4602,    4687,    4992
     992,    4978,    4655,    4671,    4980,    4990,    4620,    4619,    4992
     993,    4977,    4978,    4980,    4979,    4989,    4990,    4992,    4991
     994,    4970,    4977,    4979,    4969,    4982,    4989,    4991,    4981
     995,    4976,    4639,    4655,    4978,    4988,    4621,    4620,    4990
     996,    4975,    4976,    4978,    4977,    4987,    4988,    4990,    4989
     997,    4971,    4975,    4977,    4970,    4983,    4987,    4989,    4982
     998,    4974,    4623,    4639,    4976,    4986,    4622,    4621,    4988
     999,    4973,    4974,    4976,    4975,    4985,    4986,    4988,    4987
    1000,    4972,    4973,    4975,    4971,    4984,    4985,    4987,    4983
    1001,    4586,    4535,    4623,    4974,    4553,    4534,    4622,    4986
    1002,    4570,    4586,    4974,    4973,    4552,    4553,    4986,    4985
    1003,    4554,    4570,    4973,    4972,    4551,    4552,    4985,    4984
    1004,    4708,    4533,    4554,    4972,    4692,    4517,    4551,    4984
    1005,    4724,    4708,    4972,    4971,    4691,    4692,    4984,    4983
    1006,    4740,    4724,    4971,    4970,    4690,    4691,    4983,    4982
    1007,    4756,    4740,    4970,    4969,    4689,    4690,    4982,    4981
    1008,   11534,   11420,   11632,   11634,   11299,   11298,   11336,   11401
    1009,   11515,   11534,   11634,   11638,   11300,   11299,   11401,   11402
    1010,   11496,   11515,   11638,   11642,   11301,   11300,   11402,   11403
    1011,   11641,   11477,   11496,   11642,   11404,   11302,   11301,   11403
    1012,   11643,   11458,   11477,   11641,   11405,   11303,   11302,   11404
    1013,   11644,   11439,   11458,   11643,   11406,   11304,   11303,   11405
    1014,    5484,    5460,   11439,   11644,    5307,    5301,   11304,   11406
    1015,   11640,    5503,    5484,   11644,   11407,    5308,    5307,   11406
    1016,   11639,   11640,   11644,   11643,   11408,   11407,   11406,   11405
    1017,   11637,   11639,   11643,   11641,   11409,   11408,   11405,   11404
    1018,   11638,   11637,   11641,   11642,   11402,   11409,   11404,   11403
    1019,   11636,    5522,    5503,   11640,   11410,    5309,    5308,   11407
    1020,   11635,   11636,   11640,   11639,   11411,   11410,   11407,   11408
    1021,   11633,   11635,   11639,   11637,   11412,   11411,   11408,   11409
    1022,   11634,   11633,   11637,   11638,   11401,   11412,   11409,   11402
    1023,   11575,    5465,    5522,   11636,   11333,    5306,    5309,   11410
    1024,   11594,   11575,   11636,   11635,   11334,   11333,   11410,   11411
    1025,   11613,   11594,   11635,   11633,   11335,   11334,   11411,   11412
    1026,   11632,   11613,   11633,   11634,   11336,   11335,   11412,   11401
    1027,   11535,   11421,   11631,   11646,   11534,   11420,   11632,   11634
    1028,   11516,   11535,   11646,   11650,   11515,   11534,   11634,   11638
    1029,   11497,   11516,   11650,   11654,   11496,   11515,   11638,   11642
    1030,   11653,   11478,   11497,   11654,   11641,   11477,   11496,   11642
    1031,   11655,   11459,   11478,   11653,   11643,   11458,   11477,   11641
    1032,   11656,   11440,   11459,   11655,   11644,   11439,   11458,   11643
    1033,    5485,    5459,   11440,   11656,    5484,    5460,   11439,   11644
    1034,   11652,    5504,    5485,   11656,   11640,    5503,    5484,   11644
    1035,   11651,   11652,   11656,   11655,   11639,   11640,   11644,   11643
    1036,   11649,   11651,   11655,   11653,   11637,   11639,   11643,   11641
    1037,   11650,   11649,   11653,   11654,   11638,   11637,   11641,   11642
    1038,   11648,    5523,    5504,   11652,   11636,    5522,    5503,   11640
    1039,   11647,   11648,   11652,   11651,   11635,   11636,   11640,   11639
    1040,   11645,   11647,   11651,   11649,   11633,   11635,   11639,   11637
    1041,   11646,   11645,   11649,   11650,   11634,   11633,   11637,   11638
    1042,   11574,    5466,    5523,   11648,   11575,    5465,    5522,   11636
    1043,   11593,   11574,   11648,   11647,   11594,   11575,   11636,   11635
    1044,   11612,   11593,   11647,   11645,   11613,   11594,   11635,   11633
    1045,   11631,   11612,   11645,   11646,   11632,   11613,   11633,   11634
    1046,   11536,   11422,   11630,   11658,   11535,   11421,   11631,   11646
    1047,   11517,   11536,   11658,   11662,   11516,   11535,   11646,   11650
    1048,   11498,   11517,   11662,   11666,   11497,   11516,   11650,   11654
    1049,   11665,   11479,   11498,   11666,   11653,   11478,   11497,   11654
    1050,   11667,   11460,   11479,   11665,   11655,   11459,   11478,   11653
    1051,   11668,   11441,   11460,   11667,   11656,   11440,   11459,   11655
    1052,    5486,    5458,   11441,   11668,    5485,    5459,   11440,   11656
    1053,   11664,    5505,    5486,   11668,   11652,    5504,    5485,   11656
    1054,   11663,   11664,   11668,   11667,   11651,   11652,   11656,   11655
    1055,   11661,   11663,   11667,   11665,   11649,   11651,   11655,   11653
    1056,   11662,   11661,   11665,   11666,   11650,   11649,   11653,   11654
    1057,   11660,    5524,    5505,   11664,   11648,    5523,    5504,   11652
    1058,   11659,   11660,   11664,   11663,   11647,   11648,   11652,   11651
    1059,   11657,   11659,   11663,   11661,   11645,   11647,   11651,   11649
    1060,   11658,   11657,   11661,   11662,   11646,   11645,   11649,   11650
    1061,   11573,    5467,    5524,   11660,   11574,    5466,    5523,   11648
    1062,   11592,   11573,   11660,   11659,   11593,   11574,   11648,   11647
    1063,   11611,   11592,   11659,   11657,   11612,   11593,   11647,   11645
    1064,   11630,   11611,   11657,   11658,   11631,   11612,   11645,   11646
    1065,   11537,   11423,   11629,   11670,   11536,   11422,   11630,   11658
    1066,   11518,   11537,   11670,   11674,   11517,   11536,   11658,   11662
    1067,   11499,   11518,   11674,   11678,   11498,   11517,   11662,   11666
    1068,   11677,   11480,   11499,   11678,   11665,   11479,   11498,   11666
    1069,   11679,   11461,   11480,   11677,   11667,   11460,   11479,   11665
    1070,   11680,   11442,   11461,   11679,   11668,   11441,   11460,   11667
    1071,    5487,    5457,   11442,   11680,    5486,    5458,   11441,   11668
    1072,   11676,    5506,    5487,   11680,   11664,    5505,    5486,   11668
    1073,   11675,   11676,   11680,   11679,   11663,   11664,   11668,   11667
    1074,   11673,   11675,   11679,   11677,   11661,   11663,   11667,   11665
    1075,   11674,   11673,   11677,   11678,   11662,   11661,   11665,   11666
    1076,   11672,    5525,    5506,   11676,   11660,    5524,    5505,   11664
    1077,   11671,   11672,   11676,   11675,   11659,   11660,   11664,   11663
    1078,   11669,   11671,   11675,   11673,   11657,   11659,   11663,   11661
    1079,   11670,   11669,   11673,   11674,   11658,   11657,   11661,   11662
    1080,   11572,    5468,    5525,   11672,   11573,    5467,    5524,   11660
    1081,   11591,   11572,   11672,   11671,   11592,   11573,   11660,   11659
    1082,   11610,   11591,   11671,   11669,   11611,   11592,   11659,   11657
    1083,   11629,   11610,   11669,   11670,   11630,   11611,   11657,   11658
    1084,   11538,   11424,   11628,   11682,   11537,   11423,   11629,   11670
    1085,   11519,   11538,   11682,   11686,   11518,   11537,   11670,   11674
    1086,   11500,   11519,   11686,   11690,   11499,   11518,   11674,   11678
    1087,   11689,   11481,   11500,   11690,   11677,   11480,   11499,   11678
    1088,   11691,   11462,   11481,   11689,   11679,   11461,   11480,   11677
    1089,   11692,   11443,   11462,   11691,   11680,   11442,   11461,   11679
    1090,    5488,    5456,   11443,   11692,    5487,    5457,   11442,   11680
    1091,   11688,    5507,    5488,   11692,   11676,    5506,    5487,   11680
    1092,   11687,   11688,   11692,   11691,   11675,   11676,   11680,   11679
    1093,   11685,   11687,   11691,   11689,   11673,   11675,   11679,   11677
    1094,   11686,   11685,   11689,   11690,   11674,   11673,   11677,   11678
    1095,   11684,    5526,    5507,   11688,   11672,    5525,    5506,   11676
    1096,   11683,   11684,   11688,   11687,   11671,   11672,   11676,   11675
    1097,   11681,   11683,   11687,   11685,   11669,   11671,   11675,   11673
    1098,   11682,   11681,   11685,   11686,   11670,   11669,   11673,   11674
    1099,   11571,    5469,    5526,   11684,   11572,    5468,    5525,   11672
    1100,   11590,   11571,   11684,   11683,   11591,   11572,   11672,   11671
    1101,   11609,   11590,   11683,   11681,   11610,   11591,   11671,   11669
    1102,   11628,   11609,   11681,   11682,   11629,   11610,   11669,   11670
    1103,   11539,   11425,   11627,   11694,   11538,   11424,   11628,   11682
    1104,   11520,   11539,   11694,   11698,   11519,   11538,   11682,   11686
    1105,   11501,   11520,   11698,   11702,   11500,   11519,   11686,   11690
    1106,   11701,   11482,   11501,   11702,   11689,   11481,   11500,   11690
    1107,   11703,   11463,   11482,   11701,   11691,   11462,   11481,   11689
    1108,   11704,   11444,   11463,   11703,   11692,   11443,   11462,   11691
    1109,    5489,    5455,   11444,   11704,    5488,    5456,   11443,   11692
    1110,   11700,    5508,    5489,   11704,   11688,    5507,    5488,   11692
    1111,   11699,   11700,   11704,   11703,   11687,   11688,   11692,   11691
    1112,   11697,   11699,   11703,   11701,   11685,   11687,   11691,   11689
    1113,   11698,   11697,   11701,   11702,   11686,   11685,   11689,   11690
    1114,   11696,    5527,    5508,   11700,   11684,    5526,    5507,   11688
    1115,   11695,   11696,   11700,   11699,   11683,   11684,   11688,   11687
    1116,   11693,   11695,   11699,   11697,   11681,   11683,   11687,   11685
    1117,   11694,   11693,   11697,   11698,   11682,   11681,   11685,   11686
    1118,   11570,    5470,    5527,   11696,   11571,    5469,    5526,   11684
    1119,   11589,   11570,   11696,   11695,   11590,   11571,   11684,   11683
    1120,   11608,   11589,   11695,   11693,   11609,   11590,   11683,   11681
    1121,   11627,   11608,   11693,   11694,   11628,   11609,   11681,   11682
    1122,   11540,   11426,   11626,   11706,   11539,   11425,   11627,   11694
    1123,   11521,   11540,   11706,   11710,   11520,   11539,   11694,   11698
    1124,   11502,   11521,   11710,   11714,   11501,   11520,   11698,   11702
    1125,   11713,   11483,   11502,   11714,   11701,   11482,   11501,   11702
    1126,   11715,   11464,   11483,   11713,   11703,   11463,   11482,   11701
    1127,   11716,   11445,   11464,   11715,   11704,   11444,   11463,   11703
    1128,    5490,    5454,   11445,   11716,    5489,    5455,   11444,   11704
    1129,   11712,    5509,    5490,   11716,   11700,    5508,    5489,   11704
    1130,   11711,   11712,   11716,   11715,   11699,   11700,   11704,   11703
    1131,   11709,   11711,   11715,   11713,   11697,   11699,   11703,   11701
    1132,   11710,   11709,   11713,   11714,   11698,   11697,   11701,   11702
    1133,   11708,    5528,    5509,   11712,   11696,    5527,    5508,   11700
    1134,   11707,   11708,   11712,   11711,   11695,   11696,   11700,   11699
    1135,   11705,   11707,   11711,   11709,   11693,   11695,   11699,   11697
    1136,   11706,   11705,   11709,   11710,   11694,   11693,   11697,   11698
    1137,   11569,    5471,    5528,   11708,   11570,    5470,    5527,   11696
    1138,   11588,   11569,   11708,   11707,   11589,   11570,   11696,   11695
    1139,   11607,   11588,   11707,   11705,   11608,   11589,   11695,   11693
    1140,   11626,   11607,   11705,   11706,   11627,   11608,   11693,   11694
    1141,   11541,   11427,   11625,   11718,   11540,   11426,   11626,   11706
    1142,   11522,   11541,   11718,   11722,   11521,   11540,   11706,   11710
    1143,   11503,   11522,   11722,   11726,   11502,   11521,   11710,   11714
    1144,   11725,   11484,   11503,   11726,   11713,   11483,   11502,   11714
    1145,   11727,   11465,   11484,   11725,   11715,   11464,   11483,   11713
    1146,   11728,   11446,   11465,   11727,   11716,   11445,   11464,   11715
    1147,    5491,    5453,   11446,   11728,    5490,    5454,   11445,   11716
    1148,   11724,    5510,    5491,   11728,   11712,    5509,    5490,   11716
    1149,   11723,   11724,   11728,   11727,   11711,   11712,   11716,   11715
    1150,   11721,   11723,   11727,   11725,   11709,   11711,   11715,   11713
    1151,   11722,   11721,   11725,   11726,   11710,   11709,   11713,   11714
    1152,   11720,    5529,    5510,   11724,   11708,    5528,    5509,   11712
    1153,   11719,   11720,   11724,   11723,   11707,   11708,   11712,   11711
    1154,   11717,   11719,   11723,   11721,   11705,   11707,   11711,   11709
    1155,   11718,   11717,   11721,   11722,   11706,   11705,   11709,   11710
    1156,   11568,    5472,    5529,   11720,   11569,    5471,    5528,   11708
    1157,   11587,   11568,   11720,   11719,   11588,   11569,   11708,   11707
    1158,   11606,   11587,   11719,   11717,   11607,   11588,   11707,   11705
    1159,   11625,   11606,   11717,   11718,   11626,   11607,   11705,   11706
    1160,   11542,   11428,   11624,   11730,   11541,   11427,   11625,   11718
    1161,   11523,   11542,   11730,   11734,   11522,   11541,   11718,   11722
    1162,   11504,   11523,   11734,   11738,   11503,   11522,   11722,   11726
    1163,   11737,   11485,   11504,   11738,   11725,   11484,   11503,   11726
    1164,   11739,   11466,   11485,   11737,   11727,   11465,   11484,   11725
    1165,   11740,   11447,   11466,   11739,   11728,   11446,   11465,   11727
    1166,    5492,    5452,   11447,   11740,    5491,    5453,   11446,   11728
    1167,   11736,    5511,    5492,   11740,   11724,    5510,    5491,   11728
    1168,   11735,   11736,   11740,   11739,   11723,   11724,   11728,   11727
    1169,   11733,   11735,   11739,   11737,   11721,   11723,   11727,   11725
    1170,   11734,   11733,   11737,   11738,   11722,   11721,   11725,   11726
    1171,   11732,    5530,    5511,   11736,   11720,    5529,    5510,   11724
    1172,   11731,   11732,   11736,   11735,   11719,   11720,   11724,   11723
    1173,   11729,   11731,   11735,   11733,   11717,   11719,   11723,   11721
    1174,   11730,   11729,   11733,   11734,   11718,   11717,   11721,   11722
    1175,   11567,    5473,    5530,   11732,   11568,    5472,    5529,   11720
    1176,   11586,   11567,   11732,   11731,   11587,   11568,   11720,   11719
    1177,   11605,   11586,   11731,   11729,   11606,   11587,   11719,   11717
    1178,   11624,   11605,   11729,   11730,   11625,   11606,   11717,   11718
    1179,   11543,   11429,   11623,   11742,   11542,   11428,   11624,   11730
    1180,   11524,   11543,   11742,   11746,   11523,   11542,   11730,   11734
    1181,   11505,   11524,   11746,   11750,   11504,   11523,   11734,   11738
    1182,   11749,   11486,   11505,   11750,   11737,   11485,   11504,   11738
    1183,   11751,   11467,   11486,   11749,   11739,   11466,   11485,   11737
    1184,   11752,   11448,   11467,   11751,   11740,   11447,   11466,   11739
    1185,    5493,    5451,   11448,   11752,    5492,    5452,   11447,   11740
    1186,   11748,    5512,    5493,   11752,   11736,    5511,    5492,   11740
    1187,   11747,   11748,   11752,   11751,   11735,   11736,   11740,   11739
    1188,   11745,   11747,   11751,   11749,   11733,   11735,   11739,   11737
    1189,   11746,   11745,   11749,   11750,   11734,   11733,   11737,   11738
    1190,   11744,    5531,    5512,   11748,   11732,    5530,    5511,   11736
    1191,   11743,   11744,   11748,   11747,   11731,   11732,   11736,   11735
    1192,   11741,   11743,   11747,   11745,   11729,   11731,   11735,   11733
    1193,   11742,   11741,   11745,   11746,   11730,   11729,   11733,   11734
    1194,   11566,    5474,    5531,   11744,   11567,    5473,    5530,   11732
    1195,   11585,   11566,   11744,   11743,   11586,   11567,   11732,   11731
    1196,   11604,   11585,   11743,   11741,   11605,   11586,   11731,   11729
    1197,   11623,   11604,   11741,   11742,   11624,   11605,   11729,   11730
    1198,   11544,   11430,   11622,   11754,   11543,   11429,   11623,   11742
    1199,   11525,   11544,   11754,   11758,   11524,   11543,   11742,   11746
    1200,   11506,   11525,   11758,   11762,   11505,   11524,   11746,   11750
    1201,   11761,   11487,   11506,   11762,   11749,   11486,   11505,   11750
    1202,   11763,   11468,   11487,   11761,   11751,   11467,   11486,   11749
    1203,   11764,   11449,   11468,   11763,   11752,   11448,   11467,   11751
    1204,    5494,    5450,   11449,   11764,    5493,    5451,   11448,   11752
    1205,   11760,    5513,    5494,   11764,   11748,    5512,    5493,   11752
    1206,   11759,   11760,   11764,   11763,   11747,   11748,   11752,   11751
    1207,   11757,   11759,   11763,   11761,   11745,   11747,   11751,   11749
    1208,   11758,   11757,   11761,   11762,   11746,   11745,   11749,   11750
    1209,   11756,    5532,    5513,   11760,   11744,    5531,    5512,   11748
    1210,   11755,   11756,   11760,   11759,   11743,   11744,   11748,   11747
    1211,   11753,   11755,   11759,   11757,   11741,   11743,   11747,   11745
    1212,   11754,   11753,   11757,   11758,   11742,   11741,   11745,   11746
    1213,   11565,    5475,    5532,   11756,   11566,    5474,    5531,   11744
    1214,   11584,   11565,   11756,   11755,   11585,   11566,   11744,   11743
    1215,   11603,   11584,   11755,   11753,   11604,   11585,   11743,   11741
    1216,   11622,   11603,   11753,   11754,   11623,   11604,   11741,   11742
    1217,   11545,   11431,   11621,   11766,   11544,   11430,   11622,   11754
    1218,   11526,   11545,   11766,   11770,   11525,   11544,   11754,   11758
    1219,   11507,   11526,   11770,   11774,   11506,   11525,   11758,   11762
    1220,   11773,   11488,   11507,   11774,   11761,   11487,   11506,   11762
    1221,   11775,   11469,   11488,   11773,   11763,   11468,   11487,   11761
    1222,   11776,   11450,   11469,   11775,   11764,   11449,   11468,   11763
    1223,    5495,    5449,   11450,   11776,    5494,    5450,   11449,   11764
    1224,   11772,    5514,    5495,   11776,   11760,    5513,    5494,   11764
    1225,   11771,   11772,   11776,   11775,   11759,   11760,   11764,   11763
    1226,   11769,   11771,   11775,   11773,   11757,   11759,   11763,   11761
    1227,   11770,   11769,   11773,   11774,   11758,   11757,   11761,   11762
    1228,   11768,    5533,    5514,   11772,   11756,    5532,    5513,   11760
    1229,   11767,   11768,   11772,   11771,   11755,   11756,   11760,   11759
    1230,   11765,   11767,   11771,   11769,   11753,   11755,   11759,   11757
    1231,   11766,   11765,   11769,   11770,   11754,   11753,   11757,   11758
    1232,   11564,    5476,    5533,   11768,   11565,    5475,    5532,   11756
    1233,   11583,   11564,   11768,   11767,   11584,   11565,   11756,   11755
    1234,   11602,   11583,   11767,   11765,   11603,   11584,   11755,   11753
    1235,   11621,   11602,   11765,   11766,   11622,   11603,   11753,   11754
    1236,   11546,   11432,   11620,   11778,   11545,   11431,   11621,   11766
    1237,   11527,   11546,   11778,   11782,   11526,   11545,   11766,   11770
    1238,   11508,   11527,   11782,   11786,   11507,   11526,   11770,   11774
    1239,   11785,   11489,   11508,   11786,   11773,   11488,   11507,   11774
    1240,   11787,   11470,   11489,   11785,   11775,   11469,   11488,   11773
    1241,   11788,   11451,   11470,   11787,   11776,   11450,   11469,   11775
    1242,    5496,    5448,   11451,   11788,    5495,    5449,   11450,   11776
    1243,   11784,    5515,    5496,   11788,   11772,    5514,    5495,   11776
    1244,   11783,   11784,   11788,   11787,   11771,   11772,   11776,   11775
    1245,   11781,   11783,   11787,   11785,   11769,   11771,   11775,   11773
    1246,   11782,   11781,   11785,   11786,   11770,   11769,   11773,   11774
    1247,   11780,    5534,    5515,   11784,   11768,    5533,    5514,   11772
    1248,   11779,   11780,   11784,   11783,   11767,   11768,   11772,   11771
    1249,   11777,   11779,   11783,   11781,   11765,   11767,   11771,   11769
    1250,   11778,   11777,   11781,   11782,   11766,   11765,   11769,   11770
    1251,   11563,    5477,    5534,   11780,   11564,    5476,    5533,   11768
    1252,   11582,   11563,   11780,   11779,   11583,   11564,   11768,   11767
    1253,   11601,   11582,   11779,   11777,   11602,   11583,   11767,   11765
    1254,   11620,   11601,   11777,   11778,   11621,   11602,   11765,   11766
    1255,   11547,   11433,   11619,   11790,   11546,   11432,   11620,   11778
    1256,   11528,   11547,   11790,   11794,   11527,   11546,   11778,   11782
    1257,   11509,   11528,   11794,   11798,   11508,   11527,   11782,   11786
    1258,   11797,   11490,   11509,   11798,   11785,   11489,   11508,   11786
    1259,   11799,   11471,   11490,   11797,   11787,   11470,   11489,   11785
    1260,   11800,   11452,   11471,   11799,   11788,   11451,   11470,   11787
    1261,    5497,    5447,   11452,   11800,    5496,    5448,   11451,   11788
    1262,   11796,    5516,    5497,   11800,   11784,    5515,    5496,   11788
    1263,   11795,   11796,   11800,   11799,   11783,   11784,   11788,   11787
    1264,   11793,   11795,   11799,   11797,   11781,   11783,   11787,   11785
    1265,   11794,   11793,   11797,   11798,   11782,   11781,   11785,   11786
    1266,   11792,    5535,    5516,   11796,   11780,    5534,    5515,   11784
    1267,   11791,   11792,   11796,   11795,   11779,   11780,   11784,   11783
    1268,   11789,   11791,   11795,   11793,   11777,   11779,   11783,   11781
    1269,   11790,   11789,   11793,   11794,   11778,   11777,   11781,   11782
    1270,   11562,    5478,    5535,   11792,   11563,    5477,    5534,   11780
    1271,   11581,   11562,   11792,   11791,   11582,   11563,   11780,   11779
    1272,   11600,   11581,   11791,   11789,   11601,   11582,   11779,   11777
    1273,   11619,   11600,   11789,   11790,   11620,   11601,   11777,   11778
    1274,   11548,   11434,   11618,   11802,   11547,   11433,   11619,   11790
    1275,   11529,   11548,   11802,   11806,   11528,   11547,   11790,   11794
    1276,   11510,   11529,   11806,   11810,   11509,   11528,   11794,   11798
    1277,   11809,   11491,   11510,   11810,   11797,   11490,   11509,   11798
    1278,   11811,   11472,   11491,   11809,   11799,   11471,   11490,   11797
    1279,   11812,   11453,   11472,   11811,   11800,   11452,   11471,   11799
    1280,    5498,    5446,   11453,   11812,    5497,    5447,   11452,   11800
    1281,   11808,    5517,    5498,   11812,   11796,    5516,    5497,   11800
    1282,   11807,   11808,   11812,   11811,   11795,   11796,   11800,   11799
    1283,   11805,   11807,   11811,   11809,   11793,   11795,   11799,   11797
    1284,   11806,   11805,   11809,   11810,   11794,   11793,   11797,   11798
    1285,   11804,    5536,    5517,   11808,   11792,    5535,    5516,   11796
    1286,   11803,   11804,   11808,   11807,   11791,   11792,   11796,   11795
    1287,   11801,   11803,   11807,   11805,   11789,   11791,   11795,   11793
    1288,   11802,   11801,   11805,   11806,   11790,   11789,   11793,   11794
    1289,   11561,    5479,    5536,   11804,   11562,    5478,    5535,   11792
    1290,   11580,   11561,   11804,   11803,   11581,   11562,   11792,   11791
    1291,   11599,   11580,   11803,   11801,   11600,   11581,   11791,   11789
    1292,   11618,   11599,   11801,   11802,   11619,   11600,   11789,   11790
    1293,   11549,   11435,   11617,   11814,   11548,   11434,   11618,   11802
    1294,   11530,   11549,   11814,   11818,   11529,   11548,   11802,   11806
    1295,   11511,   11530,   11818,   11822,   11510,   11529,   11806,   11810
    1296,   11821,   11492,   11511,   11822,   11809,   11491,   11510,   11810
    1297,   11823,   11473,   11492,   11821,   11811,   11472,   11491,   11809
    1298,   11824,   11454,   11473,   11823,   11812,   11453,   11472,   11811
    1299,    5499,    5445,   11454,   11824,    5498,    5446,   11453,   11812
    1300,   11820,    5518,    5499,   11824,   11808,    5517,    5498,   11812
    1301,   11819,   11820,   11824,   11823,   11807,   11808,   11812,   11811
    1302,   11817,   11819,   11823,   11821,   11805,   11807,   11811,   11809
    1303,   11818,   11817,   11821,   11822,   11806,   11805,   11809,   11810
    1304,   11816,    5537,    5518,   11820,   11804,    5536,    5517,   11808
    1305,   11815,   11816,   11820,   11819,   11803,   11804,   11808,   11807
    1306,   11813,   11815,   11819,   11817,   11801,   11803,   11807,   11805
    1307,   11814,   11813,   11817,   11818,   11802,   11801,   11805,   11806
    1308,   11560,    5480,    5537,   11816,   11561,    5479,    5536,   11804
    1309,   11579,   11560,   11816,   11815,   11580,   11561,   11804,   11803
    1310,   11598,   11579,   11815,   11813,   11599,   11580,   11803,   11801
    1311,   11617,   11598,   11813,   11814,   11618,   11599,   11801,   11802
    1312,   11550,   11436,   11616,   11826,   11549,   11435,   11617,   11814
    1313,   11531,   11550,   11826,   11830,   11530,   11549,   11814,   11818
    1314,   11512,   11531,   11830,   11834,   11511,   11530,   11818,   11822
    1315,   11833,   11493,   11512,   11834,   11821,   11492,   11511,   11822
    1316,   11835,   11474,   11493,   11833,   11823,   11473,   11492,   11821
    1317,   11836,   11455,   11474,   11835,   11824,   11454,   11473,   11823
    1318,    5500,    5444,   11455,   11836,    5499,    5445,   11454,   11824
    1319,   11832,    5519,    5500,   11836,   11820,    5518,    5499,   11824
    1320,   11831,   11832,   11836,   11835,   11819,   11820,   11824,   11823
    1321,   11829,   11831,   11835,   11833,   11817,   11819,   11823,   11821
    1322,   11830,   11829,   11833,   11834,   11818,   11817,   11821,   11822
    1323,   11828,    5538,    5519,   11832,   11816,    5537,    5518,   11820
    1324,   11827,   11828,   11832,   11831,   11815,   11816,   11820,   11819
    1325,   11825,   11827,   11831,   11829,   11813,   11815,   11819,   11817
    1326,   11826,   11825,   11829,   11830,   11814,   11813,   11817,   11818
    1327,   11559,    5481,    5538,   11828,   11560,    5480,    5537,   11816
    1328,   11578,   11559,   11828,   11827,   11579,   11560,   11816,   11815
    1329,   11597,   11578,   11827,   11825,   11598,   11579,   11815,   11813
    1330,   11616,   11597,   11825,   11826,   11617,   11598,   11813,   11814
    1331,   11551,   11437,   11615,   11838,   11550,   11436,   11616,   11826
    1332,   11532,   11551,   11838,   11842,   11531,   11550,   11826,   11830
    1333,   11513,   11532,   11842,   11846,   11512,   11531,   11830,   11834
    1334,   11845,   11494,   11513,   11846,   11833,   11493,   11512,   11834
    1335,   11847,   11475,   11494,   11845,   11835,   11474,   11493,   11833
    1336,   11848,   11456,   11475,   11847,   11836,   11455,   11474,   11835
    1337,    5501,    5443,   11456,   11848,    5500,    5444,   11455,   11836
    1338,   11844,    5520,    5501,   11848,   11832,    5519,    5500,   11836
    1339,   11843,   11844,   11848,   11847,   11831,   11832,   11836,   11835
    1340,   11841,   11843,   11847,   11845,   11829,   11831,   11835,   11833
    1341,   11842,   11841,   11845,   11846,   11830,   11829,   11833,   11834
    1342,   11840,    5539,    5520,   11844,   11828,    5538,    5519,   11832
    1343,   11839,   11840,   11844,   11843,   11827,   11828,   11832,   11831
    1344,   11837,   11839,   11843,   11841,   11825,   11827,   11831,   11829
    1345,   11838,   11837,   11841,   11842,   11826,   11825,   11829,   11830
    1346,   11558,    5482,    5539,   11840,   11559,    5481,    5538,   11828
    1347,   11577,   11558,   11840,   11839,   11578,   11559,   11828,   11827
    1348,   11596,   11577,   11839,   11837,   11597,   11578,   11827,   11825
    1349,   11615,   11596,   11837,   11838,   11616,   11597,   11825,   11826
    1350,   11552,   11438,   11614,   11850,   11551,   11437,   11615,   11838
    1351,   11533,   11552,   11850,   11854,   11532,   11551,   11838,   11842
    1352,   11514,   11533,   11854,   11858,   11513,   11532,   11842,   11846
    1353,   11857,   11495,   11514,   11858,   11845,   11494,   11513,   11846
    1354,   11859,   11476,   11495,   11857,   11847,   11475,   11494,   11845
    1355,   11860,   11457,   11476,   11859,   11848,   11456,   11475,   11847
    1356,    5502,    5442,   11457,   11860,    5501,    5443,   11456,   11848
    1357,   11856,    5521,    5502,   11860,   11844,    5520,    5501,   11848
    1358,   11855,   11856,   11860,   11859,   11843,   11844,   11848,   11847
    1359,   11853,   11855,   11859,   11857,   11841,   11843,   11847,   11845
    1360,   11854,   11853,   11857,   11858,   11842,   11841,   11845,   11846
    1361,   11852,    5540,    5521,   11856,   11840,    5539,    5520,   11844
    1362,   11851,   11852,   11856,   11855,   11839,   11840,   11844,   11843
    1363,   11849,   11851,   11855,   11853,   11837,   11839,   11843,   11841
    1364,   11850,   11849,   11853,   11854,   11838,   11837,   11841,   11842
    1365,   11557,    5483,    5540,   11852,   11558,    5482,    5539,   11840
    1366,   11576,   11557,   11852,   11851,   11577,   11558,   11840,   11839
    1367,   11595,   11576,   11851,   11849,   11596,   11577,   11839,   11837
    1368,   11614,   11595,   11849,   11850,   11615,   11596,   11837,   11838
    1369,   11414,   11413,   11553,   11862,   11552,   11438,   11614,   11850
    1370,   11415,   11414,   11862,   11866,   11533,   11552,   11850,   11854
    1371,   11416,   11415,   11866,   11870,   11514,   11533,   11854,   11858
    1372,   11869,   11417,   11416,   11870,   11857,   11495,   11514,   11858
    1373,   11871,   11418,   11417,   11869,   11859,   11476,   11495,   11857
    1374,   11872,   11419,   11418,   11871,   11860,   11457,   11476,   11859
    1375,    5464,    5441,   11419,   11872,    5502,    5442,   11457,   11860
    1376,   11868,    5463,    5464,   11872,   11856,    5521,    5502,   11860
    1377,   11867,   11868,   11872,   11871,   11855,   11856,   11860,   11859
    1378,   11865,   11867,   11871,   11869,   11853,   11855,   11859,   11857
    1379,   11866,   11865,   11869,   11870,   11854,   11853,   11857,   11858
    1380,   11864,    5462,    5463,   11868,   11852,    5540,    5521,   11856
    1381,   11863,   11864,   11868,   11867,   11851,   11852,   11856,   11855
    1382,   11861,   11863,   11867,   11865,   11849,   11851,   11855,   11853
    1383,   11862,   11861,   11865,   11866,   11850,   11849,   11853,   11854
    1384,   11556,    5461,    5462,   11864,   11557,    5483,    5540,   11852
    1385,   11555,   11556,   11864,   11863,   11576,   11557,   11852,   11851
    1386,   11554,   11555,   11863,   11861,   11595,   11576,   11851,   11849
    1387,   11553,   11554,   11861,   11862,   11614,   11595,   11849,   11850
    1388,   11352,   11348,   11364,   11353,   11125,   11124,   11286,   11287
    1389,   11348,   11344,   11363,   11364,   11124,   11123,   11288,   11286
    1390,   11344,   11340,   11362,   11363,   11123,   11122,   11289,   11288
    1391,   11340,    5310,    5322,   11362,   11122,    5004,    5007,   11289
    1392,   11353,   11364,   11361,   11354,   11287,   11286,   11290,   11291
    1393,   11364,   11363,   11360,   11361,   11286,   11288,   11292,   11290
    1394,   11363,   11362,   11359,   11360,   11288,   11289,   11293,   11292
    1395,   11362,    5322,    5318,   11359,   11289,    5007,    5006,   11293
    1396,   11354,   11361,   11356,   11355,   11291,   11290,   11294,   11295
    1397,   11361,   11360,   11357,   11356,   11290,   11292,   11296,   11294
    1398,   11360,   11359,   11358,   11357,   11292,   11293,   11297,   11296
    1399,   11359,    5318,    5314,   11358,   11293,    5006,    5005,   11297
    1400,    5314,    5305,   11309,   11358,    5005,    4993,   11051,   11297
    1401,   11358,   11309,   11313,   11357,   11297,   11051,   11050,   11296
    1402,   11357,   11313,   11317,   11356,   11296,   11050,   11049,   11294
    1403,   11356,   11317,   11321,   11355,   11294,   11049,   11048,   11295
    1404,   11321,   11325,   11354,   11355,   11048,   11047,   11291,   11295
    1405,   11325,   11329,   11353,   11354,   11047,   11046,   11287,   11291
    1406,   11329,   11305,   11352,   11353,   11046,   11045,   11125,   11287
    1407,   11351,   11347,   11376,   11365,   11352,   11348,   11364,   11353
    1408,   11347,   11343,   11375,   11376,   11348,   11344,   11363,   11364
    1409,   11343,   11339,   11374,   11375,   11344,   11340,   11362,   11363
    1410,   11339,    5311,    5323,   11374,   11340,    5310,    5322,   11362
    1411,   11365,   11376,   11373,   11366,   11353,   11364,   11361,   11354
    1412,   11376,   11375,   11372,   11373,   11364,   11363,   11360,   11361
    1413,   11375,   11374,   11371,   11372,   11363,   11362,   11359,   11360
    1414,   11374,    5323,    5319,   11371,   11362,    5322,    5318,   11359
    1415,   11366,   11373,   11368,   11367,   11354,   11361,   11356,   11355
    1416,   11373,   11372,   11369,   11368,   11361,   11360,   11357,   11356
    1417,   11372,   11371,   11370,   11369,   11360,   11359,   11358,   11357
    1418,   11371,    5319,    5315,   11370,   11359,    5318,    5314,   11358
    1419,    5315,    5304,   11310,   11370,    5314,    5305,   11309,   11358
    1420,   11370,   11310,   11314,   11369,   11358,   11309,   11313,   11357
    1421,   11369,   11314,   11318,   11368,   11357,   11313,   11317,   11356
    1422,   11368,   11318,   11322,   11367,   11356,   11317,   11321,   11355
    1423,   11322,   11326,   11366,   11367,   11321,   11325,   11354,   11355
    1424,   11326,   11330,   11365,   11366,   11325,   11329,   11353,   11354
    1425,   11330,   11306,   11351,   11365,   11329,   11305,   11352,   11353
    1426,   11350,   11346,   11388,   11377,   11351,   11347,   11376,   11365
    1427,   11346,   11342,   11387,   11388,   11347,   11343,   11375,   11376
    1428,   11342,   11338,   11386,   11387,   11343,   11339,   11374,   11375
    1429,   11338,    5312,    5324,   11386,   11339,    5311,    5323,   11374
    1430,   11377,   11388,   11385,   11378,   11365,   11376,   11373,   11366
    1431,   11388,   11387,   11384,   11385,   11376,   11375,   11372,   11373
    1432,   11387,   11386,   11383,   11384,   11375,   11374,   11371,   11372
    1433,   11386,    5324,    5320,   11383,   11374,    5323,    5319,   11371
    1434,   11378,   11385,   11380,   11379,   11366,   11373,   11368,   11367
    1435,   11385,   11384,   11381,   11380,   11373,   11372,   11369,   11368
    1436,   11384,   11383,   11382,   11381,   11372,   11371,   11370,   11369
    1437,   11383,    5320,    5316,   11382,   11371,    5319,    5315,   11370
    1438,    5316,    5303,   11311,   11382,    5315,    5304,   11310,   11370
    1439,   11382,   11311,   11315,   11381,   11370,   11310,   11314,   11369
    1440,   11381,   11315,   11319,   11380,   11369,   11314,   11318,   11368
    1441,   11380,   11319,   11323,   11379,   11368,   11318,   11322,   11367
    1442,   11323,   11327,   11378,   11379,   11322,   11326,   11366,   11367
    1443,   11327,   11331,   11377,   11378,   11326,   11330,   11365,   11366
    1444,   11331,   11307,   11350,   11377,   11330,   11306,   11351,   11365
    1445,   11349,   11345,   11400,   11389,   11350,   11346,   11388,   11377
    1446,   11345,   11341,   11399,   11400,   11346,   11342,   11387,   11388
    1447,   11341,   11337,   11398,   11399,   11342,   11338,   11386,   11387
    1448,   11337,    5313,    5325,   11398,   11338,    5312,    5324,   11386
    1449,   11389,   11400,   11397,   11390,   11377,   11388,   11385,   11378
    1450,   11400,   11399,   11396,   11397,   11388,   11387,   11384,   11385
    1451,   11399,   11398,   11395,   11396,   11387,   11386,   11383,   11384
    1452,   11398,    5325,    5321,   11395,   11386,    5324,    5320,   11383
    1453,   11390,   11397,   11392,   11391,   11378,   11385,   11380,   11379
    1454,   11397,   11396,   11393,   11392,   11385,   11384,   11381,   11380
    1455,   11396,   11395,   11394,   11393,   11384,   11383,   11382,   11381
    1456,   11395,    5321,    5317,   11394,   11383,    5320,    5316,   11382
    1457,    5317,    5302,   11312,   11394,    5316,    5303,   11311,   11382
    1458,   11394,   11312,   11316,   11393,   11382,   11311,   11315,   11381
    1459,   11393,   11316,   11320,   11392,   11381,   11315,   11319,   11380
    1460,   11392,   11320,   11324,   11391,   11380,   11319,   11323,   11379
    1461,   11324,   11328,   11390,   11391,   11323,   11327,   11378,   11379
    1462,   11328,   11332,   11389,   11390,   11327,   11331,   11377,   11378
    1463,   11332,   11308,   11349,   11389,   11331,   11307,   11350,   11377
    1464,   11336,   11335,   11412,   11401,   11349,   11345,   11400,   11389
    1465,   11335,   11334,   11411,   11412,   11345,   11341,   11399,   11400
    1466,   11334,   11333,   11410,   11411,   11341,   11337,   11398,   11399
    1467,   11333,    5306,    5309,   11410,   11337,    5313,    5325,   11398
    1468,   11401,   11412,   11409,   11402,   11389,   11400,   11397,   11390
    1469,   11412,   11411,   11408,   11409,   11400,   11399,   11396,   11397
    1470,   11411,   11410,   11407,   11408,   11399,   11398,   11395,   11396
    1471,   11410,    5309,    5308,   11407,   11398,    5325,    5321,   11395
    1472,   11402,   11409,   11404,   11403,   11390,   11397,   11392,   11391
    1473,   11409,   11408,   11405,   11404,   11397,   11396,   11393,   11392
    1474,   11408,   11407,   11406,   11405,   11396,   11395,   11394,   11393
    1475,   11407,    5308,    5307,   11406,   11395,    5321,    5317,   11394
    1476,    5307,    5301,   11304,   11406,    5317,    5302,   11312,   11394
    1477,   11406,   11304,   11303,   11405,   11394,   11312,   11316,   11393
    1478,   11405,   11303,   11302,   11404,   11393,   11316,   11320,   11392
    1479,   11404,   11302,   11301,   11403,   11392,   11320,   11324,   11391
    1480,   11301,   11300,   11402,   11403,   11324,   11328,   11390,   11391
    1481,   11300,   11299,   11401,   11402,   11328,   11332,   11389,   11390
    1482,   11299,   11298,   11336,   11401,   11332,   11308,   11349,   11389
    1483,   11112,   11052,   11165,   11167,   10632,   10631,   10641,   10646
    1484,   11102,   11112,   11167,   11171,   10633,   10632,   10646,   10647
    1485,   11092,   11102,   11171,   11175,   10634,   10633,   10647,   10642
    1486,   11174,   11082,   11092,   11175,   10645,   10635,   10634,   10642
    1487,   11176,   11072,   11082,   11174,   10644,   10636,   10635,   10645
    1488,   11177,   11062,   11072,   11176,   10643,   10637,   10636,   10644
    1489,    5018,    5003,   11062,   11177,    4491,    4489,   10637,   10643
    1490,   11173,    5028,    5018,   11177,   10653,    4492,    4491,   10643
    1491,   11172,   11173,   11177,   11176,   10652,   10653,   10643,   10644
    1492,   11170,   11172,   11176,   11174,   10651,   10652,   10644,   10645
    1493,   11171,   11170,   11174,   11175,   10647,   10651,   10645,   10642
    1494,   11169,    5038,    5028,   11173,   10650,    4493,    4492,   10653
    1495,   11168,   11169,   11173,   11172,   10649,   10650,   10653,   10652
    1496,   11166,   11168,   11172,   11170,   10648,   10649,   10652,   10651
    1497,   11167,   11166,   11170,   11171,   10646,   10648,   10651,   10647
    1498,   11135,    5008,    5038,   11169,   10638,    4490,    4493,   10650
    1499,   11145,   11135,   11169,   11168,   10639,   10638,   10650,   10649
    1500,   11155,   11145,   11168,   11166,   10640,   10639,   10649,   10648
    1501,   11165,   11155,   11166,   11167,   10641,   10640,   10648,   10646
    1502,   11113,   11053,   11164,   11179,   11112,   11052,   11165,   11167
    1503,   11103,   11113,   11179,   11183,   11102,   11112,   11167,   11171
    1504,   11093,   11103,   11183,   11187,   11092,   11102,   11171,   11175
    1505,   11186,   11083,   11093,   11187,   11174,   11082,   11092,   11175
    1506,   11188,   11073,   11083,   11186,   11176,   11072,   11082,   11174
    1507,   11189,   11063,   11073,   11188,   11177,   11062,   11072,   11176
    1508,    5019,    5002,   11063,   11189,    5018,    5003,   11062,   11177
    1509,   11185,    5029,    5019,   11189,   11173,    5028,    5018,   11177
    1510,   11184,   11185,   11189,   11188,   11172,   11173,   11177,   11176
    1511,   11182,   11184,   11188,   11186,   11170,   11172,   11176,   11174
    1512,   11183,   11182,   11186,   11187,   11171,   11170,   11174,   11175
    1513,   11181,    5039,    5029,   11185,   11169,    5038,    5028,   11173
    1514,   11180,   11181,   11185,   11184,   11168,   11169,   11173,   11172
    1515,   11178,   11180,   11184,   11182,   11166,   11168,   11172,   11170
    1516,   11179,   11178,   11182,   11183,   11167,   11166,   11170,   11171
    1517,   11134,    5009,    5039,   11181,   11135,    5008,    5038,   11169
    1518,   11144,   11134,   11181,   11180,   11145,   11135,   11169,   11168
    1519,   11154,   11144,   11180,   11178,   11155,   11145,   11168,   11166
    1520,   11164,   11154,   11178,   11179,   11165,   11155,   11166,   11167
    1521,   11114,   11054,   11163,   11191,   11113,   11053,   11164,   11179
    1522,   11104,   11114,   11191,   11195,   11103,   11113,   11179,   11183
    1523,   11094,   11104,   11195,   11199,   11093,   11103,   11183,   11187
    1524,   11198,   11084,   11094,   11199,   11186,   11083,   11093,   11187
    1525,   11200,   11074,   11084,   11198,   11188,   11073,   11083,   11186
    1526,   11201,   11064,   11074,   11200,   11189,   11063,   11073,   11188
    1527,    5020,    5001,   11064,   11201,    5019,    5002,   11063,   11189
    1528,   11197,    5030,    5020,   11201,   11185,    5029,    5019,   11189
    1529,   11196,   11197,   11201,   11200,   11184,   11185,   11189,   11188
    1530,   11194,   11196,   11200,   11198,   11182,   11184,   11188,   11186
    1531,   11195,   11194,   11198,   11199,   11183,   11182,   11186,   11187
    1532,   11193,    5040,    5030,   11197,   11181,    5039,    5029,   11185
    1533,   11192,   11193,   11197,   11196,   11180,   11181,   11185,   11184
    1534,   11190,   11192,   11196,   11194,   11178,   11180,   11184,   11182
    1535,   11191,   11190,   11194,   11195,   11179,   11178,   11182,   11183
    1536,   11133,    5010,    5040,   11193,   11134,    5009,    5039,   11181
    1537,   11143,   11133,   11193,   11192,   11144,   11134,   11181,   11180
    1538,   11153,   11143,   11192,   11190,   11154,   11144,   11180,   11178
    1539,   11163,   11153,   11190,   11191,   11164,   11154,   11178,   11179
    1540,   11115,   11055,   11162,   11203,   11114,   11054,   11163,   11191
    1541,   11105,   11115,   11203,   11207,   11104,   11114,   11191,   11195
    1542,   11095,   11105,   11207,   11211,   11094,   11104,   11195,   11199
    1543,   11210,   11085,   11095,   11211,   11198,   11084,   11094,   11199
    1544,   11212,   11075,   11085,   11210,   11200,   11074,   11084,   11198
    1545,   11213,   11065,   11075,   11212,   11201,   11064,   11074,   11200
    1546,    5021,    5000,   11065,   11213,    5020,    5001,   11064,   11201
    1547,   11209,    5031,    5021,   11213,   11197,    5030,    5020,   11201
    1548,   11208,   11209,   11213,   11212,   11196,   11197,   11201,   11200
    1549,   11206,   11208,   11212,   11210,   11194,   11196,   11200,   11198
    1550,   11207,   11206,   11210,   11211,   11195,   11194,   11198,   11199
    1551,   11205,    5041,    5031,   11209,   11193,    5040,    5030,   11197
    1552,   11204,   11205,   11209,   11208,   11192,   11193,   11197,   11196
    1553,   11202,   11204,   11208,   11206,   11190,   11192,   11196,   11194
    1554,   11203,   11202,   11206,   11207,   11191,   11190,   11194,   11195
    1555,   11132,    5011,    5041,   11205,   11133,    5010,    5040,   11193
    1556,   11142,   11132,   11205,   11204,   11143,   11133,   11193,   11192
    1557,   11152,   11142,   11204,   11202,   11153,   11143,   11192,   11190
    1558,   11162,   11152,   11202,   11203,   11163,   11153,   11190,   11191
    1559,   11116,   11056,   11161,   11215,   11115,   11055,   11162,   11203
    1560,   11106,   11116,   11215,   11219,   11105,   11115,   11203,   11207
    1561,   11096,   11106,   11219,   11223,   11095,   11105,   11207,   11211
    1562,   11222,   11086,   11096,   11223,   11210,   11085,   11095,   11211
    1563,   11224,   11076,   11086,   11222,   11212,   11075,   11085,   11210
    1564,   11225,   11066,   11076,   11224,   11213,   11065,   11075,   11212
    1565,    5022,    4999,   11066,   11225,    5021,    5000,   11065,   11213
    1566,   11221,    5032,    5022,   11225,   11209,    5031,    5021,   11213
    1567,   11220,   11221,   11225,   11224,   11208,   11209,   11213,   11212
    1568,   11218,   11220,   11224,   11222,   11206,   11208,   11212,   11210
    1569,   11219,   11218,   11222,   11223,   11207,   11206,   11210,   11211
    1570,   11217,    5042,    5032,   11221,   11205,    5041,    5031,   11209
    1571,   11216,   11217,   11221,   11220,   11204,   11205,   11209,   11208
    1572,   11214,   11216,   11220,   11218,   11202,   11204,   11208,   11206
    1573,   11215,   11214,   11218,   11219,   11203,   11202,   11206,   11207
    1574,   11131,    5012,    5042,   11217,   11132,    5011,    5041,   11205
    1575,   11141,   11131,   11217,   11216,   11142,   11132,   11205,   11204
    1576,   11151,   11141,   11216,   11214,   11152,   11142,   11204,   11202
    1577,   11161,   11151,   11214,   11215,   11162,   11152,   11202,   11203
    1578,   11117,   11057,   11160,   11227,   11116,   11056,   11161,   11215
    1579,   11107,   11117,   11227,   11231,   11106,   11116,   11215,   11219
    1580,   11097,   11107,   11231,   11235,   11096,   11106,   11219,   11223
    1581,   11234,   11087,   11097,   11235,   11222,   11086,   11096,   11223
    1582,   11236,   11077,   11087,   11234,   11224,   11076,   11086,   11222
    1583,   11237,   11067,   11077,   11236,   11225,   11066,   11076,   11224
    1584,    5023,    4998,   11067,   11237,    5022,    4999,   11066,   11225
    1585,   11233,    5033,    5023,   11237,   11221,    5032,    5022,   11225
    1586,   11232,   11233,   11237,   11236,   11220,   11221,   11225,   11224
    1587,   11230,   11232,   11236,   11234,   11218,   11220,   11224,   11222
    1588,   11231,   11230,   11234,   11235,   11219,   11218,   11222,   11223
    1589,   11229,    5043,    5033,   11233,   11217,    5042,    5032,   11221
    1590,   11228,   11229,   11233,   11232,   11216,   11217,   11221,   11220
    1591,   11226,   11228,   11232,   11230,   11214,   11216,   11220,   11218
    1592,   11227,   11226,   11230,   11231,   11215,   11214,   11218,   11219
    1593,   11130,    5013,    5043,   11229,   11131,    5012,    5042,   11217
    1594,   11140,   11130,   11229,   11228,   11141,   11131,   11217,   11216
    1595,   11150,   11140,   11228,   11226,   11151,   11141,   11216,   11214
    1596,   11160,   11150,   11226,   11227,   11161,   11151,   11214,   11215
    1597,   11118,   11058,   11159,   11239,   11117,   11057,   11160,   11227
    1598,   11108,   11118,   11239,   11243,   11107,   11117,   11227,   11231
    1599,   11098,   11108,   11243,   11247,   11097,   11107,   11231,   11235
    1600,   11246,   11088,   11098,   11247,   11234,   11087,   11097,   11235
    1601,   11248,   11078,   11088,   11246,   11236,   11077,   11087,   11234
    1602,   11249,   11068,   11078,   11248,   11237,   11067,   11077,   11236
    1603,    5024,    4997,   11068,   11249,    5023,    4998,   11067,   11237
    1604,   11245,    5034,    5024,   11249,   11233,    5033,    5023,   11237
    1605,   11244,   11245,   11249,   11248,   11232,   11233,   11237,   11236
    1606,   11242,   11244,   11248,   11246,   11230,   11232,   11236,   11234
    1607,   11243,   11242,   11246,   11247,   11231,   11230,   11234,   11235
    1608,   11241,    5044,    5034,   11245,   11229,    5043,    5033,   11233
    1609,   11240,   11241,   11245,   11244,   11228,   11229,   11233,   11232
    1610,   11238,   11240,   11244,   11242,   11226,   11228,   11232,   11230
    1611,   11239,   11238,   11242,   11243,   11227,   11226,   11230,   11231
    1612,   11129,    5014,    5044,   11241,   11130,    5013,    5043,   11229
    1613,   11139,   11129,   11241,   11240,   11140,   11130,   11229,   11228
    1614,   11149,   11139,   11240,   11238,   11150,   11140,   11228,   11226
    1615,   11159,   11149,   11238,   11239,   11160,   11150,   11226,   11227
    1616,   11119,   11059,   11158,   11251,   11118,   11058,   11159,   11239
    1617,   11109,   11119,   11251,   11255,   11108,   11118,   11239,   11243
    1618,   11099,   11109,   11255,   11259,   11098,   11108,   11243,   11247
    1619,   11258,   11089,   11099,   11259,   11246,   11088,   11098,   11247
    1620,   11260,   11079,   11089,   11258,   11248,   11078,   11088,   11246
    1621,   11261,   11069,   11079,   11260,   11249,   11068,   11078,   11248
    1622,    5025,    4996,   11069,   11261,    5024,    4997,   11068,   11249
    1623,   11257,    5035,    5025,   11261,   11245,    5034,    5024,   11249
    1624,   11256,   11257,   11261,   11260,   11244,   11245,   11249,   11248
    1625,   11254,   11256,   11260,   11258,   11242,   11244,   11248,   11246
    1626,   11255,   11254,   11258,   11259,   11243,   11242,   11246,   11247
    1627,   11253,    5045,    5035,   11257,   11241,    5044,    5034,   11245
    1628,   11252,   11253,   11257,   11256,   11240,   11241,   11245,   11244
    1629,   11250,   11252,   11256,   11254,   11238,   11240,   11244,   11242
    1630,   11251,   11250,   11254,   11255,   11239,   11238,   11242,   11243
    1631,   11128,    5015,    5045,   11253,   11129,    5014,    5044,   11241
    1632,   11138,   11128,   11253,   11252,   11139,   11129,   11241,   11240
    1633,   11148,   11138,   11252,   11250,   11149,   11139,   11240,   11238
    1634,   11158,   11148,   11250,   11251,   11159,   11149,   11238,   11239
    1635,   11120,   11060,   11157,   11263,   11119,   11059,   11158,   11251
    1636,   11110,   11120,   11263,   11267,   11109,   11119,   11251,   11255
    1637,   11100,   11110,   11267,   11271,   11099,   11109,   11255,   11259
    1638,   11270,   11090,   11100,   11271,   11258,   11089,   11099,   11259
    1639,   11272,   11080,   11090,   11270,   11260,   11079,   11089,   11258
    1640,   11273,   11070,   11080,   11272,   11261,   11069,   11079,   11260
    1641,    5026,    4995,   11070,   11273,    5025,    4996,   11069,   11261
    1642,   11269,    5036,    5026,   11273,   11257,    5035,    5025,   11261
    1643,   11268,   11269,   11273,   11272,   11256,   11257,   11261,   11260
    1644,   11266,   11268,   11272,   11270,   11254,   11256,   11260,   11258
    1645,   11267,   11266,   11270,   11271,   11255,   11254,   11258,   11259
    1646,   11265,    5046,    5036,   11269,   11253,    5045,    5035,   11257
    1647,   11264,   11265,   11269,   11268,   11252,   11253,   11257,   11256
    1648,   11262,   11264,   11268,   11266,   11250,   11252,   11256,   11254
    1649,   11263,   11262,   11266,   11267,   11251,   11250,   11254,   11255
    1650,   11127,    5016,    5046,   11265,   11128,    5015,    5045,   11253
    1651,   11137,   11127,   11265,   11264,   11138,   11128,   11253,   11252
    1652,   11147,   11137,   11264,   11262,   11148,   11138,   11252,   11250
    1653,   11157,   11147,   11262,   11263,   11158,   11148,   11250,   11251
    1654,   11121,   11061,   11156,   11275,   11120,   11060,   11157,   11263
    1655,   11111,   11121,   11275,   11279,   11110,   11120,   11263,   11267
    1656,   11101,   11111,   11279,   11283,   11100,   11110,   11267,   11271
    1657,   11282,   11091,   11101,   11283,   11270,   11090,   11100,   11271
    1658,   11284,   11081,   11091,   11282,   11272,   11080,   11090,   11270
    1659,   11285,   11071,   11081,   11284,   11273,   11070,   11080,   11272
    1660,    5027,    4994,   11071,   11285,    5026,    4995,   11070,   11273
    1661,   11281,    5037,    5027,   11285,   11269,    5036,    5026,   11273
    1662,   11280,   11281,   11285,   11284,   11268,   11269,   11273,   11272
    1663,   11278,   11280,   11284,   11282,   11266,   11268,   11272,   11270
    1664,   11279,   11278,   11282,   11283,   11267,   11266,   11270,   11271
    1665,   11277,    5047,    5037,   11281,   11265,    5046,    5036,   11269
    1666,   11276,   11277,   11281,   11280,   11264,   11265,   11269,   11268
    1667,   11274,   11276,   11280,   11278,   11262,   11264,   11268,   11266
    1668,   11275,   11274,   11278,   11279,   11263,   11262,   11266,   11267
    1669,   11126,    5017,    5047,   11277,   11127,    5016,    5046,   11265
    1670,   11136,   11126,   11277,   11276,   11137,   11127,   11265,   11264
    1671,   11146,   11136,   11276,   11274,   11147,   11137,   11264,   11262
    1672,   11156,   11146,   11274,   11275,   11157,   11147,   11262,   11263
    1673,   11046,   11045,   11125,   11287,   11121,   11061,   11156,   11275
    1674,   11047,   11046,   11287,   11291,   11111,   11121,   11275,   11279
    1675,   11048,   11047,   11291,   11295,   11101,   11111,   11279,   11283
    1676,   11294,   11049,   11048,   11295,   11282,   11091,   11101,   11283
    1677,   11296,   11050,   11049,   11294,   11284,   11081,   11091,   11282
    1678,   11297,   11051,   11050,   11296,   11285,   11071,   11081,   11284
    1679,    5005,    4993,   11051,   11297,    5027,    4994,   11071,   11285
    1680,   11293,    5006,    5005,   11297,   11281,    5037,    5027,   11285
    1681,   11292,   11293,   11297,   11296,   11280,   11281,   11285,   11284
    1682,   11290,   11292,   11296,   11294,   11278,   11280,   11284,   11282
    1683,   11291,   11290,   11294,   11295,   11279,   11278,   11282,   11283
    1684,   11289,    5007,    5006,   11293,   11277,    5047,    5037,   11281
    1685,   11288,   11289,   11293,   11292,   11276,   11277,   11281,   11280
    1686,   11286,   11288,   11292,   11290,   11274,   11276,   11280,   11278
    1687,   11287,   11286,   11290,   11291,   11275,   11274,   11278,   11279
    1688,   11122,    5004,    5007,   11289,   11126,    5017,    5047,   11277
    1689,   11123,   11122,   11289,   11288,   11136,   11126,   11277,   11276
    1690,   11124,   11123,   11288,   11286,   11146,   11136,   11276,   11274
    1691,   11125,   11124,   11286,   11287,   11156,   11146,   11274,   11275
    1692,   10632,   10631,   10641,   10646,   10772,   10670,   10825,   10841
    1693,   10633,   10632,   10646,   10647,   10756,   10772,   10841,   10845
    1694,   10634,   10633,   10647,   10642,   10740,   10756,   10845,   10849
    1695,   10645,   10635,   10634,   10642,   10850,   10724,   10740,   10849
    1696,   10644,   10636,   10635,   10645,   10851,   10708,   10724,   10850
    1697,   10643,   10637,   10636,   10644,   10852,   10692,   10708,   10851
    1698,    4491,    4489,   10637,   10643,    4569,    4518,   10692,   10852
    1699,   10653,    4492,    4491,   10643,   10848,    4585,    4569,   10852
    1700,   10652,   10653,   10643,   10644,   10847,   10848,   10852,   10851
    1701,   10651,   10652,   10644,   10645,   10846,   10847,   10851,   10850
    1702,   10647,   10651,   10645,   10642,   10845,   10846,   10850,   10849
    1703,   10650,    4493,    4492,   10653,   10844,    4601,    4585,   10848
    1704,   10649,   10650,   10653,   10652,   10843,   10844,   10848,   10847
    1705,   10648,   10649,   10652,   10651,   10842,   10843,   10847,   10846
    1706,   10646,   10648,   10651,   10647,   10841,   10842,   10846,   10845
    1707,   10638,    4490,    4493,   10650,   10777,    4550,    4601,   10844
    1708,   10639,   10638,   10650,   10649,   10793,   10777,   10844,   10843
    1709,   10640,   10639,   10649,   10648,   10809,   10793,   10843,   10842
    1710,   10641,   10640,   10648,   10646,   10825,   10809,   10842,   10841
    1711,   10772,   10670,   10825,   10841,   10771,   10669,   10826,   10853
    1712,   10756,   10772,   10841,   10845,   10755,   10771,   10853,   10857
    1713,   10740,   10756,   10845,   10849,   10739,   10755,   10857,   10861
    1714,   10850,   10724,   10740,   10849,   10862,   10723,   10739,   10861
    1715,   10851,   10708,   10724,   10850,   10863,   10707,   10723,   10862
    1716,   10852,   10692,   10708,   10851,   10864,   10691,   10707,   10863
    1717,    4569,    4518,   10692,   10852,    4568,    4519,   10691,   10864
    1718,   10848,    4585,    4569,   10852,   10860,    4584,    4568,   10864
    1719,   10847,   10848,   10852,   10851,   10859,   10860,   10864,   10863
    1720,   10846,   10847,   10851,   10850,   10858,   10859,   10863,   10862
    1721,   10845,   10846,   10850,   10849,   10857,   10858,   10862,   10861
    1722,   10844,    4601,    4585,   10848,   10856,    4600,    4584,   10860
    1723,   10843,   10844,   10848,   10847,   10855,   10856,   10860,   10859
    1724,   10842,   10843,   10847,   10846,   10854,   10855,   10859,   10858
    1725,   10841,   10842,   10846,   10845,   10853,   10854,   10858,   10857
    1726,   10777,    4550,    4601,   10844,   10778,    4549,    4600,   10856
    1727,   10793,   10777,   10844,   10843,   10794,   10778,   10856,   10855
    1728,   10809,   10793,   10843,   10842,   10810,   10794,   10855,   10854
    1729,   10825,   10809,   10842,   10841,   10826,   10810,   10854,   10853
    1730,   10771,   10669,   10826,   10853,   10770,   10668,   10827,   10865
    1731,   10755,   10771,   10853,   10857,   10754,   10770,   10865,   10869
    1732,   10739,   10755,   10857,   10861,   10738,   10754,   10869,   10873
    1733,   10862,   10723,   10739,   10861,   10874,   10722,   10738,   10873
    1734,   10863,   10707,   10723,   10862,   10875,   10706,   10722,   10874
    1735,   10864,   10691,   10707,   10863,   10876,   10690,   10706,   10875
    1736,    4568,    4519,   10691,   10864,    4567,    4520,   10690,   10876
    1737,   10860,    4584,    4568,   10864,   10872,    4583,    4567,   10876
    1738,   10859,   10860,   10864,   10863,   10871,   10872,   10876,   10875
    1739,   10858,   10859,   10863,   10862,   10870,   10871,   10875,   10874
    1740,   10857,   10858,   10862,   10861,   10869,   10870,   10874,   10873
    1741,   10856,    4600,    4584,   10860,   10868,    4599,    4583,   10872
    1742,   10855,   10856,   10860,   10859,   10867,   10868,   10872,   10871
    1743,   10854,   10855,   10859,   10858,   10866,   10867,   10871,   10870
    1744,   10853,   10854,   10858,   10857,   10865,   10866,   10870,   10869
    1745,   10778,    4549,    4600,   10856,   10779,    4548,    4599,   10868
    1746,   10794,   10778,   10856,   10855,   10795,   10779,   10868,   10867
    1747,   10810,   10794,   10855,   10854,   10811,   10795,   10867,   10866
    1748,   10826,   10810,   10854,   10853,   10827,   10811,   10866,   10865
    1749,   10770,   10668,   10827,   10865,   10769,   10667,   10828,   10877
    1750,   10754,   10770,   10865,   10869,   10753,   10769,   10877,   10881
    1751,   10738,   10754,   10869,   10873,   10737,   10753,   10881,   10885
    1752,   10874,   10722,   10738,   10873,   10886,   10721,   10737,   10885
    1753,   10875,   10706,   10722,   10874,   10887,   10705,   10721,   10886
    1754,   10876,   10690,   10706,   10875,   10888,   10689,   10705,   10887
    1755,    4567,    4520,   10690,   10876,    4566,    4521,   10689,   10888
    1756,   10872,    4583,    4567,   10876,   10884,    4582,    4566,   10888
    1757,   10871,   10872,   10876,   10875,   10883,   10884,   10888,   10887
    1758,   10870,   10871,   10875,   10874,   10882,   10883,   10887,   10886
    1759,   10869,   10870,   10874,   10873,   10881,   10882,   10886,   10885
    1760,   10868,    4599,    4583,   10872,   10880,    4598,    4582,   10884
    1761,   10867,   10868,   10872,   10871,   10879,   10880,   10884,   10883
    1762,   10866,   10867,   10871,   10870,   10878,   10879,   10883,   10882
    1763,   10865,   10866,   10870,   10869,   10877,   10878,   10882,   10881
    1764,   10779,    4548,    4599,   10868,   10780,    4547,    4598,   10880
    1765,   10795,   10779,   10868,   10867,   10796,   10780,   10880,   10879
    1766,   10811,   10795,   10867,   10866,   10812,   10796,   10879,   10878
    1767,   10827,   10811,   10866,   10865,   10828,   10812,   10878,   10877
    1768,   10769,   10667,   10828,   10877,   10768,   10666,   10829,   10889
    1769,   10753,   10769,   10877,   10881,   10752,   10768,   10889,   10893
    1770,   10737,   10753,   10881,   10885,   10736,   10752,   10893,   10897
    1771,   10886,   10721,   10737,   10885,   10898,   10720,   10736,   10897
    1772,   10887,   10705,   10721,   10886,   10899,   10704,   10720,   10898
    1773,   10888,   10689,   10705,   10887,   10900,   10688,   10704,   10899
    1774,    4566,    4521,   10689,   10888,    4565,    4522,   10688,   10900
    1775,   10884,    4582,    4566,   10888,   10896,    4581,    4565,   10900
    1776,   10883,   10884,   10888,   10887,   10895,   10896,   10900,   10899
    1777,   10882,   10883,   10887,   10886,   10894,   10895,   10899,   10898
    1778,   10881,   10882,   10886,   10885,   10893,   10894,   10898,   10897
    1779,   10880,    4598,    4582,   10884,   10892,    4597,    4581,   10896
    1780,   10879,   10880,   10884,   10883,   10891,   10892,   10896,   10895
    1781,   10878,   10879,   10883,   10882,   10890,   10891,   10895,   10894
    1782,   10877,   10878,   10882,   10881,   10889,   10890,   10894,   10893
    1783,   10780,    4547,    4598,   10880,   10781,    4546,    4597,   10892
    1784,   10796,   10780,   10880,   10879,   10797,   10781,   10892,   10891
    1785,   10812,   10796,   10879,   10878,   10813,   10797,   10891,   10890
    1786,   10828,   10812,   10878,   10877,   10829,   10813,   10890,   10889
    1787,   10768,   10666,   10829,   10889,   10767,   10665,   10830,   10901
    1788,   10752,   10768,   10889,   10893,   10751,   10767,   10901,   10905
    1789,   10736,   10752,   10893,   10897,   10735,   10751,   10905,   10909
    1790,   10898,   10720,   10736,   10897,   10910,   10719,   10735,   10909
    1791,   10899,   10704,   10720,   10898,   10911,   10703,   10719,   10910
    1792,   10900,   10688,   10704,   10899,   10912,   10687,   10703,   10911
    1793,    4565,    4522,   10688,   10900,    4564,    4523,   10687,   10912
    1794,   10896,    4581,    4565,   10900,   10908,    4580,    4564,   10912
    1795,   10895,   10896,   10900,   10899,   10907,   10908,   10912,   10911
    1796,   10894,   10895,   10899,   10898,   10906,   10907,   10911,   10910
    1797,   10893,   10894,   10898,   10897,   10905,   10906,   10910,   10909
    1798,   10892,    4597,    4581,   10896,   10904,    4596,    4580,   10908
    1799,   10891,   10892,   10896,   10895,   10903,   10904,   10908,   10907
    1800,   10890,   10891,   10895,   10894,   10902,   10903,   10907,   10906
    1801,   10889,   10890,   10894,   10893,   10901,   10902,   10906,   10905
    1802,   10781,    4546,    4597,   10892,   10782,    4545,    4596,   10904
    1803,   10797,   10781,   10892,   10891,   10798,   10782,   10904,   10903
    1804,   10813,   10797,   10891,   10890,   10814,   10798,   10903,   10902
    1805,   10829,   10813,   10890,   10889,   10830,   10814,   10902,   10901
    1806,   10767,   10665,   10830,   10901,   10766,   10664,   10831,   10913
    1807,   10751,   10767,   10901,   10905,   10750,   10766,   10913,   10917
    1808,   10735,   10751,   10905,   10909,   10734,   10750,   10917,   10921
    1809,   10910,   10719,   10735,   10909,   10922,   10718,   10734,   10921
    1810,   10911,   10703,   10719,   10910,   10923,   10702,   10718,   10922
    1811,   10912,   10687,   10703,   10911,   10924,   10686,   10702,   10923
    1812,    4564,    4523,   10687,   10912,    4563,    4524,   10686,   10924
    1813,   10908,    4580,    4564,   10912,   10920,    4579,    4563,   10924
    1814,   10907,   10908,   10912,   10911,   10919,   10920,   10924,   10923
    1815,   10906,   10907,   10911,   10910,   10918,   10919,   10923,   10922
    1816,   10905,   10906,   10910,   10909,   10917,   10918,   10922,   10921
    1817,   10904,    4596,    4580,   10908,   10916,    4595,    4579,   10920
    1818,   10903,   10904,   10908,   10907,   10915,   10916,   10920,   10919
    1819,   10902,   10903,   10907,   10906,   10914,   10915,   10919,   10918
    1820,   10901,   10902,   10906,   10905,   10913,   10914,   10918,   10917
    1821,   10782,    4545,    4596,   10904,   10783,    4544,    4595,   10916
    1822,   10798,   10782,   10904,   10903,   10799,   10783,   10916,   10915
    1823,   10814,   10798,   10903,   10902,   10815,   10799,   10915,   10914
    1824,   10830,   10814,   10902,   10901,   10831,   10815,   10914,   10913
    1825,   10766,   10664,   10831,   10913,   10765,   10663,   10832,   10925
    1826,   10750,   10766,   10913,   10917,   10749,   10765,   10925,   10929
    1827,   10734,   10750,   10917,   10921,   10733,   10749,   10929,   10933
    1828,   10922,   10718,   10734,   10921,   10934,   10717,   10733,   10933
    1829,   10923,   10702,   10718,   10922,   10935,   10701,   10717,   10934
    1830,   10924,   10686,   10702,   10923,   10936,   10685,   10701,   10935
    1831,    4563,    4524,   10686,   10924,    4562,    4525,   10685,   10936
    1832,   10920,    4579,    4563,   10924,   10932,    4578,    4562,   10936
    1833,   10919,   10920,   10924,   10923,   10931,   10932,   10936,   10935
    1834,   10918,   10919,   10923,   10922,   10930,   10931,   10935,   10934
    1835,   10917,   10918,   10922,   10921,   10929,   10930,   10934,   10933
    1836,   10916,    4595,    4579,   10920,   10928,    4594,    4578,   10932
    1837,   10915,   10916,   10920,   10919,   10927,   10928,   10932,   10931
    1838,   10914,   10915,   10919,   10918,   10926,   10927,   10931,   10930
    1839,   10913,   10914,   10918,   10917,   10925,   10926,   10930,   10929
    1840,   10783,    4544,    4595,   10916,   10784,    4543,    4594,   10928
    1841,   10799,   10783,   10916,   10915,   10800,   10784,   10928,   10927
    1842,   10815,   10799,   10915,   10914,   10816,   10800,   10927,   10926
    1843,   10831,   10815,   10914,   10913,   10832,   10816,   10926,   10925
    1844,   10765,   10663,   10832,   10925,   10764,   10662,   10833,   10937
    1845,   10749,   10765,   10925,   10929,   10748,   10764,   10937,   10941
    1846,   10733,   10749,   10929,   10933,   10732,   10748,   10941,   10945
    1847,   10934,   10717,   10733,   10933,   10946,   10716,   10732,   10945
    1848,   10935,   10701,   10717,   10934,   10947,   10700,   10716,   10946
    1849,   10936,   10685,   10701,   10935,   10948,   10684,   10700,   10947
    1850,    4562,    4525,   10685,   10936,    4561,    4526,   10684,   10948
    1851,   10932,    4578,    4562,   10936,   10944,    4577,    4561,   10948
    1852,   10931,   10932,   10936,   10935,   10943,   10944,   10948,   10947
    1853,   10930,   10931,   10935,   10934,   10942,   10943,   10947,   10946
    1854,   10929,   10930,   10934,   10933,   10941,   10942,   10946,   10945
    1855,   10928,    4594,    4578,   10932,   10940,    4593,    4577,   10944
    1856,   10927,   10928,   10932,   10931,   10939,   10940,   10944,   10943
    1857,   10926,   10927,   10931,   10930,   10938,   10939,   10943,   10942
    1858,   10925,   10926,   10930,   10929,   10937,   10938,   10942,   10941
    1859,   10784,    4543,    4594,   10928,   10785,    4542,    4593,   10940
    1860,   10800,   10784,   10928,   10927,   10801,   10785,   10940,   10939
    1861,   10816,   10800,   10927,   10926,   10817,   10801,   10939,   10938
    1862,   10832,   10816,   10926,   10925,   10833,   10817,   10938,   10937
    1863,   10764,   10662,   10833,   10937,   10763,   10661,   10834,   10949
    1864,   10748,   10764,   10937,   10941,   10747,   10763,   10949,   10953
    1865,   10732,   10748,   10941,   10945,   10731,   10747,   10953,   10957
    1866,   10946,   10716,   10732,   10945,   10958,   10715,   10731,   10957
    1867,   10947,   10700,   10716,   10946,   10959,   10699,   10715,   10958
    1868,   10948,   10684,   10700,   10947,   10960,   10683,   10699,   10959
    1869,    4561,    4526,   10684,   10948,    4560,    4527,   10683,   10960
    1870,   10944,    4577,    4561,   10948,   10956,    4576,    4560,   10960
    1871,   10943,   10944,   10948,   10947,   10955,   10956,   10960,   10959
    1872,   10942,   10943,   10947,   10946,   10954,   10955,   10959,   10958
    1873,   10941,   10942,   10946,   10945,   10953,   10954,   10958,   10957
    1874,   10940,    4593,    4577,   10944,   10952,    4592,    4576,   10956
    1875,   10939,   10940,   10944,   10943,   10951,   10952,   10956,   10955
    1876,   10938,   10939,   10943,   10942,   10950,   10951,   10955,   10954
    1877,   10937,   10938,   10942,   10941,   10949,   10950,   10954,   10953
    1878,   10785,    4542,    4593,   10940,   10786,    4541,    4592,   10952
    1879,   10801,   10785,   10940,   10939,   10802,   10786,   10952,   10951
    1880,   10817,   10801,   10939,   10938,   10818,   10802,   10951,   10950
    1881,   10833,   10817,   10938,   10937,   10834,   10818,   10950,   10949
    1882,   10763,   10661,   10834,   10949,   10762,   10660,   10835,   10961
    1883,   10747,   10763,   10949,   10953,   10746,   10762,   10961,   10965
    1884,   10731,   10747,   10953,   10957,   10730,   10746,   10965,   10969
    1885,   10958,   10715,   10731,   10957,   10970,   10714,   10730,   10969
    1886,   10959,   10699,   10715,   10958,   10971,   10698,   10714,   10970
    1887,   10960,   10683,   10699,   10959,   10972,   10682,   10698,   10971
    1888,    4560,    4527,   10683,   10960,    4559,    4528,   10682,   10972
    1889,   10956,    4576,    4560,   10960,   10968,    4575,    4559,   10972
    1890,   10955,   10956,   10960,   10959,   10967,   10968,   10972,   10971
    1891,   10954,   10955,   10959,   10958,   10966,   10967,   10971,   10970
    1892,   10953,   10954,   10958,   10957,   10965,   10966,   10970,   10969
    1893,   10952,    4592,    4576,   10956,   10964,    4591,    4575,   10968
    1894,   10951,   10952,   10956,   10955,   10963,   10964,   10968,   10967
    1895,   10950,   10951,   10955,   10954,   10962,   10963,   10967,   10966
    1896,   10949,   10950,   10954,   10953,   10961,   10962,   10966,   10965
    1897,   10786,    4541,    4592,   10952,   10787,    4540,    4591,   10964
    1898,   10802,   10786,   10952,   10951,   10803,   10787,   10964,   10963
    1899,   10818,   10802,   10951,   10950,   10819,   10803,   10963,   10962
    1900,   10834,   10818,   10950,   10949,   10835,   10819,   10962,   10961
    1901,   10762,   10660,   10835,   10961,   10761,   10659,   10836,   10973
    1902,   10746,   10762,   10961,   10965,   10745,   10761,   10973,   10977
    1903,   10730,   10746,   10965,   10969,   10729,   10745,   10977,   10981
    1904,   10970,   10714,   10730,   10969,   10982,   10713,   10729,   10981
    1905,   10971,   10698,   10714,   10970,   10983,   10697,   10713,   10982
    1906,   10972,   10682,   10698,   10971,   10984,   10681,   10697,   10983
    1907,    4559,    4528,   10682,   10972,    4558,    4529,   10681,   10984
    1908,   10968,    4575,    4559,   10972,   10980,    4574,    4558,   10984
    1909,   10967,   10968,   10972,   10971,   10979,   10980,   10984,   10983
    1910,   10966,   10967,   10971,   10970,   10978,   10979,   10983,   10982
    1911,   10965,   10966,   10970,   10969,   10977,   10978,   10982,   10981
    1912,   10964,    4591,    4575,   10968,   10976,    4590,    4574,   10980
    1913,   10963,   10964,   10968,   10967,   10975,   10976,   10980,   10979
    1914,   10962,   10963,   10967,   10966,   10974,   10975,   10979,   10978
    1915,   10961,   10962,   10966,   10965,   10973,   10974,   10978,   10977
    1916,   10787,    4540,    4591,   10964,   10788,    4539,    4590,   10976
    1917,   10803,   10787,   10964,   10963,   10804,   10788,   10976,   10975
    1918,   10819,   10803,   10963,   10962,   10820,   10804,   10975,   10974
    1919,   10835,   10819,   10962,   10961,   10836,   10820,   10974,   10973
    1920,   10761,   10659,   10836,   10973,   10760,   10658,   10837,   10985
    1921,   10745,   10761,   10973,   10977,   10744,   10760,   10985,   10989
    1922,   10729,   10745,   10977,   10981,   10728,   10744,   10989,   10993
    1923,   10982,   10713,   10729,   10981,   10994,   10712,   10728,   10993
    1924,   10983,   10697,   10713,   10982,   10995,   10696,   10712,   10994
    1925,   10984,   10681,   10697,   10983,   10996,   10680,   10696,   10995
    1926,    4558,    4529,   10681,   10984,    4557,    4530,   10680,   10996
    1927,   10980,    4574,    4558,   10984,   10992,    4573,    4557,   10996
    1928,   10979,   10980,   10984,   10983,   10991,   10992,   10996,   10995
    1929,   10978,   10979,   10983,   10982,   10990,   10991,   10995,   10994
    1930,   10977,   10978,   10982,   10981,   10989,   10990,   10994,   10993
    1931,   10976,    4590,    4574,   10980,   10988,    4589,    4573,   10992
    1932,   10975,   10976,   10980,   10979,   10987,   10988,   10992,   10991
    1933,   10974,   10975,   10979,   10978,   10986,   10987,   10991,   10990
    1934,   10973,   10974,   10978,   10977,   10985,   10986,   10990,   10989
    1935,   10788,    4539,    4590,   10976,   10789,    4538,    4589,   10988
    1936,   10804,   10788,   10976,   10975,   10805,   10789,   10988,   10987
    1937,   10820,   10804,   10975,   10974,   10821,   10805,   10987,   10986
    1938,   10836,   10820,   10974,   10973,   10837,   10821,   10986,   10985
    1939,   10760,   10658,   10837,   10985,   10759,   10657,   10838,   10997
    1940,   10744,   10760,   10985,   10989,   10743,   10759,   10997,   11001
    1941,   10728,   10744,   10989,   10993,   10727,   10743,   11001,   11005
    1942,   10994,   10712,   10728,   10993,   11006,   10711,   10727,   11005
    1943,   10995,   10696,   10712,   10994,   11007,   10695,   10711,   11006
    1944,   10996,   10680,   10696,   10995,   11008,   10679,   10695,   11007
    1945,    4557,    4530,   10680,   10996,    4556,    4531,   10679,   11008
    1946,   10992,    4573,    4557,   10996,   11004,    4572,    4556,   11008
    1947,   10991,   10992,   10996,   10995,   11003,   11004,   11008,   11007
    1948,   10990,   10991,   10995,   10994,   11002,   11003,   11007,   11006
    1949,   10989,   10990,   10994,   10993,   11001,   11002,   11006,   11005
    1950,   10988,    4589,    4573,   10992,   11000,    4588,    4572,   11004
    1951,   10987,   10988,   10992,   10991,   10999,   11000,   11004,   11003
    1952,   10986,   10987,   10991,   10990,   10998,   10999,   11003,   11002
    1953,   10985,   10986,   10990,   10989,   10997,   10998,   11002,   11001
    1954,   10789,    4538,    4589,   10988,   10790,    4537,    4588,   11000
    1955,   10805,   10789,   10988,   10987,   10806,   10790,   11000,   10999
    1956,   10821,   10805,   10987,   10986,   10822,   10806,   10999,   10998
    1957,   10837,   10821,   10986,   10985,   10838,   10822,   10998,   10997
    1958,   10759,   10657,   10838,   10997,   10758,   10656,   10839,   11009
    1959,   10743,   10759,   10997,   11001,   10742,   10758,   11009,   11013
    1960,   10727,   10743,   11001,   11005,   10726,   10742,   11013,   11017
    1961,   11006,   10711,   10727,   11005,   11018,   10710,   10726,   11017
    1962,   11007,   10695,   10711,   11006,   11019,   10694,   10710,   11018
    1963,   11008,   10679,   10695,   11007,   11020,   10678,   10694,   11019
    1964,    4556,    4531,   10679,   11008,    4555,    4532,   10678,   11020
    1965,   11004,    4572,    4556,   11008,   11016,    4571,    4555,   11020
    1966,   11003,   11004,   11008,   11007,   11015,   11016,   11020,   11019
    1967,   11002,   11003,   11007,   11006,   11014,   11015,   11019,   11018
    1968,   11001,   11002,   11006,   11005,   11013,   11014,   11018,   11017
    1969,   11000,    4588,    4572,   11004,   11012,    4587,    4571,   11016
    1970,   10999,   11000,   11004,   11003,   11011,   11012,   11016,   11015
    1971,   10998,   10999,   11003,   11002,   11010,   11011,   11015,   11014
    1972,   10997,   10998,   11002,   11001,   11009,   11010,   11014,   11013
    1973,   10790,    4537,    4588,   11000,   10791,    4536,    4587,   11012
    1974,   10806,   10790,   11000,   10999,   10807,   10791,   11012,   11011
    1975,   10822,   10806,   10999,   10998,   10823,   10807,   11011,   11010
    1976,   10838,   10822,   10998,   10997,   10839,   10823,   11010,   11009
    1977,   10758,   10656,   10839,   11009,   10757,   10655,   10840,   11021
    1978,   10742,   10758,   11009,   11013,   10741,   10757,   11021,   11025
    1979,   10726,   10742,   11013,   11017,   10725,   10741,   11025,   11029
    1980,   11018,   10710,   10726,   11017,   11030,   10709,   10725,   11029
    1981,   11019,   10694,   10710,   11018,   11031,   10693,   10709,   11030
    1982,   11020,   10678,   10694,   11019,   11032,   10677,   10693,   11031
    1983,    4555,    4532,   10678,   11020,    4554,    4533,   10677,   11032
    1984,   11016,    4571,    4555,   11020,   11028,    4570,    4554,   11032
    1985,   11015,   11016,   11020,   11019,   11027,   11028,   11032,   11031
    1986,   11014,   11015,   11019,   11018,   11026,   11027,   11031,   11030
    1987,   11013,   11014,   11018,   11017,   11025,   11026,   11030,   11029
    1988,   11012,    4587,    4571,   11016,   11024,    4586,    4570,   11028
    1989,   11011,   11012,   11016,   11015,   11023,   11024,   11028,   11027
    1990,   11010,   11011,   11015,   11014,   11022,   11023,   11027,   11026
    1991,   11009,   11010,   11014,   11013,   11021,   11022,   11026,   11025
    1992,   10791,    4536,    4587,   11012,   10792,    4535,    4586,   11024
    1993,   10807,   10791,   11012,   11011,   10808,   10792,   11024,   11023
    1994,   10823,   10807,   11011,   11010,   10824,   10808,   11023,   11022
    1995,   10839,   10823,   11010,   11009,   10840,   10824,   11022,   11021
    1996,   10757,   10655,   10840,   11021,   10676,   10654,   10776,   11033
    1997,   10741,   10757,   11021,   11025,   10675,   10676,   11033,   11037
    1998,   10725,   10741,   11025,   11029,   10674,   10675,   11037,   11041
    1999,   11030,   10709,   10725,   11029,   11042,   10673,   10674,   11041
    2000,   11031,   10693,   10709,   11030,   11043,   10672,   10673,   11042
    2001,   11032,   10677,   10693,   11031,   11044,   10671,   10672,   11043
    2002,    4554,    4533,   10677,   11032,    4551,    4517,   10671,   11044
    2003,   11028,    4570,    4554,   11032,   11040,    4552,    4551,   11044
    2004,   11027,   11028,   11032,   11031,   11039,   11040,   11044,   11043
    2005,   11026,   11027,   11031,   11030,   11038,   11039,   11043,   11042
    2006,   11025,   11026,   11030,   11029,   11037,   11038,   11042,   11041
    2007,   11024,    4586,    4570,   11028,   11036,    4553,    4552,   11040
    2008,   11023,   11024,   11028,   11027,   11035,   11036,   11040,   11039
    2009,   11022,   11023,   11027,   11026,   11034,   11035,   11039,   11038
    2010,   11021,   11022,   11026,   11025,   11033,   11034,   11038,   11037
    2011,   10792,    4535,    4586,   11024,   10773,    4534,    4553,   11036
    2012,   10808,   10792,   11024,   11023,   10774,   10773,   11036,   11035
    2013,   10824,   10808,   11023,   11022,   10775,   10774,   11035,   11034
    2014,   10840,   10824,   11022,   11021,   10776,   10775,   11034,   11033
*ELEMENT, TYPE=COH3D8, ELSET=mortar
    2015,   12275,   12312,   12500,   12499,   12276,   12498,   12692,   12536
    2016,   12312,   12311,   12501,   12500,   12498,   12497,   12693,   12692
    2017,   12311,   12310,   12502,   12501,   12497,   12496,   12694,   12693
    2018,   12310,   12309,   12503,   12502,   12496,   12495,   12695,   12694
    2019,   12309,   12308,   12504,   12503,   12495,   12494,   12696,   12695
    2020,   12308,   12307,   12505,   12504,   12494,   12493,   12697,   12696
    2021,   12307,   12306,   12506,   12505,   12493,   12492,   12698,   12697
    2022,   12306,   12305,   12507,   12506,   12492,   12491,   12699,   12698
    2023,   12305,   12304,   12508,   12507,   12491,   12490,   12700,   12699
    2024,   12304,   12303,   12509,   12508,   12490,   12489,   12701,   12700
    2025,   12303,   12302,   12510,   12509,   12489,   12488,   12702,   12701
    2026,   12302,   12301,   12511,   12510,   12488,   12487,   12703,   12702
    2027,   12301,   12300,   12512,   12511,   12487,   12486,   12704,   12703
    2028,   12300,   12299,   12513,   12512,   12486,   12485,   12705,   12704
    2029,   12299,   12298,   12514,   12513,   12485,   12484,   12706,   12705
    2030,   12298,   12297,   12515,   12514,   12484,   12483,   12707,   12706
    2031,   12297,   12296,   12516,   12515,   12483,   12482,   12708,   12707
    2032,   12296,   12295,   12517,   12516,   12482,   12481,   12709,   12708
    2033,   12295,   12294,   12518,   12517,   12481,   12480,   12710,   12709
    2034,   12294,   12293,   12519,   12518,   12480,   12479,   12711,   12710
    2035,   12293,   12292,   12520,   12519,   12479,   12478,   12712,   12711
    2036,   12292,   12291,   12521,   12520,   12478,   12477,   12713,   12712
    2037,   12291,   12290,   12522,   12521,   12477,   12476,   12714,   12713
    2038,   12290,   12289,   12523,   12522,   12476,   12475,   12715,   12714
    2039,   12289,   12288,   12524,   12523,   12475,   12474,   12716,   12715
    2040,   12288,   12287,   12525,   12524,   12474,   12473,   12717,   12716
    2041,   12287,   12286,   12526,   12525,   12473,   12472,   12718,   12717
    2042,   12286,   12285,   12527,   12526,   12472,   12471,   12719,   12718
    2043,   12285,   12284,   12528,   12527,   12471,   12470,   12720,   12719
    2044,   12284,   12283,   12529,   12528,   12470,   12469,   12721,   12720
    2045,   12283,   12282,   12530,   12529,   12469,   12468,   12722,   12721
    2046,   12282,   12261,   12268,   12530,   12468,   12267,   12269,   12722
    2047,   12276,   12498,   12692,   12536,   12277,   12467,   12661,   12535
    2048,   12498,   12497,   12693,   12692,   12467,   12466,   12662,   12661
    2049,   12497,   12496,   12694,   12693,   12466,   12465,   12663,   12662
    2050,   12496,   12495,   12695,   12694,   12465,   12464,   12664,   12663
    2051,   12495,   12494,   12696,   12695,   12464,   12463,   12665,   12664
    2052,   12494,   12493,   12697,   12696,   12463,   12462,   12666,   12665
    2053,   12493,   12492,   12698,   12697,   12462,   12461,   12667,   12666
    2054,   12492,   12491,   12699,   12698,   12461,   12460,   12668,   12667
    2055,   12491,   12490,   12700,   12699,   12460,   12459,   12669,   12668
    2056,   12490,   12489,   12701,   12700,   12459,   12458,   12670,   12669
    2057,   12489,   12488,   12702,   12701,   12458,   12457,   12671,   12670
    2058,   12488,   12487,   12703,   12702,   12457,   12456,   12672,   12671
    2059,   12487,   12486,   12704,   12703,   12456,   12455,   12673,   12672
    2060,   12486,   12485,   12705,   12704,   12455,   12454,   12674,   12673
    2061,   12485,   12484,   12706,   12705,   12454,   12453,   12675,   12674
    2062,   12484,   12483,   12707,   12706,   12453,   12452,   12676,   12675
    2063,   12483,   12482,   12708,   12707,   12452,   12451,   12677,   12676
    2064,   12482,   12481,   12709,   12708,   12451,   12450,   12678,   12677
    2065,   12481,   12480,   12710,   12709,   12450,   12449,   12679,   12678
    2066,   12480,   12479,   12711,   12710,   12449,   12448,   12680,   12679
    2067,   12479,   12478,   12712,   12711,   12448,   12447,   12681,   12680
    2068,   12478,   12477,   12713,   12712,   12447,   12446,   12682,   12681
    2069,   12477,   12476,   12714,   12713,   12446,   12445,   12683,   12682
    2070,   12476,   12475,   12715,   12714,   12445,   12444,   12684,   12683
    2071,   12475,   12474,   12716,   12715,   12444,   12443,   12685,   12684
    2072,   12474,   12473,   12717,   12716,   12443,   12442,   12686,   12685
    2073,   12473,   12472,   12718,   12717,   12442,   12441,   12687,   12686
    2074,   12472,   12471,   12719,   12718,   12441,   12440,   12688,   12687
    2075,   12471,   12470,   12720,   12719,   12440,   12439,   12689,   12688
    2076,   12470,   12469,   12721,   12720,   12439,   12438,   12690,   12689
    2077,   12469,   12468,   12722,   12721,   12438,   12437,   12691,   12690
    2078,   12468,   12267,   12269,   12722,   12437,   12266,   12270,   12691
    2079,   12277,   12467,   12661,   12535,   12278,   12436,   12630,   12534
    2080,   12467,   12466,   12662,   12661,   12436,   12435,   12631,   12630
    2081,   12466,   12465,   12663,   12662,   12435,   12434,   12632,   12631
    2082,   12465,   12464,   12664,   12663,   12434,   12433,   12633,   12632
    2083,   12464,   12463,   12665,   12664,   12433,   12432,   12634,   12633
    2084,   12463,   12462,   12666,   12665,   12432,   12431,   12635,   12634
    2085,   12462,   12461,   12667,   12666,   12431,   12430,   12636,   12635
    2086,   12461,   12460,   12668,   12667,   12430,   12429,   12637,   12636
    2087,   12460,   12459,   12669,   12668,   12429,   12428,   12638,   12637
    2088,   12459,   12458,   12670,   12669,   12428,   12427,   12639,   12638
    2089,   12458,   12457,   12671,   12670,   12427,   12426,   12640,   12639
    2090,   12457,   12456,   12672,   12671,   12426,   12425,   12641,   12640
    2091,   12456,   12455,   12673,   12672,   12425,   12424,   12642,   12641
    2092,   12455,   12454,   12674,   12673,   12424,   12423,   12643,   12642
    2093,   12454,   12453,   12675,   12674,   12423,   12422,   12644,   12643
    2094,   12453,   12452,   12676,   12675,   12422,   12421,   12645,   12644
    2095,   12452,   12451,   12677,   12676,   12421,   12420,   12646,   12645
    2096,   12451,   12450,   12678,   12677,   12420,   12419,   12647,   12646
    2097,   12450,   12449,   12679,   12678,   12419,   12418,   12648,   12647
    2098,   12449,   12448,   12680,   12679,   12418,   12417,   12649,   12648
    2099,   12448,   12447,   12681,   12680,   12417,   12416,   12650,   12649
    2100,   12447,   12446,   12682,   12681,   12416,   12415,   12651,   12650
    2101,   12446,   12445,   12683,   12682,   12415,   12414,   12652,   12651
    2102,   12445,   12444,   12684,   12683,   12414,   12413,   12653,   12652
    2103,   12444,   12443,   12685,   12684,   12413,   12412,   12654,   12653
    2104,   12443,   12442,   12686,   12685,   12412,   12411,   12655,   12654
    2105,   12442,   12441,   12687,   12686,   12411,   12410,   12656,   12655
    2106,   12441,   12440,   12688,   12687,   12410,   12409,   12657,   12656
    2107,   12440,   12439,   12689,   12688,   12409,   12408,   12658,   12657
    2108,   12439,   12438,   12690,   12689,   12408,   12407,   12659,   12658
    2109,   12438,   12437,   12691,   12690,   12407,   12406,   12660,   12659
    2110,   12437,   12266,   12270,   12691,   12406,   12265,   12271,   12660
    2111,   12278,   12436,   12630,   12534,   12279,   12405,   12599,   12533
    2112,   12436,   12435,   12631,   12630,   12405,   12404,   12600,   12599
    2113,   12435,   12434,   12632,   12631,   12404,   12403,   12601,   12600
    2114,   12434,   12433,   12633,   12632,   12403,   12402,   12602,   12601
    2115,   12433,   12432,   12634,   12633,   12402,   12401,   12603,   12602
    2116,   12432,   12431,   12635,   12634,   12401,   12400,   12604,   12603
    2117,   12431,   12430,   12636,   12635,   12400,   12399,   12605,   12604
    2118,   12430,   12429,   12637,   12636,   12399,   12398,   12606,   12605
    2119,   12429,   12428,   12638,   12637,   12398,   12397,   12607,   12606
    2120,   12428,   12427,   12639,   12638,   12397,   12396,   12608,   12607
    2121,   12427,   12426,   12640,   12639,   12396,   12395,   12609,   12608
    2122,   12426,   12425,   12641,   12640,   12395,   12394,   12610,   12609
    2123,   12425,   12424,   12642,   12641,   12394,   12393,   12611,   12610
    2124,   12424,   12423,   12643,   12642,   12393,   12392,   12612,   12611
    2125,   12423,   12422,   12644,   12643,   12392,   12391,   12613,   12612
    2126,   12422,   12421,   12645,   12644,   12391,   12390,   12614,   12613
    2127,   12421,   12420,   12646,   12645,   12390,   12389,   12615,   12614
    2128,   12420,   12419,   12647,   12646,   12389,   12388,   12616,   12615
    2129,   12419,   12418,   12648,   12647,   12388,   12387,   12617,   12616
    2130,   12418,   12417,   12649,   12648,   12387,   12386,   12618,   12617
    2131,   12417,   12416,   12650,   12649,   12386,   12385,   12619,   12618
    2132,   12416,   12415,   12651,   12650,   12385,   12384,   12620,   12619
    2133,   12415,   12414,   12652,   12651,   12384,   12383,   12621,   12620
    2134,   12414,   12413,   12653,   12652,   12383,   12382,   12622,   12621
    2135,   12413,   12412,   12654,   12653,   12382,   12381,   12623,   12622
    2136,   12412,   12411,   12655,   12654,   12381,   12380,   12624,   12623
    2137,   12411,   12410,   12656,   12655,   12380,   12379,   12625,   12624
    2138,   12410,   12409,   12657,   12656,   12379,   12378,   12626,   12625
    2139,   12409,   12408,   12658,   12657,   12378,   12377,   12627,   12626
    2140,   12408,   12407,   12659,   12658,   12377,   12376,   12628,   12627
    2141,   12407,   12406,   12660,   12659,   12376,   12375,   12629,   12628
    2142,   12406,   12265,   12271,   12660,   12375,   12264,   12272,   12629
    2143,   12279,   12405,   12599,   12533,   12280,   12374,   12568,   12532
    2144,   12405,   12404,   12600,   12599,   12374,   12373,   12569,   12568
    2145,   12404,   12403,   12601,   12600,   12373,   12372,   12570,   12569
    2146,   12403,   12402,   12602,   12601,   12372,   12371,   12571,   12570
    2147,   12402,   12401,   12603,   12602,   12371,   12370,   12572,   12571
    2148,   12401,   12400,   12604,   12603,   12370,   12369,   12573,   12572
    2149,   12400,   12399,   12605,   12604,   12369,   12368,   12574,   12573
    2150,   12399,   12398,   12606,   12605,   12368,   12367,   12575,   12574
    2151,   12398,   12397,   12607,   12606,   12367,   12366,   12576,   12575
    2152,   12397,   12396,   12608,   12607,   12366,   12365,   12577,   12576
    2153,   12396,   12395,   12609,   12608,   12365,   12364,   12578,   12577
    2154,   12395,   12394,   12610,   12609,   12364,   12363,   12579,   12578
    2155,   12394,   12393,   12611,   12610,   12363,   12362,   12580,   12579
    2156,   12393,   12392,   12612,   12611,   12362,   12361,   12581,   12580
    2157,   12392,   12391,   12613,   12612,   12361,   12360,   12582,   12581
    2158,   12391,   12390,   12614,   12613,   12360,   12359,   12583,   12582
    2159,   12390,   12389,   12615,   12614,   12359,   12358,   12584,   12583
    2160,   12389,   12388,   12616,   12615,   12358,   12357,   12585,   12584
    2161,   12388,   12387,   12617,   12616,   12357,   12356,   12586,   12585
    2162,   12387,   12386,   12618,   12617,   12356,   12355,   12587,   12586
    2163,   12386,   12385,   12619,   12618,   12355,   12354,   12588,   12587
    2164,   12385,   12384,   12620,   12619,   12354,   12353,   12589,   12588
    2165,   12384,   12383,   12621,   12620,   12353,   12352,   12590,   12589
    2166,   12383,   12382,   12622,   12621,   12352,   12351,   12591,   12590
    2167,   12382,   12381,   12623,   12622,   12351,   12350,   12592,   12591
    2168,   12381,   12380,   12624,   12623,   12350,   12349,   12593,   12592
    2169,   12380,   12379,   12625,   12624,   12349,   12348,   12594,   12593
    2170,   12379,   12378,   12626,   12625,   12348,   12347,   12595,   12594
    2171,   12378,   12377,   12627,   12626,   12347,   12346,   12596,   12595
    2172,   12377,   12376,   12628,   12627,   12346,   12345,   12597,   12596
    2173,   12376,   12375,   12629,   12628,   12345,   12344,   12598,   12597
    2174,   12375,   12264,   12272,   12629,   12344,   12263,   12273,   12598
    2175,   12280,   12374,   12568,   12532,   12281,   12343,   12537,   12531
    2176,   12374,   12373,   12569,   12568,   12343,   12342,   12538,   12537
    2177,   12373,   12372,   12570,   12569,   12342,   12341,   12539,   12538
    2178,   12372,   12371,   12571,   12570,   12341,   12340,   12540,   12539
    2179,   12371,   12370,   12572,   12571,   12340,   12339,   12541,   12540
    2180,   12370,   12369,   12573,   12572,   12339,   12338,   12542,   12541
    2181,   12369,   12368,   12574,   12573,   12338,   12337,   12543,   12542
    2182,   12368,   12367,   12575,   12574,   12337,   12336,   12544,   12543
    2183,   12367,   12366,   12576,   12575,   12336,   12335,   12545,   12544
    2184,   12366,   12365,   12577,   12576,   12335,   12334,   12546,   12545
    2185,   12365,   12364,   12578,   12577,   12334,   12333,   12547,   12546
    2186,   12364,   12363,   12579,   12578,   12333,   12332,   12548,   12547
    2187,   12363,   12362,   12580,   12579,   12332,   12331,   12549,   12548
    2188,   12362,   12361,   12581,   12580,   12331,   12330,   12550,   12549
    2189,   12361,   12360,   12582,   12581,   12330,   12329,   12551,   12550
    2190,   12360,   12359,   12583,   12582,   12329,   12328,   12552,   12551
    2191,   12359,   12358,   12584,   12583,   12328,   12327,   12553,   12552
    2192,   12358,   12357,   12585,   12584,   12327,   12326,   12554,   12553
    2193,   12357,   12356,   12586,   12585,   12326,   12325,   12555,   12554
    2194,   12356,   12355,   12587,   12586,   12325,   12324,   12556,   12555
    2195,   12355,   12354,   12588,   12587,   12324,   12323,   12557,   12556
    2196,   12354,   12353,   12589,   12588,   12323,   12322,   12558,   12557
    2197,   12353,   12352,   12590,   12589,   12322,   12321,   12559,   12558
    2198,   12352,   12351,   12591,   12590,   12321,   12320,   12560,   12559
    2199,   12351,   12350,   12592,   12591,   12320,   12319,   12561,   12560
    2200,   12350,   12349,   12593,   12592,   12319,   12318,   12562,   12561
    2201,   12349,   12348,   12594,   12593,   12318,   12317,   12563,   12562
    2202,   12348,   12347,   12595,   12594,   12317,   12316,   12564,   12563
    2203,   12347,   12346,   12596,   12595,   12316,   12315,   12565,   12564
    2204,   12346,   12345,   12597,   12596,   12315,   12314,   12566,   12565
    2205,   12345,   12344,   12598,   12597,   12314,   12313,   12567,   12566
    2206,   12344,   12263,   12273,   12598,   12313,   12262,   12274,   12567
    2207,   12281,   12343,   12537,   12531,   12195,   12228,   12230,   12196
    2208,   12343,   12342,   12538,   12537,   12228,   12227,   12231,   12230
    2209,   12342,   12341,   12539,   12538,   12227,   12226,   12232,   12231
    2210,   12341,   12340,   12540,   12539,   12226,   12225,   12233,   12232
    2211,   12340,   12339,   12541,   12540,   12225,   12224,   12234,   12233
    2212,   12339,   12338,   12542,   12541,   12224,   12223,   12235,   12234
    2213,   12338,   12337,   12543,   12542,   12223,   12222,   12236,   12235
    2214,   12337,   12336,   12544,   12543,   12222,   12221,   12237,   12236
    2215,   12336,   12335,   12545,   12544,   12221,   12220,   12238,   12237
    2216,   12335,   12334,   12546,   12545,   12220,   12219,   12239,   12238
    2217,   12334,   12333,   12547,   12546,   12219,   12218,   12240,   12239
    2218,   12333,   12332,   12548,   12547,   12218,   12217,   12241,   12240
    2219,   12332,   12331,   12549,   12548,   12217,   12216,   12242,   12241
    2220,   12331,   12330,   12550,   12549,   12216,   12215,   12243,   12242
    2221,   12330,   12329,   12551,   12550,   12215,   12214,   12244,   12243
    2222,   12329,   12328,   12552,   12551,   12214,   12213,   12245,   12244
    2223,   12328,   12327,   12553,   12552,   12213,   12212,   12246,   12245
    2224,   12327,   12326,   12554,   12553,   12212,   12211,   12247,   12246
    2225,   12326,   12325,   12555,   12554,   12211,   12210,   12248,   12247
    2226,   12325,   12324,   12556,   12555,   12210,   12209,   12249,   12248
    2227,   12324,   12323,   12557,   12556,   12209,   12208,   12250,   12249
    2228,   12323,   12322,   12558,   12557,   12208,   12207,   12251,   12250
    2229,   12322,   12321,   12559,   12558,   12207,   12206,   12252,   12251
    2230,   12321,   12320,   12560,   12559,   12206,   12205,   12253,   12252
    2231,   12320,   12319,   12561,   12560,   12205,   12204,   12254,   12253
    2232,   12319,   12318,   12562,   12561,   12204,   12203,   12255,   12254
    2233,   12318,   12317,   12563,   12562,   12203,   12202,   12256,   12255
    2234,   12317,   12316,   12564,   12563,   12202,   12201,   12257,   12256
    2235,   12316,   12315,   12565,   12564,   12201,   12200,   12258,   12257
    2236,   12315,   12314,   12566,   12565,   12200,   12199,   12259,   12258
    2237,   12314,   12313,   12567,   12566,   12199,   12198,   12260,   12259
    2238,   12313,   12262,   12274,   12567,   12198,   12197,   12229,   12260
    2239,   12197,   15308,   15072,   12229,   12198,   15339,   15078,   12260
    2240,   15308,   15307,   15073,   15072,   15339,   15370,   15109,   15078
    2241,   15307,   15306,   15074,   15073,   15370,   15401,   15140,   15109
    2242,   15306,   15305,   15075,   15074,   15401,   15432,   15171,   15140
    2243,   15305,   15304,   15076,   15075,   15432,   15463,   15202,   15171
    2244,   15304,   15303,   15077,   15076,   15463,   15494,   15233,   15202
    2245,   15303,   15271,   15040,   15077,   15494,   15302,   15041,   15233
    2246,   12198,   15339,   15078,   12260,   12199,   15338,   15079,   12259
    2247,   15339,   15370,   15109,   15078,   15338,   15369,   15110,   15079
    2248,   15370,   15401,   15140,   15109,   15369,   15400,   15141,   15110
    2249,   15401,   15432,   15171,   15140,   15400,   15431,   15172,   15141
    2250,   15432,   15463,   15202,   15171,   15431,   15462,   15203,   15172
    2251,   15463,   15494,   15233,   15202,   15462,   15493,   15234,   15203
    2252,   15494,   15302,   15041,   15233,   15493,   15301,   15042,   15234
    2253,   12199,   15338,   15079,   12259,   12200,   15337,   15080,   12258
    2254,   15338,   15369,   15110,   15079,   15337,   15368,   15111,   15080
    2255,   15369,   15400,   15141,   15110,   15368,   15399,   15142,   15111
    2256,   15400,   15431,   15172,   15141,   15399,   15430,   15173,   15142
    2257,   15431,   15462,   15203,   15172,   15430,   15461,   15204,   15173
    2258,   15462,   15493,   15234,   15203,   15461,   15492,   15235,   15204
    2259,   15493,   15301,   15042,   15234,   15492,   15300,   15043,   15235
    2260,   12200,   15337,   15080,   12258,   12201,   15336,   15081,   12257
    2261,   15337,   15368,   15111,   15080,   15336,   15367,   15112,   15081
    2262,   15368,   15399,   15142,   15111,   15367,   15398,   15143,   15112
    2263,   15399,   15430,   15173,   15142,   15398,   15429,   15174,   15143
    2264,   15430,   15461,   15204,   15173,   15429,   15460,   15205,   15174
    2265,   15461,   15492,   15235,   15204,   15460,   15491,   15236,   15205
    2266,   15492,   15300,   15043,   15235,   15491,   15299,   15044,   15236
    2267,   12201,   15336,   15081,   12257,   12202,   15335,   15082,   12256
    2268,   15336,   15367,   15112,   15081,   15335,   15366,   15113,   15082
    2269,   15367,   15398,   15143,   15112,   15366,   15397,   15144,   15113
    2270,   15398,   15429,   15174,   15143,   15397,   15428,   15175,   15144
    2271,   15429,   15460,   15205,   15174,   15428,   15459,   15206,   15175
    2272,   15460,   15491,   15236,   15205,   15459,   15490,   15237,   15206
    2273,   15491,   15299,   15044,   15236,   15490,   15298,   15045,   15237
    2274,   12202,   15335,   15082,   12256,   12203,   15334,   15083,   12255
    2275,   15335,   15366,   15113,   15082,   15334,   15365,   15114,   15083
    2276,   15366,   15397,   15144,   15113,   15365,   15396,   15145,   15114
    2277,   15397,   15428,   15175,   15144,   15396,   15427,   15176,   15145
    2278,   15428,   15459,   15206,   15175,   15427,   15458,   15207,   15176
    2279,   15459,   15490,   15237,   15206,   15458,   15489,   15238,   15207
    2280,   15490,   15298,   15045,   15237,   15489,   15297,   15046,   15238
    2281,   12203,   15334,   15083,   12255,   12204,   15333,   15084,   12254
    2282,   15334,   15365,   15114,   15083,   15333,   15364,   15115,   15084
    2283,   15365,   15396,   15145,   15114,   15364,   15395,   15146,   15115
    2284,   15396,   15427,   15176,   15145,   15395,   15426,   15177,   15146
    2285,   15427,   15458,   15207,   15176,   15426,   15457,   15208,   15177
    2286,   15458,   15489,   15238,   15207,   15457,   15488,   15239,   15208
    2287,   15489,   15297,   15046,   15238,   15488,   15296,   15047,   15239
    2288,   12204,   15333,   15084,   12254,   12205,   15332,   15085,   12253
    2289,   15333,   15364,   15115,   15084,   15332,   15363,   15116,   15085
    2290,   15364,   15395,   15146,   15115,   15363,   15394,   15147,   15116
    2291,   15395,   15426,   15177,   15146,   15394,   15425,   15178,   15147
    2292,   15426,   15457,   15208,   15177,   15425,   15456,   15209,   15178
    2293,   15457,   15488,   15239,   15208,   15456,   15487,   15240,   15209
    2294,   15488,   15296,   15047,   15239,   15487,   15295,   15048,   15240
    2295,   12205,   15332,   15085,   12253,   12206,   15331,   15086,   12252
    2296,   15332,   15363,   15116,   15085,   15331,   15362,   15117,   15086
    2297,   15363,   15394,   15147,   15116,   15362,   15393,   15148,   15117
    2298,   15394,   15425,   15178,   15147,   15393,   15424,   15179,   15148
    2299,   15425,   15456,   15209,   15178,   15424,   15455,   15210,   15179
    2300,   15456,   15487,   15240,   15209,   15455,   15486,   15241,   15210
    2301,   15487,   15295,   15048,   15240,   15486,   15294,   15049,   15241
    2302,   12206,   15331,   15086,   12252,   12207,   15330,   15087,   12251
    2303,   15331,   15362,   15117,   15086,   15330,   15361,   15118,   15087
    2304,   15362,   15393,   15148,   15117,   15361,   15392,   15149,   15118
    2305,   15393,   15424,   15179,   15148,   15392,   15423,   15180,   15149
    2306,   15424,   15455,   15210,   15179,   15423,   15454,   15211,   15180
    2307,   15455,   15486,   15241,   15210,   15454,   15485,   15242,   15211
    2308,   15486,   15294,   15049,   15241,   15485,   15293,   15050,   15242
    2309,   12207,   15330,   15087,   12251,   12208,   15329,   15088,   12250
    2310,   15330,   15361,   15118,   15087,   15329,   15360,   15119,   15088
    2311,   15361,   15392,   15149,   15118,   15360,   15391,   15150,   15119
    2312,   15392,   15423,   15180,   15149,   15391,   15422,   15181,   15150
    2313,   15423,   15454,   15211,   15180,   15422,   15453,   15212,   15181
    2314,   15454,   15485,   15242,   15211,   15453,   15484,   15243,   15212
    2315,   15485,   15293,   15050,   15242,   15484,   15292,   15051,   15243
    2316,   12208,   15329,   15088,   12250,   12209,   15328,   15089,   12249
    2317,   15329,   15360,   15119,   15088,   15328,   15359,   15120,   15089
    2318,   15360,   15391,   15150,   15119,   15359,   15390,   15151,   15120
    2319,   15391,   15422,   15181,   15150,   15390,   15421,   15182,   15151
    2320,   15422,   15453,   15212,   15181,   15421,   15452,   15213,   15182
    2321,   15453,   15484,   15243,   15212,   15452,   15483,   15244,   15213
    2322,   15484,   15292,   15051,   15243,   15483,   15291,   15052,   15244
    2323,   12209,   15328,   15089,   12249,   12210,   15327,   15090,   12248
    2324,   15328,   15359,   15120,   15089,   15327,   15358,   15121,   15090
    2325,   15359,   15390,   15151,   15120,   15358,   15389,   15152,   15121
    2326,   15390,   15421,   15182,   15151,   15389,   15420,   15183,   15152
    2327,   15421,   15452,   15213,   15182,   15420,   15451,   15214,   15183
    2328,   15452,   15483,   15244,   15213,   15451,   15482,   15245,   15214
    2329,   15483,   15291,   15052,   15244,   15482,   15290,   15053,   15245
    2330,   12210,   15327,   15090,   12248,   12211,   15326,   15091,   12247
    2331,   15327,   15358,   15121,   15090,   15326,   15357,   15122,   15091
    2332,   15358,   15389,   15152,   15121,   15357,   15388,   15153,   15122
    2333,   15389,   15420,   15183,   15152,   15388,   15419,   15184,   15153
    2334,   15420,   15451,   15214,   15183,   15419,   15450,   15215,   15184
    2335,   15451,   15482,   15245,   15214,   15450,   15481,   15246,   15215
    2336,   15482,   15290,   15053,   15245,   15481,   15289,   15054,   15246
    2337,   12211,   15326,   15091,   12247,   12212,   15325,   15092,   12246
    2338,   15326,   15357,   15122,   15091,   15325,   15356,   15123,   15092
    2339,   15357,   15388,   15153,   15122,   15356,   15387,   15154,   15123
    2340,   15388,   15419,   15184,   15153,   15387,   15418,   15185,   15154
    2341,   15419,   15450,   15215,   15184,   15418,   15449,   15216,   15185
    2342,   15450,   15481,   15246,   15215,   15449,   15480,   15247,   15216
    2343,   15481,   15289,   15054,   15246,   15480,   15288,   15055,   15247
    2344,   12212,   15325,   15092,   12246,   12213,   15324,   15093,   12245
    2345,   15325,   15356,   15123,   15092,   15324,   15355,   15124,   15093
    2346,   15356,   15387,   15154,   15123,   15355,   15386,   15155,   15124
    2347,   15387,   15418,   15185,   15154,   15386,   15417,   15186,   15155
    2348,   15418,   15449,   15216,   15185,   15417,   15448,   15217,   15186
    2349,   15449,   15480,   15247,   15216,   15448,   15479,   15248,   15217
    2350,   15480,   15288,   15055,   15247,   15479,   15287,   15056,   15248
    2351,   12213,   15324,   15093,   12245,   12214,   15323,   15094,   12244
    2352,   15324,   15355,   15124,   15093,   15323,   15354,   15125,   15094
    2353,   15355,   15386,   15155,   15124,   15354,   15385,   15156,   15125
    2354,   15386,   15417,   15186,   15155,   15385,   15416,   15187,   15156
    2355,   15417,   15448,   15217,   15186,   15416,   15447,   15218,   15187
    2356,   15448,   15479,   15248,   15217,   15447,   15478,   15249,   15218
    2357,   15479,   15287,   15056,   15248,   15478,   15286,   15057,   15249
    2358,   12214,   15323,   15094,   12244,   12215,   15322,   15095,   12243
    2359,   15323,   15354,   15125,   15094,   15322,   15353,   15126,   15095
    2360,   15354,   15385,   15156,   15125,   15353,   15384,   15157,   15126
    2361,   15385,   15416,   15187,   15156,   15384,   15415,   15188,   15157
    2362,   15416,   15447,   15218,   15187,   15415,   15446,   15219,   15188
    2363,   15447,   15478,   15249,   15218,   15446,   15477,   15250,   15219
    2364,   15478,   15286,   15057,   15249,   15477,   15285,   15058,   15250
    2365,   12215,   15322,   15095,   12243,   12216,   15321,   15096,   12242
    2366,   15322,   15353,   15126,   15095,   15321,   15352,   15127,   15096
    2367,   15353,   15384,   15157,   15126,   15352,   15383,   15158,   15127
    2368,   15384,   15415,   15188,   15157,   15383,   15414,   15189,   15158
    2369,   15415,   15446,   15219,   15188,   15414,   15445,   15220,   15189
    2370,   15446,   15477,   15250,   15219,   15445,   15476,   15251,   15220
    2371,   15477,   15285,   15058,   15250,   15476,   15284,   15059,   15251
    2372,   12216,   15321,   15096,   12242,   12217,   15320,   15097,   12241
    2373,   15321,   15352,   15127,   15096,   15320,   15351,   15128,   15097
    2374,   15352,   15383,   15158,   15127,   15351,   15382,   15159,   15128
    2375,   15383,   15414,   15189,   15158,   15382,   15413,   15190,   15159
    2376,   15414,   15445,   15220,   15189,   15413,   15444,   15221,   15190
    2377,   15445,   15476,   15251,   15220,   15444,   15475,   15252,   15221
    2378,   15476,   15284,   15059,   15251,   15475,   15283,   15060,   15252
    2379,   12217,   15320,   15097,   12241,   12218,   15319,   15098,   12240
    2380,   15320,   15351,   15128,   15097,   15319,   15350,   15129,   15098
    2381,   15351,   15382,   15159,   15128,   15350,   15381,   15160,   15129
    2382,   15382,   15413,   15190,   15159,   15381,   15412,   15191,   15160
    2383,   15413,   15444,   15221,   15190,   15412,   15443,   15222,   15191
    2384,   15444,   15475,   15252,   15221,   15443,   15474,   15253,   15222
    2385,   15475,   15283,   15060,   15252,   15474,   15282,   15061,   15253
    2386,   12218,   15319,   15098,   12240,   12219,   15318,   15099,   12239
    2387,   15319,   15350,   15129,   15098,   15318,   15349,   15130,   15099
    2388,   15350,   15381,   15160,   15129,   15349,   15380,   15161,   15130
    2389,   15381,   15412,   15191,   15160,   15380,   15411,   15192,   15161
    2390,   15412,   15443,   15222,   15191,   15411,   15442,   15223,   15192
    2391,   15443,   15474,   15253,   15222,   15442,   15473,   15254,   15223
    2392,   15474,   15282,   15061,   15253,   15473,   15281,   15062,   15254
    2393,   12219,   15318,   15099,   12239,   12220,   15317,   15100,   12238
    2394,   15318,   15349,   15130,   15099,   15317,   15348,   15131,   15100
    2395,   15349,   15380,   15161,   15130,   15348,   15379,   15162,   15131
    2396,   15380,   15411,   15192,   15161,   15379,   15410,   15193,   15162
    2397,   15411,   15442,   15223,   15192,   15410,   15441,   15224,   15193
    2398,   15442,   15473,   15254,   15223,   15441,   15472,   15255,   15224
    2399,   15473,   15281,   15062,   15254,   15472,   15280,   15063,   15255
    2400,   12220,   15317,   15100,   12238,   12221,   15316,   15101,   12237
    2401,   15317,   15348,   15131,   15100,   15316,   15347,   15132,   15101
    2402,   15348,   15379,   15162,   15131,   15347,   15378,   15163,   15132
    2403,   15379,   15410,   15193,   15162,   15378,   15409,   15194,   15163
    2404,   15410,   15441,   15224,   15193,   15409,   15440,   15225,   15194
    2405,   15441,   15472,   15255,   15224,   15440,   15471,   15256,   15225
    2406,   15472,   15280,   15063,   15255,   15471,   15279,   15064,   15256
    2407,   12221,   15316,   15101,   12237,   12222,   15315,   15102,   12236
    2408,   15316,   15347,   15132,   15101,   15315,   15346,   15133,   15102
    2409,   15347,   15378,   15163,   15132,   15346,   15377,   15164,   15133
    2410,   15378,   15409,   15194,   15163,   15377,   15408,   15195,   15164
    2411,   15409,   15440,   15225,   15194,   15408,   15439,   15226,   15195
    2412,   15440,   15471,   15256,   15225,   15439,   15470,   15257,   15226
    2413,   15471,   15279,   15064,   15256,   15470,   15278,   15065,   15257
    2414,   12222,   15315,   15102,   12236,   12223,   15314,   15103,   12235
    2415,   15315,   15346,   15133,   15102,   15314,   15345,   15134,   15103
    2416,   15346,   15377,   15164,   15133,   15345,   15376,   15165,   15134
    2417,   15377,   15408,   15195,   15164,   15376,   15407,   15196,   15165
    2418,   15408,   15439,   15226,   15195,   15407,   15438,   15227,   15196
    2419,   15439,   15470,   15257,   15226,   15438,   15469,   15258,   15227
    2420,   15470,   15278,   15065,   15257,   15469,   15277,   15066,   15258
    2421,   12223,   15314,   15103,   12235,   12224,   15313,   15104,   12234
    2422,   15314,   15345,   15134,   15103,   15313,   15344,   15135,   15104
    2423,   15345,   15376,   15165,   15134,   15344,   15375,   15166,   15135
    2424,   15376,   15407,   15196,   15165,   15375,   15406,   15197,   15166
    2425,   15407,   15438,   15227,   15196,   15406,   15437,   15228,   15197
    2426,   15438,   15469,   15258,   15227,   15437,   15468,   15259,   15228
    2427,   15469,   15277,   15066,   15258,   15468,   15276,   15067,   15259
    2428,   12224,   15313,   15104,   12234,   12225,   15312,   15105,   12233
    2429,   15313,   15344,   15135,   15104,   15312,   15343,   15136,   15105
    2430,   15344,   15375,   15166,   15135,   15343,   15374,   15167,   15136
    2431,   15375,   15406,   15197,   15166,   15374,   15405,   15198,   15167
    2432,   15406,   15437,   15228,   15197,   15405,   15436,   15229,   15198
    2433,   15437,   15468,   15259,   15228,   15436,   15467,   15260,   15229
    2434,   15468,   15276,   15067,   15259,   15467,   15275,   15068,   15260
    2435,   12225,   15312,   15105,   12233,   12226,   15311,   15106,   12232
    2436,   15312,   15343,   15136,   15105,   15311,   15342,   15137,   15106
    2437,   15343,   15374,   15167,   15136,   15342,   15373,   15168,   15137
    2438,   15374,   15405,   15198,   15167,   15373,   15404,   15199,   15168
    2439,   15405,   15436,   15229,   15198,   15404,   15435,   15230,   15199
    2440,   15436,   15467,   15260,   15229,   15435,   15466,   15261,   15230
    2441,   15467,   15275,   15068,   15260,   15466,   15274,   15069,   15261
    2442,   12226,   15311,   15106,   12232,   12227,   15310,   15107,   12231
    2443,   15311,   15342,   15137,   15106,   15310,   15341,   15138,   15107
    2444,   15342,   15373,   15168,   15137,   15341,   15372,   15169,   15138
    2445,   15373,   15404,   15199,   15168,   15372,   15403,   15200,   15169
    2446,   15404,   15435,   15230,   15199,   15403,   15434,   15231,   15200
    2447,   15435,   15466,   15261,   15230,   15434,   15465,   15262,   15231
    2448,   15466,   15274,   15069,   15261,   15465,   15273,   15070,   15262
    2449,   12227,   15310,   15107,   12231,   12228,   15309,   15108,   12230
    2450,   15310,   15341,   15138,   15107,   15309,   15340,   15139,   15108
    2451,   15341,   15372,   15169,   15138,   15340,   15371,   15170,   15139
    2452,   15372,   15403,   15200,   15169,   15371,   15402,   15201,   15170
    2453,   15403,   15434,   15231,   15200,   15402,   15433,   15232,   15201
    2454,   15434,   15465,   15262,   15231,   15433,   15464,   15263,   15232
    2455,   15465,   15273,   15070,   15262,   15464,   15272,   15071,   15263
    2456,   12228,   15309,   15108,   12230,   12195,   15265,   15039,   12196
    2457,   15309,   15340,   15139,   15108,   15265,   15266,   15038,   15039
    2458,   15340,   15371,   15170,   15139,   15266,   15267,   15037,   15038
    2459,   15371,   15402,   15201,   15170,   15267,   15268,   15036,   15037
    2460,   15402,   15433,   15232,   15201,   15268,   15269,   15035,   15036
    2461,   15433,   15464,   15263,   15232,   15269,   15270,   15034,   15035
    2462,   15464,   15272,   15071,   15263,   15270,   15264,   15033,   15034
********************************** N O D E S E T S **********************************
*NSET, NSET=z_symm
    4490,    4494,    4495,    4496,    4497,    4498,
    4534,    4535,    4536,    4537,    4538,    4539,
    4540,    4541,    4542,    4543,    4544,    4545,
    4546,    4547,    4548,    4549,    4550,    4619,
    4620,    4621,    4622,    4623,    4624,    4625,
    4626,    4627,    4628,    4629,    4630,    4631,
    4632,    4633,    4634,    4635,    4636,    4637,
    4638,    4639,    4640,    4641,    4642,    4643,
    4644,    4645,    4646,    4647,    4648,    4649,
    4650,    4651,    4652,    4653,    4654,    4655,
    4656,    4657,    4658,    4659,    4660,    4661,
    4662,    4663,    4664,    4665,    4666,    4667,
    4668,    4669,    4670,    4671,    4672,    4673,
    4674,    4675,    4676,    4677,    4678,    4679,
    4680,    4681,    4682,    4683,    4684,    4685,
    4686,    5004,    5008,    5009,    5010,    5011,
    5012,    5013,    5014,    5015,    5016,    5017,
    5048,    5049,    5050,    5051,    5052,    5063,
    5064,    5065,    5066,    5067,    5068,    5069,
    5070,    5071,    5072,    5073,    5074,    5075,
    5076,    5077,    5078,    5079,    5080,    5081,
    5082,    5083,    5084,    5085,    5086,    5087,
    5088,    5089,    5090,    5091,    5092,    5093,
    5094,    5095,    5096,    5097,    5098,    5099,
    5100,    5101,    5102,    5306,    5310,    5311,
    5312,    5313,    5326,    5327,    5328,    5329,
    5330,    5335,    5336,    5337,    5338,    5339,
    5340,    5341,    5342,    5343,    5344,    5345,
    5346,    5347,    5348,    5349,    5350,    5461,
    5465,    5466,    5467,    5468,    5469,    5470,
    5471,    5472,    5473,    5474,    5475,    5476,
    5477,    5478,    5479,    5480,    5481,    5482,
    5483,    5542,    5543,    5544,    5545,    5565,
    5566,    5567,    5568,    5569,    5570,    5571,
    5572,    5573,    5574,    5575,    5576,    5577,
    5578,    5579,    5580,    5581,    5582,    5583,
    5584,    5585,    5586,    5587,    5588,    5589,
    5590,    5591,    5592,    5593,    5594,    5595,
    5596,    5597,    5598,    5599,    5600,    5601,
    5602,    5603,    5604,    5605,    5606,    5607,
    5608,    5609,    5610,    5611,    5612,    5613,
    5614,    5615,    5616,    5617,    5618,    5619,
    5620,    5621,    5622,    5623,    5624,    5625,
    5626,    5627,    5628,    5629,    5630,    5631,
    5632,    5633,    5634,    5635,    5636,    5637,
    5638,    5639,    5640,   10638,   10639,   10640,
   10641,   10654,   10773,   10774,   10775,   10776,
   10777,   10778,   10779,   10780,   10781,   10782,
   10783,   10784,   10785,   10786,   10787,   10788,
   10789,   10790,   10791,   10792,   10793,   10794,
   10795,   10796,   10797,   10798,   10799,   10800,
   10801,   10802,   10803,   10804,   10805,   10806,
   10807,   10808,   10809,   10810,   10811,   10812,
   10813,   10814,   10815,   10816,   10817,   10818,
   10819,   10820,   10821,   10822,   10823,   10824,
   10825,   10826,   10827,   10828,   10829,   10830,
   10831,   10832,   10833,   10834,   10835,   10836,
   10837,   10838,   10839,   10840,   11122,   11123,
   11124,   11125,   11126,   11127,   11128,   11129,
   11130,   11131,   11132,   11133,   11134,   11135,
   11136,   11137,   11138,   11139,   11140,   11141,
   11142,   11143,   11144,   11145,   11146,   11147,
   11148,   11149,   11150,   11151,   11152,   11153,
   11154,   11155,   11156,   11157,   11158,   11159,
   11160,   11161,   11162,   11163,   11164,   11165,
   11333,   11334,   11335,   11336,   11337,   11338,
   11339,   11340,   11341,   11342,   11343,   11344,
   11345,   11346,   11347,   11348,   11349,   11350,
   11351,   11352,   11413,   11553,   11554,   11555,
   11556,   11557,   11558,   11559,   11560,   11561,
   11562,   11563,   11564,   11565,   11566,   11567,
   11568,   11569,   11570,   11571,   11572,   11573,
   11574,   11575,   11576,   11577,   11578,   11579,
   11580,   11581,   11582,   11583,   11584,   11585,
   11586,   11587,   11588,   11589,   11590,   11591,
   11592,   11593,   11594,   11595,   11596,   11597,
   11598,   11599,   11600,   11601,   11602,   11603,
   11604,   11605,   11606,   11607,   11608,   11609,
   11610,   11611,   11612,   11613,   11614,   11615,
   11616,   11617,   11618,   11619,   11620,   11621,
   11622,   11623,   11624,   11625,   11626,   11627,
   11628,   11629,   11630,   11631,   11632,   12297,
   12515,   15033,   15040,   15056,   15264,   15271,
   15287,
*NSET, NSET=anchor_left_loading
    4489,    4993,    4994,    4995,    4996,    4997,
    4998,    4999,    5000,    5001,    5002,    5003,
    5301,    5302,    5303,    5304,    5305,   10631,
   10632,   10633,   10634,   10635,   10636,   10637,
   11045,   11046,   11047,   11048,   11049,   11050,
   11051,   11052,   11053,   11054,   11055,   11056,
   11057,   11058,   11059,   11060,   11061,   11062,
   11063,   11064,   11065,   11066,   11067,   11068,
   11069,   11070,   11071,   11072,   11073,   11074,
   11075,   11076,   11077,   11078,   11079,   11080,
   11081,   11082,   11083,   11084,   11085,   11086,
   11087,   11088,   11089,   11090,   11091,   11092,
   11093,   11094,   11095,   11096,   11097,   11098,
   11099,   11100,   11101,   11102,   11103,   11104,
   11105,   11106,   11107,   11108,   11109,   11110,
   11111,   11112,   11113,   11114,   11115,   11116,
   11117,   11118,   11119,   11120,   11121,   11298,
   11299,   11300,   11301,   11302,   11303,   11304,
   11305,   11306,   11307,   11308,   11309,   11310,
   11311,   11312,   11313,   11314,   11315,   11316,
   11317,   11318,   11319,   11320,   11321,   11322,
   11323,   11324,   11325,   11326,   11327,   11328,
   11329,   11330,   11331,   11332,
*NSET, NSET=anchor_load_section
    4993,    5004,    5005,    5006,    5007,    5048,
    5049,    5050,    5051,    5052,    5103,    5104,
    5105,    5106,    5107,    5108,    5289,    5290,
    5291,    5292,    5293,    5294,    5295,    5296,
    5297,    5298,    5299,    5300,   11045,   11046,
   11047,   11048,   11049,   11050,   11051,   11122,
   11123,   11124,   11125,   11286,   11287,   11288,
   11289,   11290,   11291,   11292,   11293,   11294,
   11295,   11296,   11297,
********************************** S I D E S E T S **********************************
*ELSET, ELSET=mortar_to_concrete_S3
    2015,    2016,    2017,    2018,    2019,    2020,    2021,    2022,    2023,    2024,
    2025,    2026,    2027,    2028,    2029,    2030,    2031,    2032,    2033,    2034,
    2035,    2036,    2037,    2038,    2039,    2040,    2041,    2042,    2043,    2044,
    2045,    2046,    2047,    2048,    2049,    2050,    2051,    2052,    2053,    2054,
    2055,    2056,    2057,    2058,    2059,    2060,    2061,    2062,    2063,    2064,
    2065,    2066,    2067,    2068,    2069,    2070,    2071,    2072,    2073,    2074,
    2075,    2076,    2077,    2078,    2079,    2080,    2081,    2082,    2083,    2084,
    2085,    2086,    2087,    2088,    2089,    2090,    2091,    2092,    2093,    2094,
    2095,    2096,    2097,    2098,    2099,    2100,    2101,    2102,    2103,    2104,
    2105,    2106,    2107,    2108,    2109,    2110,    2111,    2112,    2113,    2114,
    2115,    2116,    2117,    2118,    2119,    2120,    2121,    2122,    2123,    2124,
    2125,    2126,    2127,    2128,    2129,    2130,    2131,    2132,    2133,    2134,
    2135,    2136,    2137,    2138,    2139,    2140,    2141,    2142,    2143,    2144,
    2145,    2146,    2147,    2148,    2149,    2150,    2151,    2152,    2153,    2154,
    2155,    2156,    2157,    2158,    2159,    2160,    2161,    2162,    2163,    2164,
    2165,    2166,    2167,    2168,    2169,    2170,    2171,    2172,    2173,    2174,
    2175,    2176,    2177,    2178,    2179,    2180,    2181,    2182,    2183,    2184,
    2185,    2186,    2187,    2188,    2189,    2190,    2191,    2192,    2193,    2194,
    2195,    2196,    2197,    2198,    2199,    2200,    2201,    2202,    2203,    2204,
    2205,    2206,    2207,    2208,    2209,    2210,    2211,    2212,    2213,    2214,
    2215,    2216,    2217,    2218,    2219,    2220,    2221,    2222,    2223,    2224,
    2225,    2226,    2227,    2228,    2229,    2230,    2231,    2232,    2233,    2234,
    2235,    2236,    2237,    2238,    2239,    2240,    2241,    2242,    2243,    2244,
    2245,    2246,    2247,    2248,    2249,    2250,    2251,    2252,    2253,    2254,
    2255,    2256,    2257,    2258,    2259,    2260,    2261,    2262,    2263,    2264,
    2265,    2266,    2267,    2268,    2269,    2270,    2271,    2272,    2273,    2274,
    2275,    2276,    2277,    2278,    2279,    2280,    2281,    2282,    2283,    2284,
    2285,    2286,    2287,    2288,    2289,    2290,    2291,    2292,    2293,    2294,
    2295,    2296,    2297,    2298,    2299,    2300,    2301,    2302,    2303,    2304,
    2305,    2306,    2307,    2308,    2309,    2310,    2311,    2312,    2313,    2314,
    2315,    2316,    2317,    2318,    2319,    2320,    2321,    2322,    2323,    2324,
    2325,    2326,    2327,    2328,    2329,    2330,    2331,    2332,    2333,    2334,
    2335,    2336,    2337,    2338,    2339,    2340,    2341,    2342,    2343,    2344,
    2345,    2346,    2347,    2348,    2349,    2350,    2351,    2352,    2353,    2354,
    2355,    2356,    2357,    2358,    2359,    2360,    2361,    2362,    2363,    2364,
    2365,    2366,    2367,    2368,    2369,    2370,    2371,    2372,    2373,    2374,
    2375,    2376,    2377,    2378,    2379,    2380,    2381,    2382,    2383,    2384,
    2385,    2386,    2387,    2388,    2389,    2390,    2391,    2392,    2393,    2394,
    2395,    2396,    2397,    2398,    2399,    2400,    2401,    2402,    2403,    2404,
    2405,    2406,    2407,    2408,    2409,    2410,    2411,    2412,    2413,    2414,
    2415,    2416,    2417,    2418,    2419,    2420,    2421,    2422,    2423,    2424,
    2425,    2426,    2427,    2428,    2429,    2430,    2431,    2432,    2433,    2434,
    2435,    2436,    2437,    2438,    2439,    2440,    2441,    2442,    2443,    2444,
    2445,    2446,    2447,    2448,    2449,    2450,    2451,    2452,    2453,    2454,
    2455,    2456,    2457,    2458,    2459,    2460,    2461,    2462
*SURFACE, NAME=mortar_to_concrete
mortar_to_concrete_S3, S3
*ELSET, ELSET=mortar_to_anchor_S5
    2015,    2016,    2017,    2018,    2019,    2020,    2021,    2022,    2023,    2024,
    2025,    2026,    2027,    2028,    2029,    2030,    2031,    2032,    2033,    2034,
    2035,    2036,    2037,    2038,    2039,    2040,    2041,    2042,    2043,    2044,
    2045,    2046,    2047,    2048,    2049,    2050,    2051,    2052,    2053,    2054,
    2055,    2056,    2057,    2058,    2059,    2060,    2061,    2062,    2063,    2064,
    2065,    2066,    2067,    2068,    2069,    2070,    2071,    2072,    2073,    2074,
    2075,    2076,    2077,    2078,    2079,    2080,    2081,    2082,    2083,    2084,
    2085,    2086,    2087,    2088,    2089,    2090,    2091,    2092,    2093,    2094,
    2095,    2096,    2097,    2098,    2099,    2100,    2101,    2102,    2103,    2104,
    2105,    2106,    2107,    2108,    2109,    2110,    2111,    2112,    2113,    2114,
    2115,    2116,    2117,    2118,    2119,    2120,    2121,    2122,    2123,    2124,
    2125,    2126,    2127,    2128,    2129,    2130,    2131,    2132,    2133,    2134,
    2135,    2136,    2137,    2138,    2139,    2140,    2141,    2142,    2143,    2144,
    2145,    2146,    2147,    2148,    2149,    2150,    2151,    2152,    2153,    2154,
    2155,    2156,    2157,    2158,    2159,    2160,    2161,    2162,    2163,    2164,
    2165,    2166,    2167,    2168,    2169,    2170,    2171,    2172,    2173,    2174,
    2175,    2176,    2177,    2178,    2179,    2180,    2181,    2182,    2183,    2184,
    2185,    2186,    2187,    2188,    2189,    2190,    2191,    2192,    2193,    2194,
    2195,    2196,    2197,    2198,    2199,    2200,    2201,    2202,    2203,    2204,
    2205,    2206,    2207,    2208,    2209,    2210,    2211,    2212,    2213,    2214,
    2215,    2216,    2217,    2218,    2219,    2220,    2221,    2222,    2223,    2224,
    2225,    2226,    2227,    2228,    2229,    2230,    2231,    2232,    2233,    2234,
    2235,    2236,    2237,    2238,    2239,    2240,    2241,    2242,    2243,    2244,
    2245,    2246,    2247,    2248,    2249,    2250,    2251,    2252,    2253,    2254,
    2255,    2256,    2257,    2258,    2259,    2260,    2261,    2262,    2263,    2264,
    2265,    2266,    2267,    2268,    2269,    2270,    2271,    2272,    2273,    2274,
    2275,    2276,    2277,    2278,    2279,    2280,    2281,    2282,    2283,    2284,
    2285,    2286,    2287,    2288,    2289,    2290,    2291,    2292,    2293,    2294,
    2295,    2296,    2297,    2298,    2299,    2300,    2301,    2302,    2303,    2304,
    2305,    2306,    2307,    2308,    2309,    2310,    2311,    2312,    2313,    2314,
    2315,    2316,    2317,    2318,    2319,    2320,    2321,    2322,    2323,    2324,
    2325,    2326,    2327,    2328,    2329,    2330,    2331,    2332,    2333,    2334,
    2335,    2336,    2337,    2338,    2339,    2340,    2341,    2342,    2343,    2344,
    2345,    2346,    2347,    2348,    2349,    2350,    2351,    2352,    2353,    2354,
    2355,    2356,    2357,    2358,    2359,    2360,    2361,    2362,    2363,    2364,
    2365,    2366,    2367,    2368,    2369,    2370,    2371,    2372,    2373,    2374,
    2375,    2376,    2377,    2378,    2379,    2380,    2381,    2382,    2383,    2384,
    2385,    2386,    2387,    2388,    2389,    2390,    2391,    2392,    2393,    2394,
    2395,    2396,    2397,    2398,    2399,    2400,    2401,    2402,    2403,    2404,
    2405,    2406,    2407,    2408,    2409,    2410,    2411,    2412,    2413,    2414,
    2415,    2416,    2417,    2418,    2419,    2420,    2421,    2422,    2423,    2424,
    2425,    2426,    2427,    2428,    2429,    2430,    2431,    2432,    2433,    2434,
    2435,    2436,    2437,    2438,    2439,    2440,    2441,    2442,    2443,    2444,
    2445,    2446,    2447,    2448,    2449,    2450,    2451,    2452,    2453,    2454,
    2455,    2456,    2457,    2458,    2459,    2460,    2461,    2462
*SURFACE, NAME=mortar_to_anchor
mortar_to_anchor_S5, S5
*ELSET, ELSET=anchor_to_mortar_S3
      16,      17,      18,      19,      35,      36,      37,      38,      54,      55,
      56,      57,      73,      74,      75,      76,      92,      93,      94,      95,
     111,     112,     113,     114,     130,     131,     132,     133,     149,     150,
     151,     152,     168,     169,     170,     171,     187,     188,     189,     190,
     206,     207,     208,     209,     225,     226,     227,     228,     244,     245,
     246,     247,     263,     264,     265,     266,     282,     283,     284,     285,
     301,     302,     303,     304,     320,     321,     322,     323,     339,     340,
     341,     342,     358,     359,     360,     361,     377,     378,     379,     380,
    1008,    1009,    1010,    1027,    1028,    1029,    1046,    1047,    1048,    1065,
    1066,    1067,    1084,    1085,    1086,    1103,    1104,    1105,    1122,    1123,
    1124,    1141,    1142,    1143,    1160,    1161,    1162,    1179,    1180,    1181,
    1198,    1199,    1200,    1217,    1218,    1219,    1236,    1237,    1238,    1255,
    1256,    1257,    1274,    1275,    1276,    1293,    1294,    1295,    1312,    1313,
    1314,    1331,    1332,    1333,    1350,    1351,    1352,    1369,    1370,    1371
*ELSET, ELSET=anchor_to_mortar_S4
       1,       2,       3,      20,      21,      22,      39,      40,      41,      58,
      59,      60,      77,      78,      79,      96,      97,      98,     115,     116,
     117,     134,     135,     136,     153,     154,     155,     172,     173,     174,
     191,     192,     193,     210,     211,     212,     229,     230,     231,     248,
     249,     250,     267,     268,     269,     286,     287,     288,     305,     306,
     307,     324,     325,     326,     343,     344,     345,     362,     363,     364,
    1011,    1012,    1013,    1014,    1030,    1031,    1032,    1033,    1049,    1050,
    1051,    1052,    1068,    1069,    1070,    1071,    1087,    1088,    1089,    1090,
    1106,    1107,    1108,    1109,    1125,    1126,    1127,    1128,    1144,    1145,
    1146,    1147,    1163,    1164,    1165,    1166,    1182,    1183,    1184,    1185,
    1201,    1202,    1203,    1204,    1220,    1221,    1222,    1223,    1239,    1240,
    1241,    1242,    1258,    1259,    1260,    1261,    1277,    1278,    1279,    1280,
    1296,    1297,    1298,    1299,    1315,    1316,    1317,    1318,    1334,    1335,
    1336,    1337,    1353,    1354,    1355,    1356,    1372,    1373,    1374,    1375
*SURFACE, NAME=anchor_to_mortar
anchor_to_mortar_S3, S3
anchor_to_mortar_S4, S4
