********************************** N O D E S **********************************
*NODE, NSET=ALLNODES
    4313,    0.000000e+00,    1.600000e+01,   -8.000000e+00
    4314,    0.000000e+00,    1.600000e+01,    0.000000e+00
    4315,    0.000000e+00,    1.600000e+01,   -4.000000e+00
    4316,    8.000000e+00,    1.600000e+01,   -2.020667e-15
    4317,    5.333333e+00,    1.600000e+01,    0.000000e+00
    4318,    2.666667e+00,    1.600000e+01,    0.000000e+00
    4319,    6.928203e+00,    1.600000e+01,   -4.000000e+00
    4320,    4.000000e+00,    1.600000e+01,   -6.928203e+00
    4321,    5.026854e+00,    1.600000e+01,   -2.413361e+00
    4322,    2.829203e+00,    1.600000e+01,   -3.243589e+00
    4323,    0.000000e+00,    5.333333e+00,   -8.000000e+00
    4324,    0.000000e+00,    1.244444e+01,   -8.000000e+00
    4325,    0.000000e+00,    8.888889e+00,   -8.000000e+00
    4326,    8.000000e+00,    5.333333e+00,    0.000000e+00
    4327,    6.928203e+00,    5.333333e+00,   -4.000000e+00
    4328,    4.000000e+00,    5.333333e+00,   -6.928203e+00
    4329,    8.000000e+00,    1.244444e+01,   -2.721437e-16
    4330,    8.000000e+00,    8.888889e+00,   -5.442875e-17
    4331,    4.000000e+00,    1.244444e+01,   -6.928203e+00
    4332,    4.000000e+00,    8.888889e+00,   -6.928203e+00
    4333,    6.928203e+00,    1.244444e+01,   -4.000000e+00
    4334,    6.928203e+00,    8.888889e+00,   -4.000000e+00
    4335,    0.000000e+00,    0.000000e+00,   -8.000000e+00
    4336,    8.000000e+00,    0.000000e+00,    4.898587e-16
    4337,    6.928203e+00,    0.000000e+00,   -4.000000e+00
    4338,    4.000000e+00,    0.000000e+00,   -6.928203e+00
    4339,    0.000000e+00,   -5.000000e+01,    0.000000e+00
    4340,    0.000000e+00,    1.211765e+01,    0.000000e+00
    4341,    0.000000e+00,    8.235294e+00,    0.000000e+00
    4342,    0.000000e+00,    4.352941e+00,    0.000000e+00
    4343,    0.000000e+00,    4.705882e-01,    0.000000e+00
    4344,    0.000000e+00,   -3.411765e+00,    0.000000e+00
    4345,    0.000000e+00,   -7.294118e+00,    0.000000e+00
    4346,    0.000000e+00,   -1.117647e+01,    0.000000e+00
    4347,    0.000000e+00,   -1.505882e+01,    0.000000e+00
    4348,    0.000000e+00,   -1.894118e+01,    0.000000e+00
    4349,    0.000000e+00,   -2.282353e+01,    0.000000e+00
    4350,    0.000000e+00,   -2.670588e+01,    0.000000e+00
    4351,    0.000000e+00,   -3.058824e+01,    0.000000e+00
    4352,    0.000000e+00,   -3.447059e+01,    0.000000e+00
    4353,    0.000000e+00,   -3.835294e+01,    0.000000e+00
    4354,    0.000000e+00,   -4.223529e+01,    0.000000e+00
    4355,    0.000000e+00,   -4.611765e+01,    0.000000e+00
    4356,    0.000000e+00,   -5.000000e+01,   -8.000000e+00
    4357,    0.000000e+00,   -4.615385e+01,   -8.000000e+00
    4358,    0.000000e+00,   -4.230769e+01,   -8.000000e+00
    4359,    0.000000e+00,   -3.846154e+01,   -8.000000e+00
    4360,    0.000000e+00,   -3.461538e+01,   -8.000000e+00
    4361,    0.000000e+00,   -3.076923e+01,   -8.000000e+00
    4362,    0.000000e+00,   -2.692308e+01,   -8.000000e+00
    4363,    0.000000e+00,   -2.307692e+01,   -8.000000e+00
    4364,    0.000000e+00,   -1.923077e+01,   -8.000000e+00
    4365,    0.000000e+00,   -1.538462e+01,   -8.000000e+00
    4366,    0.000000e+00,   -1.153846e+01,   -8.000000e+00
    4367,    0.000000e+00,   -7.692308e+00,   -8.000000e+00
    4368,    0.000000e+00,   -3.846154e+00,   -8.000000e+00
    4369,    0.000000e+00,   -5.000000e+01,   -4.000000e+00
    4370,    0.000000e+00,   -4.613575e+01,   -4.000000e+00
    4371,    0.000000e+00,   -4.227149e+01,   -4.000000e+00
    4372,    0.000000e+00,   -3.840724e+01,   -4.000000e+00
    4373,    0.000000e+00,   -3.454299e+01,   -4.000000e+00
    4374,    0.000000e+00,   -3.067873e+01,   -4.000000e+00
    4375,    0.000000e+00,   -2.681448e+01,   -4.000000e+00
    4376,    0.000000e+00,   -2.295023e+01,   -4.000000e+00
    4377,    0.000000e+00,   -1.908597e+01,   -4.000000e+00
    4378,    0.000000e+00,   -1.522172e+01,   -4.000000e+00
    4379,    0.000000e+00,   -1.135747e+01,   -4.000000e+00
    4380,    0.000000e+00,   -7.493213e+00,   -4.000000e+00
    4381,    0.000000e+00,   -3.628959e+00,   -4.000000e+00
    4382,    0.000000e+00,    2.352941e-01,   -4.000000e+00
    4383,    0.000000e+00,    4.843137e+00,   -4.000000e+00
    4384,    0.000000e+00,    8.562092e+00,   -4.000000e+00
    4385,    0.000000e+00,    1.228105e+01,   -4.000000e+00
    4386,    8.000000e+00,   -5.000000e+01,    2.020667e-15
    4387,    8.000000e+00,   -4.615385e+01,    1.785158e-15
    4388,    8.000000e+00,   -4.230769e+01,    1.549649e-15
    4389,    8.000000e+00,   -3.846154e+01,    1.314140e-15
    4390,    8.000000e+00,   -3.461538e+01,    1.078631e-15
    4391,    8.000000e+00,   -3.076923e+01,    8.431222e-16
    4392,    8.000000e+00,   -2.692308e+01,    6.076132e-16
    4393,    8.000000e+00,   -2.307692e+01,    3.721042e-16
    4394,    8.000000e+00,   -1.923077e+01,    1.365952e-16
    4395,    8.000000e+00,   -1.538462e+01,   -9.891378e-17
    4396,    8.000000e+00,   -1.153846e+01,   -3.344228e-16
    4397,    8.000000e+00,   -7.692308e+00,   -5.699318e-16
    4398,    8.000000e+00,   -3.846154e+00,   -8.054408e-16
    4399,    4.000000e+00,   -5.000000e+01,   -6.928203e+00
    4400,    6.928203e+00,   -5.000000e+01,   -4.000000e+00
    4401,    4.000000e+00,   -3.846154e+00,   -6.928203e+00
    4402,    6.928203e+00,   -3.846154e+00,   -4.000000e+00
    4403,    4.000000e+00,   -7.692308e+00,   -6.928203e+00
    4404,    6.928203e+00,   -7.692308e+00,   -4.000000e+00
    4405,    4.000000e+00,   -1.153846e+01,   -6.928203e+00
    4406,    6.928203e+00,   -1.153846e+01,   -4.000000e+00
    4407,    4.000000e+00,   -1.538462e+01,   -6.928203e+00
    4408,    6.928203e+00,   -1.538462e+01,   -4.000000e+00
    4409,    4.000000e+00,   -1.923077e+01,   -6.928203e+00
    4410,    6.928203e+00,   -1.923077e+01,   -4.000000e+00
    4411,    4.000000e+00,   -2.307692e+01,   -6.928203e+00
    4412,    6.928203e+00,   -2.307692e+01,   -4.000000e+00
    4413,    4.000000e+00,   -2.692308e+01,   -6.928203e+00
    4414,    6.928203e+00,   -2.692308e+01,   -4.000000e+00
    4415,    4.000000e+00,   -3.076923e+01,   -6.928203e+00
    4416,    6.928203e+00,   -3.076923e+01,   -4.000000e+00
    4417,    4.000000e+00,   -3.461538e+01,   -6.928203e+00
    4418,    6.928203e+00,   -3.461538e+01,   -4.000000e+00
    4419,    4.000000e+00,   -3.846154e+01,   -6.928203e+00
    4420,    6.928203e+00,   -3.846154e+01,   -4.000000e+00
    4421,    4.000000e+00,   -4.230769e+01,   -6.928203e+00
    4422,    6.928203e+00,   -4.230769e+01,   -4.000000e+00
    4423,    4.000000e+00,   -4.615385e+01,   -6.928203e+00
    4424,    6.928203e+00,   -4.615385e+01,   -4.000000e+00
    4425,    2.666667e+00,   -5.000000e+01,    0.000000e+00
    4426,    5.333333e+00,   -5.000000e+01,    0.000000e+00
    4427,    2.666667e+00,    1.222658e+01,    0.000000e+00
    4428,    2.666667e+00,    8.453159e+00,    0.000000e+00
    4429,    2.666667e+00,    4.679739e+00,    0.000000e+00
    4430,    2.666667e+00,    3.137255e-01,    0.000000e+00
    4431,    2.666667e+00,   -3.556561e+00,    0.000000e+00
    4432,    2.666667e+00,   -7.426848e+00,    0.000000e+00
    4433,    2.666667e+00,   -1.129713e+01,    0.000000e+00
    4434,    2.666667e+00,   -1.516742e+01,    0.000000e+00
    4435,    2.666667e+00,   -1.903771e+01,    0.000000e+00
    4436,    2.666667e+00,   -2.290799e+01,    0.000000e+00
    4437,    2.666667e+00,   -2.677828e+01,    0.000000e+00
    4438,    2.666667e+00,   -3.064857e+01,    0.000000e+00
    4439,    2.666667e+00,   -3.451885e+01,    0.000000e+00
    4440,    2.666667e+00,   -3.838914e+01,    0.000000e+00
    4441,    2.666667e+00,   -4.225943e+01,    0.000000e+00
    4442,    2.666667e+00,   -4.612971e+01,    0.000000e+00
    4443,    5.333333e+00,    1.233551e+01,    0.000000e+00
    4444,    5.333333e+00,    8.671024e+00,    0.000000e+00
    4445,    5.333333e+00,    5.006536e+00,    0.000000e+00
    4446,    5.333333e+00,    1.568627e-01,    0.000000e+00
    4447,    5.333333e+00,   -3.701357e+00,    0.000000e+00
    4448,    5.333333e+00,   -7.559578e+00,    0.000000e+00
    4449,    5.333333e+00,   -1.141780e+01,    0.000000e+00
    4450,    5.333333e+00,   -1.527602e+01,    0.000000e+00
    4451,    5.333333e+00,   -1.913424e+01,    0.000000e+00
    4452,    5.333333e+00,   -2.299246e+01,    0.000000e+00
    4453,    5.333333e+00,   -2.685068e+01,    0.000000e+00
    4454,    5.333333e+00,   -3.070890e+01,    0.000000e+00
    4455,    5.333333e+00,   -3.456712e+01,    0.000000e+00
    4456,    5.333333e+00,   -3.842534e+01,    0.000000e+00
    4457,    5.333333e+00,   -4.228356e+01,    0.000000e+00
    4458,    5.333333e+00,   -4.614178e+01,    0.000000e+00
    4459,    2.829203e+00,    1.233717e+01,   -3.243589e+00
    4460,    5.026854e+00,    1.237978e+01,   -2.413361e+00
    4461,    2.829203e+00,    8.663715e+00,   -3.243589e+00
    4462,    5.026854e+00,    8.750145e+00,   -2.413361e+00
    4463,    2.829203e+00,    4.995572e+00,   -3.243589e+00
    4464,    5.026854e+00,    5.125218e+00,   -2.413361e+00
    4465,    2.829203e+00,    1.621253e-01,   -3.243589e+00
    4466,    5.026854e+00,    9.989524e-02,   -2.413361e+00
    4467,    2.829203e+00,   -3.703567e+00,   -3.243589e+00
    4468,    5.026854e+00,   -3.760201e+00,   -2.413361e+00
    4469,    2.829203e+00,   -7.561603e+00,   -3.243589e+00
    4470,    5.026854e+00,   -7.613518e+00,   -2.413361e+00
    4471,    2.829203e+00,   -1.141964e+01,   -3.243589e+00
    4472,    5.026854e+00,   -1.146683e+01,   -2.413361e+00
    4473,    2.829203e+00,   -1.527768e+01,   -3.243589e+00
    4474,    5.026854e+00,   -1.532015e+01,   -2.413361e+00
    4475,    2.829203e+00,   -1.913571e+01,   -3.243589e+00
    4476,    5.026854e+00,   -1.917347e+01,   -2.413361e+00
    4477,    2.829203e+00,   -2.299375e+01,   -3.243589e+00
    4478,    5.026854e+00,   -2.302678e+01,   -2.413361e+00
    4479,    2.829203e+00,   -2.685178e+01,   -3.243589e+00
    4480,    5.026854e+00,   -2.688010e+01,   -2.413361e+00
    4481,    2.829203e+00,   -3.070982e+01,   -3.243589e+00
    4482,    5.026854e+00,   -3.073342e+01,   -2.413361e+00
    4483,    2.829203e+00,   -3.456786e+01,   -3.243589e+00
    4484,    5.026854e+00,   -3.458673e+01,   -2.413361e+00
    4485,    2.829203e+00,   -3.842589e+01,   -3.243589e+00
    4486,    5.026854e+00,   -3.844005e+01,   -2.413361e+00
    4487,    2.829203e+00,   -4.228393e+01,   -3.243589e+00
    4488,    5.026854e+00,   -4.229337e+01,   -2.413361e+00
    4489,    2.829203e+00,   -4.614196e+01,   -3.243589e+00
    4490,    5.026854e+00,   -4.614668e+01,   -2.413361e+00
    4491,    2.829203e+00,   -5.000000e+01,   -3.243589e+00
    4492,    5.026854e+00,   -5.000000e+01,   -2.413361e+00
    4493,    0.000000e+00,    5.333333e+00,   -3.200000e+01
    4494,    0.000000e+00,    5.333333e+00,   -2.800000e+01
    4495,    0.000000e+00,    5.333333e+00,   -2.400000e+01
    4496,    0.000000e+00,    5.333333e+00,   -2.000000e+01
    4497,    0.000000e+00,    5.333333e+00,   -1.600000e+01
    4498,    0.000000e+00,    5.333333e+00,   -1.200000e+01
    4499,    3.200000e+01,    5.333333e+00,    0.000000e+00
    4500,    2.800000e+01,    5.333333e+00,    0.000000e+00
    4501,    2.400000e+01,    5.333333e+00,    0.000000e+00
    4502,    2.000000e+01,    5.333333e+00,    0.000000e+00
    4503,    1.600000e+01,    5.333333e+00,    0.000000e+00
    4504,    1.200000e+01,    5.333333e+00,    0.000000e+00
    4505,    3.200000e+01,    5.333333e+00,   -3.200000e+01
    4506,    3.200000e+01,    5.333333e+00,   -2.844444e+01
    4507,    3.200000e+01,    5.333333e+00,   -2.488889e+01
    4508,    3.200000e+01,    5.333333e+00,   -2.133333e+01
    4509,    3.200000e+01,    5.333333e+00,   -1.777778e+01
    4510,    3.200000e+01,    5.333333e+00,   -1.422222e+01
    4511,    3.200000e+01,    5.333333e+00,   -1.066667e+01
    4512,    3.200000e+01,    5.333333e+00,   -7.111111e+00
    4513,    3.200000e+01,    5.333333e+00,   -3.555556e+00
    4514,    4.000000e+00,    5.333333e+00,   -3.200000e+01
    4515,    8.000000e+00,    5.333333e+00,   -3.200000e+01
    4516,    1.200000e+01,    5.333333e+00,   -3.200000e+01
    4517,    1.600000e+01,    5.333333e+00,   -3.200000e+01
    4518,    2.000000e+01,    5.333333e+00,   -3.200000e+01
    4519,    2.400000e+01,    5.333333e+00,   -3.200000e+01
    4520,    2.800000e+01,    5.333333e+00,   -3.200000e+01
    4521,    2.812003e+01,    5.333333e+00,   -3.414845e+00
    4522,    2.797864e+01,    5.333333e+00,   -6.754863e+00
    4523,    2.762910e+01,    5.333333e+00,   -1.020751e+01
    4524,    2.731317e+01,    5.333333e+00,   -1.384184e+01
    4525,    2.762424e+01,    5.333333e+00,   -1.759450e+01
    4526,    2.791641e+01,    5.333333e+00,   -2.121915e+01
    4527,    2.802649e+01,    5.333333e+00,   -2.481971e+01
    4528,    2.803102e+01,    5.333333e+00,   -2.841462e+01
    4529,    4.074691e+00,    5.333333e+00,   -2.807655e+01
    4530,    4.204790e+00,    5.333333e+00,   -2.411931e+01
    4531,    4.494764e+00,    5.333333e+00,   -2.007880e+01
    4532,    5.258743e+00,    5.333333e+00,   -1.591285e+01
    4533,    6.604932e+00,    5.333333e+00,   -1.086153e+01
    4534,    1.187342e+01,    5.333333e+00,   -5.738712e+00
    4535,    1.720166e+01,    5.333333e+00,   -4.149378e+00
    4536,    2.083400e+01,    5.333333e+00,   -3.187386e+00
    4537,    2.430850e+01,    5.333333e+00,   -3.213687e+00
    4538,    2.406667e+01,    5.333333e+00,   -2.843076e+01
    4539,    2.008566e+01,    5.333333e+00,   -2.850775e+01
    4540,    1.610483e+01,    5.333333e+00,   -2.851623e+01
    4541,    1.212834e+01,    5.333333e+00,   -2.838958e+01
    4542,    8.124210e+00,    5.333333e+00,   -2.821898e+01
    4543,    2.425294e+01,    5.333333e+00,   -6.270300e+00
    4544,    2.318170e+01,    5.333333e+00,   -9.374250e+00
    4545,    2.130020e+01,    5.333333e+00,   -1.325280e+01
    4546,    2.296177e+01,    5.333333e+00,   -1.759617e+01
    4547,    2.367202e+01,    5.333333e+00,   -2.133115e+01
    4548,    2.400709e+01,    5.333333e+00,   -2.490508e+01
    4549,    1.998169e+01,    5.333333e+00,   -2.506174e+01
    4550,    1.615924e+01,    5.333333e+00,   -2.512063e+01
    4551,    1.232558e+01,    5.333333e+00,   -2.481764e+01
    4552,    8.342438e+00,    5.333333e+00,   -2.443121e+01
    4553,    8.974009e+00,    5.333333e+00,   -2.067915e+01
    4554,    1.010391e+01,    5.333333e+00,   -1.687424e+01
    4555,    1.250144e+01,    5.333333e+00,   -1.314404e+01
    4556,    1.629642e+01,    5.333333e+00,   -9.961566e+00
    4557,    2.157232e+01,    5.333333e+00,   -5.658829e+00
    4558,    1.957326e+01,    5.333333e+00,   -7.453734e+00
    4559,    1.969011e+01,    5.333333e+00,   -2.169171e+01
    4560,    1.291311e+01,    5.333333e+00,   -2.142747e+01
    4561,    1.397717e+01,    5.333333e+00,   -1.825778e+01
    4562,    1.660092e+01,    5.333333e+00,   -1.559855e+01
    4563,    1.892839e+01,    5.333333e+00,   -1.842924e+01
    4564,    1.622813e+01,    5.333333e+00,   -2.198711e+01
    4565,    1.637790e+01,    5.333333e+00,   -1.955804e+01
    4566,    0.000000e+00,    1.600000e+01,   -3.200000e+01
    4567,    0.000000e+00,    1.600000e+01,   -2.800000e+01
    4568,    0.000000e+00,    1.600000e+01,   -2.400000e+01
    4569,    0.000000e+00,    1.600000e+01,   -2.000000e+01
    4570,    0.000000e+00,    1.600000e+01,   -1.600000e+01
    4571,    0.000000e+00,    1.600000e+01,   -1.200000e+01
    4572,    0.000000e+00,    8.888889e+00,   -3.200000e+01
    4573,    0.000000e+00,    1.244444e+01,   -3.200000e+01
    4574,    0.000000e+00,    8.888889e+00,   -1.200000e+01
    4575,    0.000000e+00,    1.244444e+01,   -1.200000e+01
    4576,    0.000000e+00,    8.888889e+00,   -1.600000e+01
    4577,    0.000000e+00,    1.244444e+01,   -1.600000e+01
    4578,    0.000000e+00,    8.888889e+00,   -2.000000e+01
    4579,    0.000000e+00,    1.244444e+01,   -2.000000e+01
    4580,    0.000000e+00,    8.888889e+00,   -2.400000e+01
    4581,    0.000000e+00,    1.244444e+01,   -2.400000e+01
    4582,    0.000000e+00,    8.888889e+00,   -2.800000e+01
    4583,    0.000000e+00,    1.244444e+01,   -2.800000e+01
    4584,    3.200000e+01,    1.600000e+01,   -3.200000e+01
    4585,    4.000000e+00,    1.600000e+01,   -3.200000e+01
    4586,    8.000000e+00,    1.600000e+01,   -3.200000e+01
    4587,    1.200000e+01,    1.600000e+01,   -3.200000e+01
    4588,    1.600000e+01,    1.600000e+01,   -3.200000e+01
    4589,    2.000000e+01,    1.600000e+01,   -3.200000e+01
    4590,    2.400000e+01,    1.600000e+01,   -3.200000e+01
    4591,    2.800000e+01,    1.600000e+01,   -3.200000e+01
    4592,    3.200000e+01,    1.244444e+01,   -3.200000e+01
    4593,    3.200000e+01,    8.888889e+00,   -3.200000e+01
    4594,    4.000000e+00,    8.888889e+00,   -3.200000e+01
    4595,    4.000000e+00,    1.244444e+01,   -3.200000e+01
    4596,    8.000000e+00,    8.888889e+00,   -3.200000e+01
    4597,    8.000000e+00,    1.244444e+01,   -3.200000e+01
    4598,    1.200000e+01,    8.888889e+00,   -3.200000e+01
    4599,    1.200000e+01,    1.244444e+01,   -3.200000e+01
    4600,    1.600000e+01,    8.888889e+00,   -3.200000e+01
    4601,    1.600000e+01,    1.244444e+01,   -3.200000e+01
    4602,    2.000000e+01,    8.888889e+00,   -3.200000e+01
    4603,    2.000000e+01,    1.244444e+01,   -3.200000e+01
    4604,    2.400000e+01,    8.888889e+00,   -3.200000e+01
    4605,    2.400000e+01,    1.244444e+01,   -3.200000e+01
    4606,    2.800000e+01,    8.888889e+00,   -3.200000e+01
    4607,    2.800000e+01,    1.244444e+01,   -3.200000e+01
    4608,    3.200000e+01,    1.600000e+01,    0.000000e+00
    4609,    3.200000e+01,    8.888889e+00,    0.000000e+00
    4610,    3.200000e+01,    1.244444e+01,    0.000000e+00
    4611,    2.800000e+01,    1.600000e+01,    0.000000e+00
    4612,    2.400000e+01,    1.600000e+01,    0.000000e+00
    4613,    2.000000e+01,    1.600000e+01,    0.000000e+00
    4614,    1.600000e+01,    1.600000e+01,    0.000000e+00
    4615,    1.200000e+01,    1.600000e+01,    0.000000e+00
    4616,    1.200000e+01,    8.888889e+00,    0.000000e+00
    4617,    1.600000e+01,    8.888889e+00,    0.000000e+00
    4618,    2.000000e+01,    8.888889e+00,    0.000000e+00
    4619,    2.400000e+01,    8.888889e+00,    0.000000e+00
    4620,    2.800000e+01,    8.888889e+00,    0.000000e+00
    4621,    1.200000e+01,    1.244444e+01,    0.000000e+00
    4622,    1.600000e+01,    1.244444e+01,    0.000000e+00
    4623,    2.000000e+01,    1.244444e+01,    0.000000e+00
    4624,    2.400000e+01,    1.244444e+01,    0.000000e+00
    4625,    2.800000e+01,    1.244444e+01,    0.000000e+00
    4626,    3.200000e+01,    1.600000e+01,   -3.555556e+00
    4627,    3.200000e+01,    1.600000e+01,   -7.111111e+00
    4628,    3.200000e+01,    1.600000e+01,   -1.066667e+01
    4629,    3.200000e+01,    1.600000e+01,   -1.422222e+01
    4630,    3.200000e+01,    1.600000e+01,   -1.777778e+01
    4631,    3.200000e+01,    1.600000e+01,   -2.133333e+01
    4632,    3.200000e+01,    1.600000e+01,   -2.488889e+01
    4633,    3.200000e+01,    1.600000e+01,   -2.844444e+01
    4634,    3.200000e+01,    1.244444e+01,   -3.555556e+00
    4635,    3.200000e+01,    8.888889e+00,   -3.555556e+00
    4636,    3.200000e+01,    1.244444e+01,   -7.111111e+00
    4637,    3.200000e+01,    8.888889e+00,   -7.111111e+00
    4638,    3.200000e+01,    1.244444e+01,   -1.066667e+01
    4639,    3.200000e+01,    8.888889e+00,   -1.066667e+01
    4640,    3.200000e+01,    1.244444e+01,   -1.422222e+01
    4641,    3.200000e+01,    8.888889e+00,   -1.422222e+01
    4642,    3.200000e+01,    1.244444e+01,   -1.777778e+01
    4643,    3.200000e+01,    8.888889e+00,   -1.777778e+01
    4644,    3.200000e+01,    1.244444e+01,   -2.133333e+01
    4645,    3.200000e+01,    8.888889e+00,   -2.133333e+01
    4646,    3.200000e+01,    1.244444e+01,   -2.488889e+01
    4647,    3.200000e+01,    8.888889e+00,   -2.488889e+01
    4648,    3.200000e+01,    1.244444e+01,   -2.844444e+01
    4649,    3.200000e+01,    8.888889e+00,   -2.844444e+01
    4650,    2.812003e+01,    8.888889e+00,   -3.414845e+00
    4651,    2.797864e+01,    8.888889e+00,   -6.754863e+00
    4652,    2.762910e+01,    8.888889e+00,   -1.020751e+01
    4653,    2.731317e+01,    8.888889e+00,   -1.384184e+01
    4654,    2.762424e+01,    8.888889e+00,   -1.759450e+01
    4655,    2.791641e+01,    8.888889e+00,   -2.121915e+01
    4656,    2.802649e+01,    8.888889e+00,   -2.481971e+01
    4657,    2.803102e+01,    8.888889e+00,   -2.841462e+01
    4658,    4.074691e+00,    8.888889e+00,   -2.807655e+01
    4659,    4.204790e+00,    8.888889e+00,   -2.411931e+01
    4660,    4.494764e+00,    8.888889e+00,   -2.007880e+01
    4661,    5.258743e+00,    8.888889e+00,   -1.591285e+01
    4662,    6.604932e+00,    8.888889e+00,   -1.086153e+01
    4663,    1.187342e+01,    8.888889e+00,   -5.738712e+00
    4664,    1.720166e+01,    8.888889e+00,   -4.149378e+00
    4665,    2.083400e+01,    8.888889e+00,   -3.187386e+00
    4666,    2.430850e+01,    8.888889e+00,   -3.213687e+00
    4667,    2.406667e+01,    8.888889e+00,   -2.843076e+01
    4668,    2.008566e+01,    8.888889e+00,   -2.850775e+01
    4669,    1.610483e+01,    8.888889e+00,   -2.851623e+01
    4670,    1.212834e+01,    8.888889e+00,   -2.838958e+01
    4671,    8.124210e+00,    8.888889e+00,   -2.821898e+01
    4672,    2.425294e+01,    8.888889e+00,   -6.270300e+00
    4673,    2.318170e+01,    8.888889e+00,   -9.374250e+00
    4674,    2.130020e+01,    8.888889e+00,   -1.325280e+01
    4675,    2.296177e+01,    8.888889e+00,   -1.759617e+01
    4676,    2.367202e+01,    8.888889e+00,   -2.133115e+01
    4677,    2.400709e+01,    8.888889e+00,   -2.490508e+01
    4678,    1.998169e+01,    8.888889e+00,   -2.506174e+01
    4679,    1.615924e+01,    8.888889e+00,   -2.512063e+01
    4680,    1.232558e+01,    8.888889e+00,   -2.481764e+01
    4681,    8.342438e+00,    8.888889e+00,   -2.443121e+01
    4682,    8.974009e+00,    8.888889e+00,   -2.067915e+01
    4683,    1.010391e+01,    8.888889e+00,   -1.687424e+01
    4684,    1.250144e+01,    8.888889e+00,   -1.314404e+01
    4685,    1.629642e+01,    8.888889e+00,   -9.961566e+00
    4686,    1.957326e+01,    8.888889e+00,   -7.453734e+00
    4687,    2.157232e+01,    8.888889e+00,   -5.658829e+00
    4688,    1.892839e+01,    8.888889e+00,   -1.842924e+01
    4689,    1.969011e+01,    8.888889e+00,   -2.169171e+01
    4690,    1.291311e+01,    8.888889e+00,   -2.142747e+01
    4691,    1.397717e+01,    8.888889e+00,   -1.825778e+01
    4692,    1.660092e+01,    8.888889e+00,   -1.559855e+01
    4693,    1.622813e+01,    8.888889e+00,   -2.198711e+01
    4694,    1.637790e+01,    8.888889e+00,   -1.955804e+01
    4695,    2.812003e+01,    1.244444e+01,   -3.414845e+00
    4696,    2.797864e+01,    1.244444e+01,   -6.754863e+00
    4697,    2.762910e+01,    1.244444e+01,   -1.020751e+01
    4698,    2.731317e+01,    1.244444e+01,   -1.384184e+01
    4699,    2.762424e+01,    1.244444e+01,   -1.759450e+01
    4700,    2.791641e+01,    1.244444e+01,   -2.121915e+01
    4701,    2.802649e+01,    1.244444e+01,   -2.481971e+01
    4702,    2.803102e+01,    1.244444e+01,   -2.841462e+01
    4703,    4.074691e+00,    1.244444e+01,   -2.807655e+01
    4704,    4.204790e+00,    1.244444e+01,   -2.411931e+01
    4705,    4.494764e+00,    1.244444e+01,   -2.007880e+01
    4706,    5.258743e+00,    1.244444e+01,   -1.591285e+01
    4707,    6.604932e+00,    1.244444e+01,   -1.086153e+01
    4708,    1.187342e+01,    1.244444e+01,   -5.738712e+00
    4709,    1.720166e+01,    1.244444e+01,   -4.149378e+00
    4710,    2.083400e+01,    1.244444e+01,   -3.187386e+00
    4711,    2.430850e+01,    1.244444e+01,   -3.213687e+00
    4712,    2.406667e+01,    1.244444e+01,   -2.843076e+01
    4713,    2.008566e+01,    1.244444e+01,   -2.850775e+01
    4714,    1.610483e+01,    1.244444e+01,   -2.851623e+01
    4715,    1.212834e+01,    1.244444e+01,   -2.838958e+01
    4716,    8.124210e+00,    1.244444e+01,   -2.821898e+01
    4717,    2.425294e+01,    1.244444e+01,   -6.270300e+00
    4718,    2.318170e+01,    1.244444e+01,   -9.374250e+00
    4719,    2.130020e+01,    1.244444e+01,   -1.325280e+01
    4720,    2.296177e+01,    1.244444e+01,   -1.759617e+01
    4721,    2.367202e+01,    1.244444e+01,   -2.133115e+01
    4722,    2.400709e+01,    1.244444e+01,   -2.490508e+01
    4723,    1.998169e+01,    1.244444e+01,   -2.506174e+01
    4724,    1.615924e+01,    1.244444e+01,   -2.512063e+01
    4725,    1.232558e+01,    1.244444e+01,   -2.481764e+01
    4726,    8.342438e+00,    1.244444e+01,   -2.443121e+01
    4727,    8.974009e+00,    1.244444e+01,   -2.067915e+01
    4728,    1.010391e+01,    1.244444e+01,   -1.687424e+01
    4729,    1.250144e+01,    1.244444e+01,   -1.314404e+01
    4730,    1.629642e+01,    1.244444e+01,   -9.961566e+00
    4731,    1.957326e+01,    1.244444e+01,   -7.453734e+00
    4732,    2.157232e+01,    1.244444e+01,   -5.658829e+00
    4733,    1.892839e+01,    1.244444e+01,   -1.842924e+01
    4734,    1.969011e+01,    1.244444e+01,   -2.169171e+01
    4735,    1.291311e+01,    1.244444e+01,   -2.142747e+01
    4736,    1.397717e+01,    1.244444e+01,   -1.825778e+01
    4737,    1.660092e+01,    1.244444e+01,   -1.559855e+01
    4738,    1.622813e+01,    1.244444e+01,   -2.198711e+01
    4739,    1.637790e+01,    1.244444e+01,   -1.955804e+01
    4740,    2.812003e+01,    1.600000e+01,   -3.414845e+00
    4741,    2.797864e+01,    1.600000e+01,   -6.754863e+00
    4742,    2.762910e+01,    1.600000e+01,   -1.020751e+01
    4743,    2.731317e+01,    1.600000e+01,   -1.384184e+01
    4744,    2.762424e+01,    1.600000e+01,   -1.759450e+01
    4745,    2.791641e+01,    1.600000e+01,   -2.121915e+01
    4746,    2.802649e+01,    1.600000e+01,   -2.481971e+01
    4747,    2.803102e+01,    1.600000e+01,   -2.841462e+01
    4748,    4.074691e+00,    1.600000e+01,   -2.807655e+01
    4749,    4.204790e+00,    1.600000e+01,   -2.411931e+01
    4750,    4.494764e+00,    1.600000e+01,   -2.007880e+01
    4751,    5.258743e+00,    1.600000e+01,   -1.591285e+01
    4752,    6.604932e+00,    1.600000e+01,   -1.086153e+01
    4753,    1.187342e+01,    1.600000e+01,   -5.738712e+00
    4754,    1.720166e+01,    1.600000e+01,   -4.149378e+00
    4755,    2.083400e+01,    1.600000e+01,   -3.187386e+00
    4756,    2.430850e+01,    1.600000e+01,   -3.213687e+00
    4757,    2.406667e+01,    1.600000e+01,   -2.843076e+01
    4758,    2.008566e+01,    1.600000e+01,   -2.850775e+01
    4759,    1.610483e+01,    1.600000e+01,   -2.851623e+01
    4760,    1.212834e+01,    1.600000e+01,   -2.838958e+01
    4761,    8.124210e+00,    1.600000e+01,   -2.821898e+01
    4762,    2.425294e+01,    1.600000e+01,   -6.270300e+00
    4763,    2.318170e+01,    1.600000e+01,   -9.374250e+00
    4764,    2.130020e+01,    1.600000e+01,   -1.325280e+01
    4765,    2.296177e+01,    1.600000e+01,   -1.759617e+01
    4766,    2.367202e+01,    1.600000e+01,   -2.133115e+01
    4767,    2.400709e+01,    1.600000e+01,   -2.490508e+01
    4768,    1.998169e+01,    1.600000e+01,   -2.506174e+01
    4769,    1.615924e+01,    1.600000e+01,   -2.512063e+01
    4770,    1.232558e+01,    1.600000e+01,   -2.481764e+01
    4771,    8.342438e+00,    1.600000e+01,   -2.443121e+01
    4772,    8.974009e+00,    1.600000e+01,   -2.067915e+01
    4773,    1.010391e+01,    1.600000e+01,   -1.687424e+01
    4774,    1.250144e+01,    1.600000e+01,   -1.314404e+01
    4775,    1.629642e+01,    1.600000e+01,   -9.961566e+00
    4776,    1.957326e+01,    1.600000e+01,   -7.453734e+00
    4777,    2.157232e+01,    1.600000e+01,   -5.658829e+00
    4778,    1.892839e+01,    1.600000e+01,   -1.842924e+01
    4779,    1.969011e+01,    1.600000e+01,   -2.169171e+01
    4780,    1.291311e+01,    1.600000e+01,   -2.142747e+01
    4781,    1.397717e+01,    1.600000e+01,   -1.825778e+01
    4782,    1.660092e+01,    1.600000e+01,   -1.559855e+01
    4783,    1.622813e+01,    1.600000e+01,   -2.198711e+01
    4784,    1.637790e+01,    1.600000e+01,   -1.955804e+01
    4785,    0.000000e+00,    0.000000e+00,   -3.200000e+01
    4786,    0.000000e+00,    0.000000e+00,   -1.200000e+01
    4787,    0.000000e+00,    0.000000e+00,   -1.600000e+01
    4788,    0.000000e+00,    0.000000e+00,   -2.000000e+01
    4789,    0.000000e+00,    0.000000e+00,   -2.400000e+01
    4790,    0.000000e+00,    0.000000e+00,   -2.800000e+01
    4791,    3.200000e+01,    0.000000e+00,   -3.200000e+01
    4792,    2.800000e+01,    0.000000e+00,   -3.200000e+01
    4793,    2.400000e+01,    0.000000e+00,   -3.200000e+01
    4794,    2.000000e+01,    0.000000e+00,   -3.200000e+01
    4795,    1.600000e+01,    0.000000e+00,   -3.200000e+01
    4796,    1.200000e+01,    0.000000e+00,   -3.200000e+01
    4797,    8.000000e+00,    0.000000e+00,   -3.200000e+01
    4798,    4.000000e+00,    0.000000e+00,   -3.200000e+01
    4799,    3.200000e+01,    0.000000e+00,    0.000000e+00
    4800,    1.200000e+01,    0.000000e+00,    0.000000e+00
    4801,    1.600000e+01,    0.000000e+00,    0.000000e+00
    4802,    2.000000e+01,    0.000000e+00,    0.000000e+00
    4803,    2.400000e+01,    0.000000e+00,    0.000000e+00
    4804,    2.800000e+01,    0.000000e+00,    0.000000e+00
    4805,    3.200000e+01,    0.000000e+00,   -3.555556e+00
    4806,    3.200000e+01,    0.000000e+00,   -7.111111e+00
    4807,    3.200000e+01,    0.000000e+00,   -1.066667e+01
    4808,    3.200000e+01,    0.000000e+00,   -1.422222e+01
    4809,    3.200000e+01,    0.000000e+00,   -1.777778e+01
    4810,    3.200000e+01,    0.000000e+00,   -2.133333e+01
    4811,    3.200000e+01,    0.000000e+00,   -2.488889e+01
    4812,    3.200000e+01,    0.000000e+00,   -2.844444e+01
    4813,    2.812003e+01,    0.000000e+00,   -3.414845e+00
    4814,    2.797864e+01,    0.000000e+00,   -6.754863e+00
    4815,    2.762910e+01,    0.000000e+00,   -1.020751e+01
    4816,    2.731317e+01,    0.000000e+00,   -1.384184e+01
    4817,    2.762424e+01,    0.000000e+00,   -1.759450e+01
    4818,    2.791641e+01,    0.000000e+00,   -2.121915e+01
    4819,    2.802649e+01,    0.000000e+00,   -2.481971e+01
    4820,    2.803102e+01,    0.000000e+00,   -2.841462e+01
    4821,    4.074691e+00,    0.000000e+00,   -2.807655e+01
    4822,    4.204790e+00,    0.000000e+00,   -2.411931e+01
    4823,    4.494764e+00,    0.000000e+00,   -2.007880e+01
    4824,    5.258743e+00,    0.000000e+00,   -1.591285e+01
    4825,    6.604932e+00,    0.000000e+00,   -1.086153e+01
    4826,    1.187342e+01,    0.000000e+00,   -5.738712e+00
    4827,    1.720166e+01,    0.000000e+00,   -4.149378e+00
    4828,    2.083400e+01,    0.000000e+00,   -3.187386e+00
    4829,    2.430850e+01,    0.000000e+00,   -3.213687e+00
    4830,    2.406667e+01,    0.000000e+00,   -2.843076e+01
    4831,    2.008566e+01,    0.000000e+00,   -2.850775e+01
    4832,    1.610483e+01,    0.000000e+00,   -2.851623e+01
    4833,    1.212834e+01,    0.000000e+00,   -2.838958e+01
    4834,    8.124210e+00,    0.000000e+00,   -2.821898e+01
    4835,    2.425294e+01,    0.000000e+00,   -6.270300e+00
    4836,    2.318170e+01,    0.000000e+00,   -9.374250e+00
    4837,    2.130020e+01,    0.000000e+00,   -1.325280e+01
    4838,    2.296177e+01,    0.000000e+00,   -1.759617e+01
    4839,    2.367202e+01,    0.000000e+00,   -2.133115e+01
    4840,    2.400709e+01,    0.000000e+00,   -2.490508e+01
    4841,    1.998169e+01,    0.000000e+00,   -2.506174e+01
    4842,    1.615924e+01,    0.000000e+00,   -2.512063e+01
    4843,    1.232558e+01,    0.000000e+00,   -2.481764e+01
    4844,    8.342438e+00,    0.000000e+00,   -2.443121e+01
    4845,    8.974009e+00,    0.000000e+00,   -2.067915e+01
    4846,    1.010391e+01,    0.000000e+00,   -1.687424e+01
    4847,    1.250144e+01,    0.000000e+00,   -1.314404e+01
    4848,    1.629642e+01,    0.000000e+00,   -9.961566e+00
    4849,    1.957326e+01,    0.000000e+00,   -7.453734e+00
    4850,    2.157232e+01,    0.000000e+00,   -5.658829e+00
    4851,    1.969011e+01,    0.000000e+00,   -2.169171e+01
    4852,    1.892839e+01,    0.000000e+00,   -1.842924e+01
    4853,    1.291311e+01,    0.000000e+00,   -2.142747e+01
    4854,    1.397717e+01,    0.000000e+00,   -1.825778e+01
    4855,    1.660092e+01,    0.000000e+00,   -1.559855e+01
    4856,    1.622813e+01,    0.000000e+00,   -2.198711e+01
    4857,    1.637790e+01,    0.000000e+00,   -1.955804e+01
    9014,   -8.000000e+00,   -5.000000e+01,    0.000000e+00
    9015,   -5.333333e+00,   -5.000000e+01,    0.000000e+00
    9016,   -2.666667e+00,   -5.000000e+01,    0.000000e+00
    9017,   -6.928203e+00,   -5.000000e+01,   -4.000000e+00
    9018,   -4.000000e+00,   -5.000000e+01,   -6.928203e+00
    9019,   -5.026854e+00,   -5.000000e+01,   -2.413361e+00
    9020,   -2.829203e+00,   -5.000000e+01,   -3.243589e+00
    9021,   -8.000000e+00,    1.600000e+01,    0.000000e+00
    9022,   -4.000000e+00,    1.600000e+01,   -6.928203e+00
    9023,   -6.928203e+00,    1.600000e+01,   -4.000000e+00
    9024,   -8.000000e+00,    5.333333e+00,    1.143004e-15
    9025,   -8.000000e+00,    8.888889e+00,   -5.442875e-17
    9026,   -8.000000e+00,    1.244444e+01,   -2.721437e-16
    9027,   -4.000000e+00,    5.333333e+00,   -6.928203e+00
    9028,   -6.928203e+00,    5.333333e+00,   -4.000000e+00
    9029,   -4.000000e+00,    8.888889e+00,   -6.928203e+00
    9030,   -4.000000e+00,    1.244444e+01,   -6.928203e+00
    9031,   -6.928203e+00,    8.888889e+00,   -4.000000e+00
    9032,   -6.928203e+00,    1.244444e+01,   -4.000000e+00
    9033,   -8.000000e+00,    0.000000e+00,    0.000000e+00
    9034,   -4.000000e+00,    0.000000e+00,   -6.928203e+00
    9035,   -6.928203e+00,    0.000000e+00,   -4.000000e+00
    9036,   -2.666667e+00,    1.600000e+01,    0.000000e+00
    9037,   -5.333333e+00,    1.600000e+01,    0.000000e+00
    9038,   -8.000000e+00,   -3.846154e+00,   -8.054408e-16
    9039,   -8.000000e+00,   -7.692308e+00,   -5.699318e-16
    9040,   -8.000000e+00,   -1.153846e+01,   -3.344228e-16
    9041,   -8.000000e+00,   -1.538462e+01,   -9.891378e-17
    9042,   -8.000000e+00,   -1.923077e+01,    1.365952e-16
    9043,   -8.000000e+00,   -2.307692e+01,    3.721042e-16
    9044,   -8.000000e+00,   -2.692308e+01,    6.076132e-16
    9045,   -8.000000e+00,   -3.076923e+01,    8.431222e-16
    9046,   -8.000000e+00,   -3.461538e+01,    1.078631e-15
    9047,   -8.000000e+00,   -3.846154e+01,    1.314140e-15
    9048,   -8.000000e+00,   -4.230769e+01,    1.549649e-15
    9049,   -8.000000e+00,   -4.615385e+01,    1.785158e-15
    9050,   -2.666667e+00,   -4.612971e+01,    0.000000e+00
    9051,   -2.666667e+00,   -4.225943e+01,    0.000000e+00
    9052,   -2.666667e+00,   -3.838914e+01,    0.000000e+00
    9053,   -2.666667e+00,   -3.451885e+01,    0.000000e+00
    9054,   -2.666667e+00,   -3.064857e+01,    0.000000e+00
    9055,   -2.666667e+00,   -2.677828e+01,    0.000000e+00
    9056,   -2.666667e+00,   -2.290799e+01,    0.000000e+00
    9057,   -2.666667e+00,   -1.903771e+01,    0.000000e+00
    9058,   -2.666667e+00,   -1.516742e+01,    0.000000e+00
    9059,   -2.666667e+00,   -1.129713e+01,    0.000000e+00
    9060,   -2.666667e+00,   -7.426848e+00,    0.000000e+00
    9061,   -2.666667e+00,   -3.556561e+00,    0.000000e+00
    9062,   -2.666667e+00,    3.137255e-01,    0.000000e+00
    9063,   -2.666667e+00,    4.679739e+00,    0.000000e+00
    9064,   -2.666667e+00,    8.453159e+00,    0.000000e+00
    9065,   -2.666667e+00,    1.222658e+01,    0.000000e+00
    9066,   -5.333333e+00,   -4.614178e+01,    0.000000e+00
    9067,   -5.333333e+00,   -4.228356e+01,    0.000000e+00
    9068,   -5.333333e+00,   -3.842534e+01,    0.000000e+00
    9069,   -5.333333e+00,   -3.456712e+01,    0.000000e+00
    9070,   -5.333333e+00,   -3.070890e+01,    0.000000e+00
    9071,   -5.333333e+00,   -2.685068e+01,    0.000000e+00
    9072,   -5.333333e+00,   -2.299246e+01,    0.000000e+00
    9073,   -5.333333e+00,   -1.913424e+01,    0.000000e+00
    9074,   -5.333333e+00,   -1.527602e+01,    0.000000e+00
    9075,   -5.333333e+00,   -1.141780e+01,    0.000000e+00
    9076,   -5.333333e+00,   -7.559578e+00,    0.000000e+00
    9077,   -5.333333e+00,   -3.701357e+00,    0.000000e+00
    9078,   -5.333333e+00,    1.568627e-01,    0.000000e+00
    9079,   -5.333333e+00,    5.006536e+00,    0.000000e+00
    9080,   -5.333333e+00,    8.671024e+00,    0.000000e+00
    9081,   -5.333333e+00,    1.233551e+01,    0.000000e+00
    9082,   -6.928203e+00,   -3.846154e+00,   -4.000000e+00
    9083,   -4.000000e+00,   -3.846154e+00,   -6.928203e+00
    9084,   -6.928203e+00,   -7.692308e+00,   -4.000000e+00
    9085,   -4.000000e+00,   -7.692308e+00,   -6.928203e+00
    9086,   -6.928203e+00,   -1.153846e+01,   -4.000000e+00
    9087,   -4.000000e+00,   -1.153846e+01,   -6.928203e+00
    9088,   -6.928203e+00,   -1.538462e+01,   -4.000000e+00
    9089,   -4.000000e+00,   -1.538462e+01,   -6.928203e+00
    9090,   -6.928203e+00,   -1.923077e+01,   -4.000000e+00
    9091,   -4.000000e+00,   -1.923077e+01,   -6.928203e+00
    9092,   -6.928203e+00,   -2.307692e+01,   -4.000000e+00
    9093,   -4.000000e+00,   -2.307692e+01,   -6.928203e+00
    9094,   -6.928203e+00,   -2.692308e+01,   -4.000000e+00
    9095,   -4.000000e+00,   -2.692308e+01,   -6.928203e+00
    9096,   -6.928203e+00,   -3.076923e+01,   -4.000000e+00
    9097,   -4.000000e+00,   -3.076923e+01,   -6.928203e+00
    9098,   -6.928203e+00,   -3.461538e+01,   -4.000000e+00
    9099,   -4.000000e+00,   -3.461538e+01,   -6.928203e+00
    9100,   -6.928203e+00,   -3.846154e+01,   -4.000000e+00
    9101,   -4.000000e+00,   -3.846154e+01,   -6.928203e+00
    9102,   -6.928203e+00,   -4.230769e+01,   -4.000000e+00
    9103,   -4.000000e+00,   -4.230769e+01,   -6.928203e+00
    9104,   -6.928203e+00,   -4.615385e+01,   -4.000000e+00
    9105,   -4.000000e+00,   -4.615385e+01,   -6.928203e+00
    9106,   -2.829203e+00,   -4.614196e+01,   -3.243589e+00
    9107,   -5.026854e+00,   -4.614668e+01,   -2.413361e+00
    9108,   -2.829203e+00,   -4.228393e+01,   -3.243589e+00
    9109,   -5.026854e+00,   -4.229337e+01,   -2.413361e+00
    9110,   -2.829203e+00,   -3.842589e+01,   -3.243589e+00
    9111,   -5.026854e+00,   -3.844005e+01,   -2.413361e+00
    9112,   -2.829203e+00,   -3.456786e+01,   -3.243589e+00
    9113,   -5.026854e+00,   -3.458673e+01,   -2.413361e+00
    9114,   -2.829203e+00,   -3.070982e+01,   -3.243589e+00
    9115,   -5.026854e+00,   -3.073342e+01,   -2.413361e+00
    9116,   -2.829203e+00,   -2.685178e+01,   -3.243589e+00
    9117,   -5.026854e+00,   -2.688010e+01,   -2.413361e+00
    9118,   -2.829203e+00,   -2.299375e+01,   -3.243589e+00
    9119,   -5.026854e+00,   -2.302678e+01,   -2.413361e+00
    9120,   -2.829203e+00,   -1.913571e+01,   -3.243589e+00
    9121,   -5.026854e+00,   -1.917347e+01,   -2.413361e+00
    9122,   -2.829203e+00,   -1.527768e+01,   -3.243589e+00
    9123,   -5.026854e+00,   -1.532015e+01,   -2.413361e+00
    9124,   -2.829203e+00,   -1.141964e+01,   -3.243589e+00
    9125,   -5.026854e+00,   -1.146683e+01,   -2.413361e+00
    9126,   -2.829203e+00,   -7.561603e+00,   -3.243589e+00
    9127,   -5.026854e+00,   -7.613518e+00,   -2.413361e+00
    9128,   -2.829203e+00,   -3.703567e+00,   -3.243589e+00
    9129,   -5.026854e+00,   -3.760201e+00,   -2.413361e+00
    9130,   -2.829203e+00,    1.621253e-01,   -3.243589e+00
    9131,   -5.026854e+00,    9.989524e-02,   -2.413361e+00
    9132,   -2.829203e+00,    4.995572e+00,   -3.243589e+00
    9133,   -5.026854e+00,    5.125218e+00,   -2.413361e+00
    9134,   -2.829203e+00,    8.663715e+00,   -3.243589e+00
    9135,   -5.026854e+00,    8.750145e+00,   -2.413361e+00
    9136,   -2.829203e+00,    1.233717e+01,   -3.243589e+00
    9137,   -5.026854e+00,    1.237978e+01,   -2.413361e+00
    9138,   -2.829203e+00,    1.600000e+01,   -3.243589e+00
    9139,   -5.026854e+00,    1.600000e+01,   -2.413361e+00
    9140,   -3.200000e+01,    5.333333e+00,   -3.200000e+01
    9141,   -2.800000e+01,    5.333333e+00,   -3.200000e+01
    9142,   -2.400000e+01,    5.333333e+00,   -3.200000e+01
    9143,   -2.000000e+01,    5.333333e+00,   -3.200000e+01
    9144,   -1.600000e+01,    5.333333e+00,   -3.200000e+01
    9145,   -1.200000e+01,    5.333333e+00,   -3.200000e+01
    9146,   -8.000000e+00,    5.333333e+00,   -3.200000e+01
    9147,   -4.000000e+00,    5.333333e+00,   -3.200000e+01
    9148,   -3.200000e+01,    5.333333e+00,    0.000000e+00
    9149,   -3.200000e+01,    5.333333e+00,   -3.555556e+00
    9150,   -3.200000e+01,    5.333333e+00,   -7.111111e+00
    9151,   -3.200000e+01,    5.333333e+00,   -1.066667e+01
    9152,   -3.200000e+01,    5.333333e+00,   -1.422222e+01
    9153,   -3.200000e+01,    5.333333e+00,   -1.777778e+01
    9154,   -3.200000e+01,    5.333333e+00,   -2.133333e+01
    9155,   -3.200000e+01,    5.333333e+00,   -2.488889e+01
    9156,   -3.200000e+01,    5.333333e+00,   -2.844444e+01
    9157,   -1.200000e+01,    5.333333e+00,    0.000000e+00
    9158,   -1.600000e+01,    5.333333e+00,    0.000000e+00
    9159,   -2.000000e+01,    5.333333e+00,    0.000000e+00
    9160,   -2.400000e+01,    5.333333e+00,    0.000000e+00
    9161,   -2.800000e+01,    5.333333e+00,    0.000000e+00
    9162,   -2.810168e+01,    5.333333e+00,   -2.842024e+01
    9163,   -2.817692e+01,    5.333333e+00,   -2.486734e+01
    9164,   -2.824521e+01,    5.333333e+00,   -2.133006e+01
    9165,   -2.832324e+01,    5.333333e+00,   -1.779648e+01
    9166,   -2.837608e+01,    5.333333e+00,   -1.427497e+01
    9167,   -2.835621e+01,    5.333333e+00,   -1.075696e+01
    9168,   -2.824476e+01,    5.333333e+00,   -7.218385e+00
    9169,   -2.809699e+01,    5.333333e+00,   -3.623012e+00
    9170,   -6.115298e+00,    5.333333e+00,   -1.074548e+01
    9171,   -4.971915e+00,    5.333333e+00,   -1.583653e+01
    9172,   -4.445702e+00,    5.333333e+00,   -2.009730e+01
    9173,   -4.191903e+00,    5.333333e+00,   -2.410085e+01
    9174,   -4.077926e+00,    5.333333e+00,   -2.806510e+01
    9175,   -2.415753e+01,    5.333333e+00,   -3.702511e+00
    9176,   -2.025184e+01,    5.333333e+00,   -3.836006e+00
    9177,   -1.611513e+01,    5.333333e+00,   -4.193864e+00
    9178,   -1.111514e+01,    5.333333e+00,   -5.459440e+00
    9179,   -8.141415e+00,    5.333333e+00,   -2.816118e+01
    9180,   -1.219346e+01,    5.333333e+00,   -2.827351e+01
    9181,   -1.623036e+01,    5.333333e+00,   -2.834176e+01
    9182,   -2.023601e+01,    5.333333e+00,   -2.836744e+01
    9183,   -2.417631e+01,    5.333333e+00,   -2.840096e+01
    9184,   -2.432790e+01,    5.333333e+00,   -2.483605e+01
    9185,   -2.448652e+01,    5.333333e+00,   -2.130537e+01
    9186,   -2.465907e+01,    5.333333e+00,   -1.780334e+01
    9187,   -2.478686e+01,    5.333333e+00,   -1.432356e+01
    9188,   -2.473746e+01,    5.333333e+00,   -1.084324e+01
    9189,   -2.445805e+01,    5.333333e+00,   -7.311066e+00
    9190,   -8.329470e+00,    5.333333e+00,   -2.432318e+01
    9191,   -1.242700e+01,    5.333333e+00,   -2.457638e+01
    9192,   -1.648244e+01,    5.333333e+00,   -2.471661e+01
    9193,   -2.044109e+01,    5.333333e+00,   -2.479215e+01
    9194,   -2.073794e+01,    5.333333e+00,   -7.472816e+00
    9195,   -1.701334e+01,    5.333333e+00,   -7.988912e+00
    9196,   -1.347176e+01,    5.333333e+00,   -9.289633e+00
    9197,   -1.091751e+01,    5.333333e+00,   -1.253857e+01
    9198,   -9.455376e+00,    5.333333e+00,   -1.650098e+01
    9199,   -8.771335e+00,    5.333333e+00,   -2.044300e+01
    9200,   -2.068547e+01,    5.333333e+00,   -2.126486e+01
    9201,   -2.098036e+01,    5.333333e+00,   -1.778614e+01
    9202,   -2.112516e+01,    5.333333e+00,   -1.432703e+01
    9203,   -2.112485e+01,    5.333333e+00,   -1.093143e+01
    9204,   -1.776305e+01,    5.333333e+00,   -1.107779e+01
    9205,   -1.516459e+01,    5.333333e+00,   -1.143430e+01
    9206,   -1.425895e+01,    5.333333e+00,   -1.393548e+01
    9207,   -1.345700e+01,    5.333333e+00,   -1.724809e+01
    9208,   -1.287449e+01,    5.333333e+00,   -2.085451e+01
    9209,   -1.680595e+01,    5.333333e+00,   -2.114977e+01
    9210,   -1.761916e+01,    5.333333e+00,   -1.425846e+01
    9211,   -1.722000e+01,    5.333333e+00,   -1.761839e+01
    9212,   -3.200000e+01,    1.600000e+01,    0.000000e+00
    9213,   -1.200000e+01,    1.600000e+01,    0.000000e+00
    9214,   -1.600000e+01,    1.600000e+01,    0.000000e+00
    9215,   -2.000000e+01,    1.600000e+01,    0.000000e+00
    9216,   -2.400000e+01,    1.600000e+01,    0.000000e+00
    9217,   -2.800000e+01,    1.600000e+01,    0.000000e+00
    9218,   -3.200000e+01,    1.244444e+01,    0.000000e+00
    9219,   -3.200000e+01,    8.888889e+00,    0.000000e+00
    9220,   -2.800000e+01,    8.888889e+00,    0.000000e+00
    9221,   -2.400000e+01,    8.888889e+00,    0.000000e+00
    9222,   -2.000000e+01,    8.888889e+00,    0.000000e+00
    9223,   -1.600000e+01,    8.888889e+00,    0.000000e+00
    9224,   -1.200000e+01,    8.888889e+00,    0.000000e+00
    9225,   -2.800000e+01,    1.244444e+01,    0.000000e+00
    9226,   -2.400000e+01,    1.244444e+01,    0.000000e+00
    9227,   -2.000000e+01,    1.244444e+01,    0.000000e+00
    9228,   -1.600000e+01,    1.244444e+01,    0.000000e+00
    9229,   -1.200000e+01,    1.244444e+01,    0.000000e+00
    9230,   -3.200000e+01,    1.600000e+01,   -3.200000e+01
    9231,   -3.200000e+01,    8.888889e+00,   -3.200000e+01
    9232,   -3.200000e+01,    1.244444e+01,   -3.200000e+01
    9233,   -2.800000e+01,    1.600000e+01,   -3.200000e+01
    9234,   -2.400000e+01,    1.600000e+01,   -3.200000e+01
    9235,   -2.000000e+01,    1.600000e+01,   -3.200000e+01
    9236,   -1.600000e+01,    1.600000e+01,   -3.200000e+01
    9237,   -1.200000e+01,    1.600000e+01,   -3.200000e+01
    9238,   -8.000000e+00,    1.600000e+01,   -3.200000e+01
    9239,   -4.000000e+00,    1.600000e+01,   -3.200000e+01
    9240,   -4.000000e+00,    1.244444e+01,   -3.200000e+01
    9241,   -4.000000e+00,    8.888889e+00,   -3.200000e+01
    9242,   -8.000000e+00,    1.244444e+01,   -3.200000e+01
    9243,   -8.000000e+00,    8.888889e+00,   -3.200000e+01
    9244,   -1.200000e+01,    1.244444e+01,   -3.200000e+01
    9245,   -1.200000e+01,    8.888889e+00,   -3.200000e+01
    9246,   -1.600000e+01,    1.244444e+01,   -3.200000e+01
    9247,   -1.600000e+01,    8.888889e+00,   -3.200000e+01
    9248,   -2.000000e+01,    1.244444e+01,   -3.200000e+01
    9249,   -2.000000e+01,    8.888889e+00,   -3.200000e+01
    9250,   -2.400000e+01,    1.244444e+01,   -3.200000e+01
    9251,   -2.400000e+01,    8.888889e+00,   -3.200000e+01
    9252,   -2.800000e+01,    1.244444e+01,   -3.200000e+01
    9253,   -2.800000e+01,    8.888889e+00,   -3.200000e+01
    9254,   -3.200000e+01,    1.600000e+01,   -3.555556e+00
    9255,   -3.200000e+01,    1.600000e+01,   -7.111111e+00
    9256,   -3.200000e+01,    1.600000e+01,   -1.066667e+01
    9257,   -3.200000e+01,    1.600000e+01,   -1.422222e+01
    9258,   -3.200000e+01,    1.600000e+01,   -1.777778e+01
    9259,   -3.200000e+01,    1.600000e+01,   -2.133333e+01
    9260,   -3.200000e+01,    1.600000e+01,   -2.488889e+01
    9261,   -3.200000e+01,    1.600000e+01,   -2.844444e+01
    9262,   -3.200000e+01,    8.888889e+00,   -3.555556e+00
    9263,   -3.200000e+01,    1.244444e+01,   -3.555556e+00
    9264,   -3.200000e+01,    8.888889e+00,   -7.111111e+00
    9265,   -3.200000e+01,    1.244444e+01,   -7.111111e+00
    9266,   -3.200000e+01,    8.888889e+00,   -1.066667e+01
    9267,   -3.200000e+01,    1.244444e+01,   -1.066667e+01
    9268,   -3.200000e+01,    8.888889e+00,   -1.422222e+01
    9269,   -3.200000e+01,    1.244444e+01,   -1.422222e+01
    9270,   -3.200000e+01,    8.888889e+00,   -1.777778e+01
    9271,   -3.200000e+01,    1.244444e+01,   -1.777778e+01
    9272,   -3.200000e+01,    8.888889e+00,   -2.133333e+01
    9273,   -3.200000e+01,    1.244444e+01,   -2.133333e+01
    9274,   -3.200000e+01,    8.888889e+00,   -2.488889e+01
    9275,   -3.200000e+01,    1.244444e+01,   -2.488889e+01
    9276,   -3.200000e+01,    8.888889e+00,   -2.844444e+01
    9277,   -3.200000e+01,    1.244444e+01,   -2.844444e+01
    9278,   -2.810168e+01,    8.888889e+00,   -2.842024e+01
    9279,   -2.817692e+01,    8.888889e+00,   -2.486734e+01
    9280,   -2.824521e+01,    8.888889e+00,   -2.133006e+01
    9281,   -2.832324e+01,    8.888889e+00,   -1.779648e+01
    9282,   -2.837608e+01,    8.888889e+00,   -1.427497e+01
    9283,   -2.835621e+01,    8.888889e+00,   -1.075696e+01
    9284,   -2.824476e+01,    8.888889e+00,   -7.218385e+00
    9285,   -2.809699e+01,    8.888889e+00,   -3.623012e+00
    9286,   -6.115298e+00,    8.888889e+00,   -1.074548e+01
    9287,   -4.971915e+00,    8.888889e+00,   -1.583653e+01
    9288,   -4.445702e+00,    8.888889e+00,   -2.009730e+01
    9289,   -4.191903e+00,    8.888889e+00,   -2.410085e+01
    9290,   -4.077926e+00,    8.888889e+00,   -2.806510e+01
    9291,   -2.415753e+01,    8.888889e+00,   -3.702511e+00
    9292,   -2.025184e+01,    8.888889e+00,   -3.836006e+00
    9293,   -1.611513e+01,    8.888889e+00,   -4.193864e+00
    9294,   -1.111514e+01,    8.888889e+00,   -5.459440e+00
    9295,   -8.141415e+00,    8.888889e+00,   -2.816118e+01
    9296,   -1.219346e+01,    8.888889e+00,   -2.827351e+01
    9297,   -1.623036e+01,    8.888889e+00,   -2.834176e+01
    9298,   -2.023601e+01,    8.888889e+00,   -2.836744e+01
    9299,   -2.417631e+01,    8.888889e+00,   -2.840096e+01
    9300,   -2.432790e+01,    8.888889e+00,   -2.483605e+01
    9301,   -2.448652e+01,    8.888889e+00,   -2.130537e+01
    9302,   -2.465907e+01,    8.888889e+00,   -1.780334e+01
    9303,   -2.478686e+01,    8.888889e+00,   -1.432356e+01
    9304,   -2.473746e+01,    8.888889e+00,   -1.084324e+01
    9305,   -2.445805e+01,    8.888889e+00,   -7.311066e+00
    9306,   -8.329470e+00,    8.888889e+00,   -2.432318e+01
    9307,   -1.242700e+01,    8.888889e+00,   -2.457638e+01
    9308,   -1.648244e+01,    8.888889e+00,   -2.471661e+01
    9309,   -2.044109e+01,    8.888889e+00,   -2.479215e+01
    9310,   -2.073794e+01,    8.888889e+00,   -7.472816e+00
    9311,   -1.701334e+01,    8.888889e+00,   -7.988912e+00
    9312,   -1.347176e+01,    8.888889e+00,   -9.289633e+00
    9313,   -1.091751e+01,    8.888889e+00,   -1.253857e+01
    9314,   -9.455376e+00,    8.888889e+00,   -1.650098e+01
    9315,   -8.771335e+00,    8.888889e+00,   -2.044300e+01
    9316,   -2.068547e+01,    8.888889e+00,   -2.126486e+01
    9317,   -2.098036e+01,    8.888889e+00,   -1.778614e+01
    9318,   -2.112516e+01,    8.888889e+00,   -1.432703e+01
    9319,   -2.112485e+01,    8.888889e+00,   -1.093143e+01
    9320,   -1.776305e+01,    8.888889e+00,   -1.107779e+01
    9321,   -1.516459e+01,    8.888889e+00,   -1.143430e+01
    9322,   -1.425895e+01,    8.888889e+00,   -1.393548e+01
    9323,   -1.345700e+01,    8.888889e+00,   -1.724809e+01
    9324,   -1.287449e+01,    8.888889e+00,   -2.085451e+01
    9325,   -1.680595e+01,    8.888889e+00,   -2.114977e+01
    9326,   -1.761916e+01,    8.888889e+00,   -1.425846e+01
    9327,   -1.722000e+01,    8.888889e+00,   -1.761839e+01
    9328,   -2.810168e+01,    1.244444e+01,   -2.842024e+01
    9329,   -2.817692e+01,    1.244444e+01,   -2.486734e+01
    9330,   -2.824521e+01,    1.244444e+01,   -2.133006e+01
    9331,   -2.832324e+01,    1.244444e+01,   -1.779648e+01
    9332,   -2.837608e+01,    1.244444e+01,   -1.427497e+01
    9333,   -2.835621e+01,    1.244444e+01,   -1.075696e+01
    9334,   -2.824476e+01,    1.244444e+01,   -7.218385e+00
    9335,   -2.809699e+01,    1.244444e+01,   -3.623012e+00
    9336,   -6.115298e+00,    1.244444e+01,   -1.074548e+01
    9337,   -4.971915e+00,    1.244444e+01,   -1.583653e+01
    9338,   -4.445702e+00,    1.244444e+01,   -2.009730e+01
    9339,   -4.191903e+00,    1.244444e+01,   -2.410085e+01
    9340,   -4.077926e+00,    1.244444e+01,   -2.806510e+01
    9341,   -2.415753e+01,    1.244444e+01,   -3.702511e+00
    9342,   -2.025184e+01,    1.244444e+01,   -3.836006e+00
    9343,   -1.611513e+01,    1.244444e+01,   -4.193864e+00
    9344,   -1.111514e+01,    1.244444e+01,   -5.459440e+00
    9345,   -8.141415e+00,    1.244444e+01,   -2.816118e+01
    9346,   -1.219346e+01,    1.244444e+01,   -2.827351e+01
    9347,   -1.623036e+01,    1.244444e+01,   -2.834176e+01
    9348,   -2.023601e+01,    1.244444e+01,   -2.836744e+01
    9349,   -2.417631e+01,    1.244444e+01,   -2.840096e+01
    9350,   -2.432790e+01,    1.244444e+01,   -2.483605e+01
    9351,   -2.448652e+01,    1.244444e+01,   -2.130537e+01
    9352,   -2.465907e+01,    1.244444e+01,   -1.780334e+01
    9353,   -2.478686e+01,    1.244444e+01,   -1.432356e+01
    9354,   -2.473746e+01,    1.244444e+01,   -1.084324e+01
    9355,   -2.445805e+01,    1.244444e+01,   -7.311066e+00
    9356,   -8.329470e+00,    1.244444e+01,   -2.432318e+01
    9357,   -1.242700e+01,    1.244444e+01,   -2.457638e+01
    9358,   -1.648244e+01,    1.244444e+01,   -2.471661e+01
    9359,   -2.044109e+01,    1.244444e+01,   -2.479215e+01
    9360,   -2.073794e+01,    1.244444e+01,   -7.472816e+00
    9361,   -1.701334e+01,    1.244444e+01,   -7.988912e+00
    9362,   -1.347176e+01,    1.244444e+01,   -9.289633e+00
    9363,   -1.091751e+01,    1.244444e+01,   -1.253857e+01
    9364,   -9.455376e+00,    1.244444e+01,   -1.650098e+01
    9365,   -8.771335e+00,    1.244444e+01,   -2.044300e+01
    9366,   -2.068547e+01,    1.244444e+01,   -2.126486e+01
    9367,   -2.098036e+01,    1.244444e+01,   -1.778614e+01
    9368,   -2.112516e+01,    1.244444e+01,   -1.432703e+01
    9369,   -2.112485e+01,    1.244444e+01,   -1.093143e+01
    9370,   -1.776305e+01,    1.244444e+01,   -1.107779e+01
    9371,   -1.516459e+01,    1.244444e+01,   -1.143430e+01
    9372,   -1.425895e+01,    1.244444e+01,   -1.393548e+01
    9373,   -1.345700e+01,    1.244444e+01,   -1.724809e+01
    9374,   -1.287449e+01,    1.244444e+01,   -2.085451e+01
    9375,   -1.680595e+01,    1.244444e+01,   -2.114977e+01
    9376,   -1.761916e+01,    1.244444e+01,   -1.425846e+01
    9377,   -1.722000e+01,    1.244444e+01,   -1.761839e+01
    9378,   -2.810168e+01,    1.600000e+01,   -2.842024e+01
    9379,   -2.817692e+01,    1.600000e+01,   -2.486734e+01
    9380,   -2.824521e+01,    1.600000e+01,   -2.133006e+01
    9381,   -2.832324e+01,    1.600000e+01,   -1.779648e+01
    9382,   -2.837608e+01,    1.600000e+01,   -1.427497e+01
    9383,   -2.835621e+01,    1.600000e+01,   -1.075696e+01
    9384,   -2.824476e+01,    1.600000e+01,   -7.218385e+00
    9385,   -2.809699e+01,    1.600000e+01,   -3.623012e+00
    9386,   -6.115298e+00,    1.600000e+01,   -1.074548e+01
    9387,   -4.971915e+00,    1.600000e+01,   -1.583653e+01
    9388,   -4.445702e+00,    1.600000e+01,   -2.009730e+01
    9389,   -4.191903e+00,    1.600000e+01,   -2.410085e+01
    9390,   -4.077926e+00,    1.600000e+01,   -2.806510e+01
    9391,   -2.415753e+01,    1.600000e+01,   -3.702511e+00
    9392,   -2.025184e+01,    1.600000e+01,   -3.836006e+00
    9393,   -1.611513e+01,    1.600000e+01,   -4.193864e+00
    9394,   -1.111514e+01,    1.600000e+01,   -5.459440e+00
    9395,   -8.141415e+00,    1.600000e+01,   -2.816118e+01
    9396,   -1.219346e+01,    1.600000e+01,   -2.827351e+01
    9397,   -1.623036e+01,    1.600000e+01,   -2.834176e+01
    9398,   -2.023601e+01,    1.600000e+01,   -2.836744e+01
    9399,   -2.417631e+01,    1.600000e+01,   -2.840096e+01
    9400,   -2.432790e+01,    1.600000e+01,   -2.483605e+01
    9401,   -2.448652e+01,    1.600000e+01,   -2.130537e+01
    9402,   -2.465907e+01,    1.600000e+01,   -1.780334e+01
    9403,   -2.478686e+01,    1.600000e+01,   -1.432356e+01
    9404,   -2.473746e+01,    1.600000e+01,   -1.084324e+01
    9405,   -2.445805e+01,    1.600000e+01,   -7.311066e+00
    9406,   -8.329470e+00,    1.600000e+01,   -2.432318e+01
    9407,   -1.242700e+01,    1.600000e+01,   -2.457638e+01
    9408,   -1.648244e+01,    1.600000e+01,   -2.471661e+01
    9409,   -2.044109e+01,    1.600000e+01,   -2.479215e+01
    9410,   -2.073794e+01,    1.600000e+01,   -7.472816e+00
    9411,   -1.701334e+01,    1.600000e+01,   -7.988912e+00
    9412,   -1.347176e+01,    1.600000e+01,   -9.289633e+00
    9413,   -1.091751e+01,    1.600000e+01,   -1.253857e+01
    9414,   -9.455376e+00,    1.600000e+01,   -1.650098e+01
    9415,   -8.771335e+00,    1.600000e+01,   -2.044300e+01
    9416,   -2.068547e+01,    1.600000e+01,   -2.126486e+01
    9417,   -2.098036e+01,    1.600000e+01,   -1.778614e+01
    9418,   -2.112516e+01,    1.600000e+01,   -1.432703e+01
    9419,   -2.112485e+01,    1.600000e+01,   -1.093143e+01
    9420,   -1.776305e+01,    1.600000e+01,   -1.107779e+01
    9421,   -1.516459e+01,    1.600000e+01,   -1.143430e+01
    9422,   -1.425895e+01,    1.600000e+01,   -1.393548e+01
    9423,   -1.345700e+01,    1.600000e+01,   -1.724809e+01
    9424,   -1.287449e+01,    1.600000e+01,   -2.085451e+01
    9425,   -1.680595e+01,    1.600000e+01,   -2.114977e+01
    9426,   -1.761916e+01,    1.600000e+01,   -1.425846e+01
    9427,   -1.722000e+01,    1.600000e+01,   -1.761839e+01
    9428,   -3.200000e+01,    0.000000e+00,    0.000000e+00
    9429,   -2.800000e+01,    0.000000e+00,    0.000000e+00
    9430,   -2.400000e+01,    0.000000e+00,    0.000000e+00
    9431,   -2.000000e+01,    0.000000e+00,    0.000000e+00
    9432,   -1.600000e+01,    0.000000e+00,    0.000000e+00
    9433,   -1.200000e+01,    0.000000e+00,    0.000000e+00
    9434,   -3.200000e+01,    0.000000e+00,   -3.200000e+01
    9435,   -3.200000e+01,    0.000000e+00,   -3.555556e+00
    9436,   -3.200000e+01,    0.000000e+00,   -7.111111e+00
    9437,   -3.200000e+01,    0.000000e+00,   -1.066667e+01
    9438,   -3.200000e+01,    0.000000e+00,   -1.422222e+01
    9439,   -3.200000e+01,    0.000000e+00,   -1.777778e+01
    9440,   -3.200000e+01,    0.000000e+00,   -2.133333e+01
    9441,   -3.200000e+01,    0.000000e+00,   -2.488889e+01
    9442,   -3.200000e+01,    0.000000e+00,   -2.844444e+01
    9443,   -4.000000e+00,    0.000000e+00,   -3.200000e+01
    9444,   -8.000000e+00,    0.000000e+00,   -3.200000e+01
    9445,   -1.200000e+01,    0.000000e+00,   -3.200000e+01
    9446,   -1.600000e+01,    0.000000e+00,   -3.200000e+01
    9447,   -2.000000e+01,    0.000000e+00,   -3.200000e+01
    9448,   -2.400000e+01,    0.000000e+00,   -3.200000e+01
    9449,   -2.800000e+01,    0.000000e+00,   -3.200000e+01
    9450,   -2.810168e+01,    0.000000e+00,   -2.842024e+01
    9451,   -2.817692e+01,    0.000000e+00,   -2.486734e+01
    9452,   -2.824521e+01,    0.000000e+00,   -2.133006e+01
    9453,   -2.832324e+01,    0.000000e+00,   -1.779648e+01
    9454,   -2.837608e+01,    0.000000e+00,   -1.427497e+01
    9455,   -2.835621e+01,    0.000000e+00,   -1.075696e+01
    9456,   -2.824476e+01,    0.000000e+00,   -7.218385e+00
    9457,   -2.809699e+01,    0.000000e+00,   -3.623012e+00
    9458,   -6.115298e+00,    0.000000e+00,   -1.074548e+01
    9459,   -4.971915e+00,    0.000000e+00,   -1.583653e+01
    9460,   -4.445702e+00,    0.000000e+00,   -2.009730e+01
    9461,   -4.191903e+00,    0.000000e+00,   -2.410085e+01
    9462,   -4.077926e+00,    0.000000e+00,   -2.806510e+01
    9463,   -2.415753e+01,    0.000000e+00,   -3.702511e+00
    9464,   -2.025184e+01,    0.000000e+00,   -3.836006e+00
    9465,   -1.611513e+01,    0.000000e+00,   -4.193864e+00
    9466,   -1.111514e+01,    0.000000e+00,   -5.459440e+00
    9467,   -8.141415e+00,    0.000000e+00,   -2.816118e+01
    9468,   -1.219346e+01,    0.000000e+00,   -2.827351e+01
    9469,   -1.623036e+01,    0.000000e+00,   -2.834176e+01
    9470,   -2.023601e+01,    0.000000e+00,   -2.836744e+01
    9471,   -2.417631e+01,    0.000000e+00,   -2.840096e+01
    9472,   -2.432790e+01,    0.000000e+00,   -2.483605e+01
    9473,   -2.448652e+01,    0.000000e+00,   -2.130537e+01
    9474,   -2.465907e+01,    0.000000e+00,   -1.780334e+01
    9475,   -2.478686e+01,    0.000000e+00,   -1.432356e+01
    9476,   -2.473746e+01,    0.000000e+00,   -1.084324e+01
    9477,   -2.445805e+01,    0.000000e+00,   -7.311066e+00
    9478,   -8.329470e+00,    0.000000e+00,   -2.432318e+01
    9479,   -1.242700e+01,    0.000000e+00,   -2.457638e+01
    9480,   -1.648244e+01,    0.000000e+00,   -2.471661e+01
    9481,   -2.044109e+01,    0.000000e+00,   -2.479215e+01
    9482,   -2.073794e+01,    0.000000e+00,   -7.472816e+00
    9483,   -1.701334e+01,    0.000000e+00,   -7.988912e+00
    9484,   -1.347176e+01,    0.000000e+00,   -9.289633e+00
    9485,   -1.091751e+01,    0.000000e+00,   -1.253857e+01
    9486,   -9.455376e+00,    0.000000e+00,   -1.650098e+01
    9487,   -8.771335e+00,    0.000000e+00,   -2.044300e+01
    9488,   -2.068547e+01,    0.000000e+00,   -2.126486e+01
    9489,   -2.098036e+01,    0.000000e+00,   -1.778614e+01
    9490,   -2.112516e+01,    0.000000e+00,   -1.432703e+01
    9491,   -2.112485e+01,    0.000000e+00,   -1.093143e+01
    9492,   -1.776305e+01,    0.000000e+00,   -1.107779e+01
    9493,   -1.516459e+01,    0.000000e+00,   -1.143430e+01
    9494,   -1.425895e+01,    0.000000e+00,   -1.393548e+01
    9495,   -1.345700e+01,    0.000000e+00,   -1.724809e+01
    9496,   -1.287449e+01,    0.000000e+00,   -2.085451e+01
    9497,   -1.680595e+01,    0.000000e+00,   -2.114977e+01
    9498,   -1.761916e+01,    0.000000e+00,   -1.425846e+01
    9499,   -1.722000e+01,    0.000000e+00,   -1.761839e+01
    9860,    0.000000e+00,   -5.510911e-16,   -9.000000e+00
    9861,    0.000000e+00,   -4.898587e-16,   -8.000000e+00
    9862,    0.000000e+00,   -5.000000e+01,   -9.000000e+00
    9863,    0.000000e+00,   -4.615385e+01,   -9.000000e+00
    9864,    0.000000e+00,   -4.230769e+01,   -9.000000e+00
    9865,    0.000000e+00,   -3.846154e+01,   -9.000000e+00
    9866,    0.000000e+00,   -3.461538e+01,   -9.000000e+00
    9867,    0.000000e+00,   -3.076923e+01,   -9.000000e+00
    9868,    0.000000e+00,   -2.692308e+01,   -9.000000e+00
    9869,    0.000000e+00,   -2.307692e+01,   -9.000000e+00
    9870,    0.000000e+00,   -1.923077e+01,   -9.000000e+00
    9871,    0.000000e+00,   -1.538462e+01,   -9.000000e+00
    9872,    0.000000e+00,   -1.153846e+01,   -9.000000e+00
    9873,    0.000000e+00,   -7.692308e+00,   -9.000000e+00
    9874,    0.000000e+00,   -3.846154e+00,   -9.000000e+00
    9875,    0.000000e+00,   -5.000000e+01,   -8.000000e+00
    9876,    0.000000e+00,   -3.846154e+00,   -8.000000e+00
    9877,    0.000000e+00,   -7.692308e+00,   -8.000000e+00
    9878,    0.000000e+00,   -1.153846e+01,   -8.000000e+00
    9879,    0.000000e+00,   -1.538462e+01,   -8.000000e+00
    9880,    0.000000e+00,   -1.923077e+01,   -8.000000e+00
    9881,    0.000000e+00,   -2.307692e+01,   -8.000000e+00
    9882,    0.000000e+00,   -2.692308e+01,   -8.000000e+00
    9883,    0.000000e+00,   -3.076923e+01,   -8.000000e+00
    9884,    0.000000e+00,   -3.461538e+01,   -8.000000e+00
    9885,    0.000000e+00,   -3.846154e+01,   -8.000000e+00
    9886,    0.000000e+00,   -4.230769e+01,   -8.000000e+00
    9887,    0.000000e+00,   -4.615385e+01,   -8.000000e+00
    9888,    9.000000e+00,   -5.000000e+01,    1.530808e-15
    9889,    4.500000e+00,   -5.000000e+01,   -7.794229e+00
    9890,    7.794229e+00,   -5.000000e+01,   -4.500000e+00
    9891,    8.000000e+00,   -5.000000e+01,    1.530808e-15
    9892,    6.928203e+00,   -5.000000e+01,   -4.000000e+00
    9893,    4.000000e+00,   -5.000000e+01,   -6.928203e+00
    9894,    9.000000e+00,    0.000000e+00,   -1.530808e-15
    9895,    7.794229e+00,   -2.755455e-16,   -4.500000e+00
    9896,    4.500000e+00,   -4.772589e-16,   -7.794229e+00
    9897,    9.000000e+00,   -4.615385e+01,    1.295299e-15
    9898,    9.000000e+00,   -4.230769e+01,    1.059790e-15
    9899,    9.000000e+00,   -3.846154e+01,    8.242815e-16
    9900,    9.000000e+00,   -3.461538e+01,    5.887725e-16
    9901,    9.000000e+00,   -3.076923e+01,    3.532635e-16
    9902,    9.000000e+00,   -2.692308e+01,    1.177545e-16
    9903,    9.000000e+00,   -2.307692e+01,   -1.177545e-16
    9904,    9.000000e+00,   -1.923077e+01,   -3.532635e-16
    9905,    9.000000e+00,   -1.538462e+01,   -5.887725e-16
    9906,    9.000000e+00,   -1.153846e+01,   -8.242815e-16
    9907,    9.000000e+00,   -7.692308e+00,   -1.059790e-15
    9908,    9.000000e+00,   -3.846154e+00,   -1.295299e-15
    9909,    4.500000e+00,   -4.615385e+01,   -7.794229e+00
    9910,    4.500000e+00,   -4.230769e+01,   -7.794229e+00
    9911,    4.500000e+00,   -3.846154e+01,   -7.794229e+00
    9912,    4.500000e+00,   -3.461538e+01,   -7.794229e+00
    9913,    4.500000e+00,   -3.076923e+01,   -7.794229e+00
    9914,    4.500000e+00,   -2.692308e+01,   -7.794229e+00
    9915,    4.500000e+00,   -2.307692e+01,   -7.794229e+00
    9916,    4.500000e+00,   -1.923077e+01,   -7.794229e+00
    9917,    4.500000e+00,   -1.538462e+01,   -7.794229e+00
    9918,    4.500000e+00,   -1.153846e+01,   -7.794229e+00
    9919,    4.500000e+00,   -7.692308e+00,   -7.794229e+00
    9920,    4.500000e+00,   -3.846154e+00,   -7.794229e+00
    9921,    7.794229e+00,   -4.615385e+01,   -4.500000e+00
    9922,    7.794229e+00,   -4.230769e+01,   -4.500000e+00
    9923,    7.794229e+00,   -3.846154e+01,   -4.500000e+00
    9924,    7.794229e+00,   -3.461538e+01,   -4.500000e+00
    9925,    7.794229e+00,   -3.076923e+01,   -4.500000e+00
    9926,    7.794229e+00,   -2.692308e+01,   -4.500000e+00
    9927,    7.794229e+00,   -2.307692e+01,   -4.500000e+00
    9928,    7.794229e+00,   -1.923077e+01,   -4.500000e+00
    9929,    7.794229e+00,   -1.538462e+01,   -4.500000e+00
    9930,    7.794229e+00,   -1.153846e+01,   -4.500000e+00
    9931,    7.794229e+00,   -7.692308e+00,   -4.500000e+00
    9932,    7.794229e+00,   -3.846154e+00,   -4.500000e+00
    9933,    8.000000e+00,    0.000000e+00,   -1.530808e-15
    9934,    8.000000e+00,   -3.846154e+00,   -1.295299e-15
    9935,    8.000000e+00,   -7.692308e+00,   -1.059790e-15
    9936,    8.000000e+00,   -1.153846e+01,   -8.242815e-16
    9937,    8.000000e+00,   -1.538462e+01,   -5.887725e-16
    9938,    8.000000e+00,   -1.923077e+01,   -3.532635e-16
    9939,    8.000000e+00,   -2.307692e+01,   -1.177545e-16
    9940,    8.000000e+00,   -2.692308e+01,    1.177545e-16
    9941,    8.000000e+00,   -3.076923e+01,    3.532635e-16
    9942,    8.000000e+00,   -3.461538e+01,    5.887725e-16
    9943,    8.000000e+00,   -3.846154e+01,    8.242815e-16
    9944,    8.000000e+00,   -4.230769e+01,    1.059790e-15
    9945,    8.000000e+00,   -4.615385e+01,    1.295299e-15
    9946,    4.000000e+00,   -4.242301e-16,   -6.928203e+00
    9947,    6.928203e+00,   -2.449294e-16,   -4.000000e+00
    9948,    4.000000e+00,   -3.846154e+00,   -6.928203e+00
    9949,    4.000000e+00,   -7.692308e+00,   -6.928203e+00
    9950,    4.000000e+00,   -1.153846e+01,   -6.928203e+00
    9951,    4.000000e+00,   -1.538462e+01,   -6.928203e+00
    9952,    4.000000e+00,   -1.923077e+01,   -6.928203e+00
    9953,    4.000000e+00,   -2.307692e+01,   -6.928203e+00
    9954,    4.000000e+00,   -2.692308e+01,   -6.928203e+00
    9955,    4.000000e+00,   -3.076923e+01,   -6.928203e+00
    9956,    4.000000e+00,   -3.461538e+01,   -6.928203e+00
    9957,    4.000000e+00,   -3.846154e+01,   -6.928203e+00
    9958,    4.000000e+00,   -4.230769e+01,   -6.928203e+00
    9959,    4.000000e+00,   -4.615385e+01,   -6.928203e+00
    9960,    6.928203e+00,   -3.846154e+00,   -4.000000e+00
    9961,    6.928203e+00,   -7.692308e+00,   -4.000000e+00
    9962,    6.928203e+00,   -1.153846e+01,   -4.000000e+00
    9963,    6.928203e+00,   -1.538462e+01,   -4.000000e+00
    9964,    6.928203e+00,   -1.923077e+01,   -4.000000e+00
    9965,    6.928203e+00,   -2.307692e+01,   -4.000000e+00
    9966,    6.928203e+00,   -2.692308e+01,   -4.000000e+00
    9967,    6.928203e+00,   -3.076923e+01,   -4.000000e+00
    9968,    6.928203e+00,   -3.461538e+01,   -4.000000e+00
    9969,    6.928203e+00,   -3.846154e+01,   -4.000000e+00
    9970,    6.928203e+00,   -4.230769e+01,   -4.000000e+00
    9971,    6.928203e+00,   -4.615385e+01,   -4.000000e+00
   13556,   -8.000000e+00,    9.373499e-32,    0.000000e+00
   13557,   -6.928203e+00,   -2.449294e-16,   -4.000000e+00
   13558,   -4.000000e+00,   -4.242301e-16,   -6.928203e+00
   13559,   -8.000000e+00,   -5.000000e+01,    0.000000e+00
   13560,   -8.000000e+00,   -4.615385e+01,    1.295299e-15
   13561,   -8.000000e+00,   -4.230769e+01,    1.059790e-15
   13562,   -8.000000e+00,   -3.846154e+01,    8.242815e-16
   13563,   -8.000000e+00,   -3.461538e+01,    5.887725e-16
   13564,   -8.000000e+00,   -3.076923e+01,    3.532635e-16
   13565,   -8.000000e+00,   -2.692308e+01,    1.177545e-16
   13566,   -8.000000e+00,   -2.307692e+01,   -1.177545e-16
   13567,   -8.000000e+00,   -1.923077e+01,   -3.532635e-16
   13568,   -8.000000e+00,   -1.538462e+01,   -5.887725e-16
   13569,   -8.000000e+00,   -1.153846e+01,   -8.242815e-16
   13570,   -8.000000e+00,   -7.692308e+00,   -1.059790e-15
   13571,   -8.000000e+00,   -3.846154e+00,   -1.295299e-15
   13572,   -4.000000e+00,   -5.000000e+01,   -6.928203e+00
   13573,   -6.928203e+00,   -5.000000e+01,   -4.000000e+00
   13574,   -4.000000e+00,   -4.615385e+01,   -6.928203e+00
   13575,   -4.000000e+00,   -4.230769e+01,   -6.928203e+00
   13576,   -4.000000e+00,   -3.846154e+01,   -6.928203e+00
   13577,   -4.000000e+00,   -3.461538e+01,   -6.928203e+00
   13578,   -4.000000e+00,   -3.076923e+01,   -6.928203e+00
   13579,   -4.000000e+00,   -2.692308e+01,   -6.928203e+00
   13580,   -4.000000e+00,   -2.307692e+01,   -6.928203e+00
   13581,   -4.000000e+00,   -1.923077e+01,   -6.928203e+00
   13582,   -4.000000e+00,   -1.538462e+01,   -6.928203e+00
   13583,   -4.000000e+00,   -1.153846e+01,   -6.928203e+00
   13584,   -4.000000e+00,   -7.692308e+00,   -6.928203e+00
   13585,   -4.000000e+00,   -3.846154e+00,   -6.928203e+00
   13586,   -6.928203e+00,   -4.615385e+01,   -4.000000e+00
   13587,   -6.928203e+00,   -4.230769e+01,   -4.000000e+00
   13588,   -6.928203e+00,   -3.846154e+01,   -4.000000e+00
   13589,   -6.928203e+00,   -3.461538e+01,   -4.000000e+00
   13590,   -6.928203e+00,   -3.076923e+01,   -4.000000e+00
   13591,   -6.928203e+00,   -2.692308e+01,   -4.000000e+00
   13592,   -6.928203e+00,   -2.307692e+01,   -4.000000e+00
   13593,   -6.928203e+00,   -1.923077e+01,   -4.000000e+00
   13594,   -6.928203e+00,   -1.538462e+01,   -4.000000e+00
   13595,   -6.928203e+00,   -1.153846e+01,   -4.000000e+00
   13596,   -6.928203e+00,   -7.692308e+00,   -4.000000e+00
   13597,   -6.928203e+00,   -3.846154e+00,   -4.000000e+00
   13598,   -9.000000e+00,    9.373499e-32,    0.000000e+00
   13599,   -4.500000e+00,   -4.772589e-16,   -7.794229e+00
   13600,   -7.794229e+00,   -2.755455e-16,   -4.500000e+00
   13601,   -9.000000e+00,   -5.000000e+01,    0.000000e+00
   13602,   -9.000000e+00,   -3.846154e+00,   -1.295299e-15
   13603,   -9.000000e+00,   -7.692308e+00,   -1.059790e-15
   13604,   -9.000000e+00,   -1.153846e+01,   -8.242815e-16
   13605,   -9.000000e+00,   -1.538462e+01,   -5.887725e-16
   13606,   -9.000000e+00,   -1.923077e+01,   -3.532635e-16
   13607,   -9.000000e+00,   -2.307692e+01,   -1.177545e-16
   13608,   -9.000000e+00,   -2.692308e+01,    1.177545e-16
   13609,   -9.000000e+00,   -3.076923e+01,    3.532635e-16
   13610,   -9.000000e+00,   -3.461538e+01,    5.887725e-16
   13611,   -9.000000e+00,   -3.846154e+01,    8.242815e-16
   13612,   -9.000000e+00,   -4.230769e+01,    1.059790e-15
   13613,   -9.000000e+00,   -4.615385e+01,    1.295299e-15
   13614,   -7.794229e+00,   -5.000000e+01,   -4.500000e+00
   13615,   -4.500000e+00,   -5.000000e+01,   -7.794229e+00
   13616,   -4.500000e+00,   -3.846154e+00,   -7.794229e+00
   13617,   -4.500000e+00,   -7.692308e+00,   -7.794229e+00
   13618,   -4.500000e+00,   -1.153846e+01,   -7.794229e+00
   13619,   -4.500000e+00,   -1.538462e+01,   -7.794229e+00
   13620,   -4.500000e+00,   -1.923077e+01,   -7.794229e+00
   13621,   -4.500000e+00,   -2.307692e+01,   -7.794229e+00
   13622,   -4.500000e+00,   -2.692308e+01,   -7.794229e+00
   13623,   -4.500000e+00,   -3.076923e+01,   -7.794229e+00
   13624,   -4.500000e+00,   -3.461538e+01,   -7.794229e+00
   13625,   -4.500000e+00,   -3.846154e+01,   -7.794229e+00
   13626,   -4.500000e+00,   -4.230769e+01,   -7.794229e+00
   13627,   -4.500000e+00,   -4.615385e+01,   -7.794229e+00
   13628,   -7.794229e+00,   -3.846154e+00,   -4.500000e+00
   13629,   -7.794229e+00,   -7.692308e+00,   -4.500000e+00
   13630,   -7.794229e+00,   -1.153846e+01,   -4.500000e+00
   13631,   -7.794229e+00,   -1.538462e+01,   -4.500000e+00
   13632,   -7.794229e+00,   -1.923077e+01,   -4.500000e+00
   13633,   -7.794229e+00,   -2.307692e+01,   -4.500000e+00
   13634,   -7.794229e+00,   -2.692308e+01,   -4.500000e+00
   13635,   -7.794229e+00,   -3.076923e+01,   -4.500000e+00
   13636,   -7.794229e+00,   -3.461538e+01,   -4.500000e+00
   13637,   -7.794229e+00,   -3.846154e+01,   -4.500000e+00
   13638,   -7.794229e+00,   -4.230769e+01,   -4.500000e+00
   13639,   -7.794229e+00,   -4.615385e+01,   -4.500000e+00
********************************** E L E M E N T S ****************************
*ELEMENT, TYPE=C3D8R, ELSET=steel
       1,    4443,    4329,    4333,    4460,    4317,    4316,    4319,    4321
       2,    4459,    4427,    4443,    4460,    4322,    4318,    4317,    4321
       3,    4385,    4340,    4427,    4459,    4315,    4314,    4318,    4322
       4,    4331,    4324,    4385,    4459,    4320,    4313,    4315,    4322
       5,    4333,    4331,    4459,    4460,    4319,    4320,    4322,    4321
       6,    4444,    4330,    4334,    4462,    4443,    4329,    4333,    4460
       7,    4461,    4428,    4444,    4462,    4459,    4427,    4443,    4460
       8,    4384,    4341,    4428,    4461,    4385,    4340,    4427,    4459
       9,    4332,    4325,    4384,    4461,    4331,    4324,    4385,    4459
      10,    4334,    4332,    4461,    4462,    4333,    4331,    4459,    4460
      11,    4445,    4326,    4327,    4464,    4444,    4330,    4334,    4462
      12,    4463,    4429,    4445,    4464,    4461,    4428,    4444,    4462
      13,    4383,    4342,    4429,    4463,    4384,    4341,    4428,    4461
      14,    4328,    4323,    4383,    4463,    4332,    4325,    4384,    4461
      15,    4327,    4328,    4463,    4464,    4334,    4332,    4461,    4462
      16,    4446,    4336,    4337,    4466,    4445,    4326,    4327,    4464
      17,    4465,    4430,    4446,    4466,    4463,    4429,    4445,    4464
      18,    4382,    4343,    4430,    4465,    4383,    4342,    4429,    4463
      19,    4338,    4335,    4382,    4465,    4328,    4323,    4383,    4463
      20,    4337,    4338,    4465,    4466,    4327,    4328,    4463,    4464
      21,    4447,    4398,    4402,    4468,    4446,    4336,    4337,    4466
      22,    4467,    4431,    4447,    4468,    4465,    4430,    4446,    4466
      23,    4381,    4344,    4431,    4467,    4382,    4343,    4430,    4465
      24,    4401,    4368,    4381,    4467,    4338,    4335,    4382,    4465
      25,    4402,    4401,    4467,    4468,    4337,    4338,    4465,    4466
      26,    4448,    4397,    4404,    4470,    4447,    4398,    4402,    4468
      27,    4469,    4432,    4448,    4470,    4467,    4431,    4447,    4468
      28,    4380,    4345,    4432,    4469,    4381,    4344,    4431,    4467
      29,    4403,    4367,    4380,    4469,    4401,    4368,    4381,    4467
      30,    4404,    4403,    4469,    4470,    4402,    4401,    4467,    4468
      31,    4449,    4396,    4406,    4472,    4448,    4397,    4404,    4470
      32,    4471,    4433,    4449,    4472,    4469,    4432,    4448,    4470
      33,    4379,    4346,    4433,    4471,    4380,    4345,    4432,    4469
      34,    4405,    4366,    4379,    4471,    4403,    4367,    4380,    4469
      35,    4406,    4405,    4471,    4472,    4404,    4403,    4469,    4470
      36,    4450,    4395,    4408,    4474,    4449,    4396,    4406,    4472
      37,    4473,    4434,    4450,    4474,    4471,    4433,    4449,    4472
      38,    4378,    4347,    4434,    4473,    4379,    4346,    4433,    4471
      39,    4407,    4365,    4378,    4473,    4405,    4366,    4379,    4471
      40,    4408,    4407,    4473,    4474,    4406,    4405,    4471,    4472
      41,    4451,    4394,    4410,    4476,    4450,    4395,    4408,    4474
      42,    4475,    4435,    4451,    4476,    4473,    4434,    4450,    4474
      43,    4377,    4348,    4435,    4475,    4378,    4347,    4434,    4473
      44,    4409,    4364,    4377,    4475,    4407,    4365,    4378,    4473
      45,    4410,    4409,    4475,    4476,    4408,    4407,    4473,    4474
      46,    4452,    4393,    4412,    4478,    4451,    4394,    4410,    4476
      47,    4477,    4436,    4452,    4478,    4475,    4435,    4451,    4476
      48,    4376,    4349,    4436,    4477,    4377,    4348,    4435,    4475
      49,    4411,    4363,    4376,    4477,    4409,    4364,    4377,    4475
      50,    4412,    4411,    4477,    4478,    4410,    4409,    4475,    4476
      51,    4453,    4392,    4414,    4480,    4452,    4393,    4412,    4478
      52,    4479,    4437,    4453,    4480,    4477,    4436,    4452,    4478
      53,    4375,    4350,    4437,    4479,    4376,    4349,    4436,    4477
      54,    4413,    4362,    4375,    4479,    4411,    4363,    4376,    4477
      55,    4414,    4413,    4479,    4480,    4412,    4411,    4477,    4478
      56,    4454,    4391,    4416,    4482,    4453,    4392,    4414,    4480
      57,    4481,    4438,    4454,    4482,    4479,    4437,    4453,    4480
      58,    4374,    4351,    4438,    4481,    4375,    4350,    4437,    4479
      59,    4415,    4361,    4374,    4481,    4413,    4362,    4375,    4479
      60,    4416,    4415,    4481,    4482,    4414,    4413,    4479,    4480
      61,    4455,    4390,    4418,    4484,    4454,    4391,    4416,    4482
      62,    4483,    4439,    4455,    4484,    4481,    4438,    4454,    4482
      63,    4373,    4352,    4439,    4483,    4374,    4351,    4438,    4481
      64,    4417,    4360,    4373,    4483,    4415,    4361,    4374,    4481
      65,    4418,    4417,    4483,    4484,    4416,    4415,    4481,    4482
      66,    4456,    4389,    4420,    4486,    4455,    4390,    4418,    4484
      67,    4485,    4440,    4456,    4486,    4483,    4439,    4455,    4484
      68,    4372,    4353,    4440,    4485,    4373,    4352,    4439,    4483
      69,    4419,    4359,    4372,    4485,    4417,    4360,    4373,    4483
      70,    4420,    4419,    4485,    4486,    4418,    4417,    4483,    4484
      71,    4457,    4388,    4422,    4488,    4456,    4389,    4420,    4486
      72,    4487,    4441,    4457,    4488,    4485,    4440,    4456,    4486
      73,    4371,    4354,    4441,    4487,    4372,    4353,    4440,    4485
      74,    4421,    4358,    4371,    4487,    4419,    4359,    4372,    4485
      75,    4422,    4421,    4487,    4488,    4420,    4419,    4485,    4486
      76,    4458,    4387,    4424,    4490,    4457,    4388,    4422,    4488
      77,    4489,    4442,    4458,    4490,    4487,    4441,    4457,    4488
      78,    4370,    4355,    4442,    4489,    4371,    4354,    4441,    4487
      79,    4423,    4357,    4370,    4489,    4421,    4358,    4371,    4487
      80,    4424,    4423,    4489,    4490,    4422,    4421,    4487,    4488
      81,    4426,    4386,    4400,    4492,    4458,    4387,    4424,    4490
      82,    4491,    4425,    4426,    4492,    4489,    4442,    4458,    4490
      83,    4369,    4339,    4425,    4491,    4370,    4355,    4442,    4489
      84,    4399,    4356,    4369,    4491,    4423,    4357,    4370,    4489
      85,    4400,    4399,    4491,    4492,    4424,    4423,    4489,    4490
      86,    4837,    4855,    4847,    4848,    4545,    4562,    4555,    4556
      87,    4837,    4838,    4852,    4855,    4545,    4546,    4563,    4562
      88,    4855,    4852,    4857,    4854,    4562,    4563,    4565,    4561
      89,    4853,    4854,    4857,    4856,    4560,    4561,    4565,    4564
      90,    4851,    4856,    4857,    4852,    4559,    4564,    4565,    4563
      91,    4842,    4843,    4853,    4856,    4550,    4551,    4560,    4564
      92,    4841,    4842,    4856,    4851,    4549,    4550,    4564,    4559
      93,    4846,    4847,    4855,    4854,    4554,    4555,    4562,    4561
      94,    4845,    4846,    4854,    4853,    4553,    4554,    4561,    4560
      95,    4844,    4845,    4853,    4843,    4552,    4553,    4560,    4551
      96,    4839,    4840,    4841,    4851,    4547,    4548,    4549,    4559
      97,    4838,    4839,    4851,    4852,    4546,    4547,    4559,    4563
      98,    4836,    4837,    4848,    4849,    4544,    4545,    4556,    4558
      99,    4835,    4836,    4849,    4850,    4543,    4544,    4558,    4557
     100,    4828,    4829,    4835,    4850,    4536,    4537,    4543,    4557
     101,    4827,    4828,    4850,    4849,    4535,    4536,    4557,    4558
     102,    4826,    4827,    4849,    4848,    4534,    4535,    4558,    4556
     103,    4825,    4826,    4848,    4847,    4533,    4534,    4556,    4555
     104,    4824,    4825,    4847,    4846,    4532,    4533,    4555,    4554
     105,    4823,    4824,    4846,    4845,    4531,    4532,    4554,    4553
     106,    4822,    4823,    4845,    4844,    4530,    4531,    4553,    4552
     107,    4834,    4821,    4822,    4844,    4542,    4529,    4530,    4552
     108,    4833,    4834,    4844,    4843,    4541,    4542,    4552,    4551
     109,    4832,    4833,    4843,    4842,    4540,    4541,    4551,    4550
     110,    4831,    4832,    4842,    4841,    4539,    4540,    4550,    4549
     111,    4830,    4831,    4841,    4840,    4538,    4539,    4549,    4548
     112,    4819,    4820,    4830,    4840,    4527,    4528,    4538,    4548
     113,    4818,    4819,    4840,    4839,    4526,    4527,    4548,    4547
     114,    4817,    4818,    4839,    4838,    4525,    4526,    4547,    4546
     115,    4816,    4817,    4838,    4837,    4524,    4525,    4546,    4545
     116,    4815,    4816,    4837,    4836,    4523,    4524,    4545,    4544
     117,    4814,    4815,    4836,    4835,    4522,    4523,    4544,    4543
     118,    4813,    4814,    4835,    4829,    4521,    4522,    4543,    4537
     119,    4338,    4337,    4826,    4825,    4328,    4327,    4534,    4533
     120,    4797,    4798,    4821,    4834,    4515,    4514,    4529,    4542
     121,    4796,    4797,    4834,    4833,    4516,    4515,    4542,    4541
     122,    4795,    4796,    4833,    4832,    4517,    4516,    4541,    4540
     123,    4794,    4795,    4832,    4831,    4518,    4517,    4540,    4539
     124,    4793,    4794,    4831,    4830,    4519,    4518,    4539,    4538
     125,    4792,    4793,    4830,    4820,    4520,    4519,    4538,    4528
     126,    4803,    4804,    4813,    4829,    4501,    4500,    4521,    4537
     127,    4802,    4803,    4829,    4828,    4502,    4501,    4537,    4536
     128,    4801,    4802,    4828,    4827,    4503,    4502,    4536,    4535
     129,    4800,    4801,    4827,    4826,    4504,    4503,    4535,    4534
     130,    4336,    4800,    4826,    4337,    4326,    4504,    4534,    4327
     131,    4786,    4335,    4338,    4825,    4498,    4323,    4328,    4533
     132,    4787,    4786,    4825,    4824,    4497,    4498,    4533,    4532
     133,    4788,    4787,    4824,    4823,    4496,    4497,    4532,    4531
     134,    4789,    4788,    4823,    4822,    4495,    4496,    4531,    4530
     135,    4790,    4789,    4822,    4821,    4494,    4495,    4530,    4529
     136,    4785,    4790,    4821,    4798,    4493,    4494,    4529,    4514
     137,    4812,    4791,    4792,    4820,    4506,    4505,    4520,    4528
     138,    4811,    4812,    4820,    4819,    4507,    4506,    4528,    4527
     139,    4810,    4811,    4819,    4818,    4508,    4507,    4527,    4526
     140,    4809,    4810,    4818,    4817,    4509,    4508,    4526,    4525
     141,    4808,    4809,    4817,    4816,    4510,    4509,    4525,    4524
     142,    4807,    4808,    4816,    4815,    4511,    4510,    4524,    4523
     143,    4806,    4807,    4815,    4814,    4512,    4511,    4523,    4522
     144,    4805,    4806,    4814,    4813,    4513,    4512,    4522,    4521
     145,    4799,    4805,    4813,    4804,    4499,    4513,    4521,    4500
     146,    4545,    4562,    4555,    4556,    4674,    4692,    4684,    4685
     147,    4545,    4546,    4563,    4562,    4674,    4675,    4688,    4692
     148,    4562,    4563,    4565,    4561,    4692,    4688,    4694,    4691
     149,    4560,    4561,    4565,    4564,    4690,    4691,    4694,    4693
     150,    4559,    4564,    4565,    4563,    4689,    4693,    4694,    4688
     151,    4550,    4551,    4560,    4564,    4679,    4680,    4690,    4693
     152,    4549,    4550,    4564,    4559,    4678,    4679,    4693,    4689
     153,    4554,    4555,    4562,    4561,    4683,    4684,    4692,    4691
     154,    4553,    4554,    4561,    4560,    4682,    4683,    4691,    4690
     155,    4552,    4553,    4560,    4551,    4681,    4682,    4690,    4680
     156,    4547,    4548,    4549,    4559,    4676,    4677,    4678,    4689
     157,    4546,    4547,    4559,    4563,    4675,    4676,    4689,    4688
     158,    4544,    4545,    4556,    4558,    4673,    4674,    4685,    4686
     159,    4543,    4544,    4558,    4557,    4672,    4673,    4686,    4687
     160,    4536,    4537,    4543,    4557,    4665,    4666,    4672,    4687
     161,    4535,    4536,    4557,    4558,    4664,    4665,    4687,    4686
     162,    4534,    4535,    4558,    4556,    4663,    4664,    4686,    4685
     163,    4533,    4534,    4556,    4555,    4662,    4663,    4685,    4684
     164,    4532,    4533,    4555,    4554,    4661,    4662,    4684,    4683
     165,    4531,    4532,    4554,    4553,    4660,    4661,    4683,    4682
     166,    4530,    4531,    4553,    4552,    4659,    4660,    4682,    4681
     167,    4542,    4529,    4530,    4552,    4671,    4658,    4659,    4681
     168,    4541,    4542,    4552,    4551,    4670,    4671,    4681,    4680
     169,    4540,    4541,    4551,    4550,    4669,    4670,    4680,    4679
     170,    4539,    4540,    4550,    4549,    4668,    4669,    4679,    4678
     171,    4538,    4539,    4549,    4548,    4667,    4668,    4678,    4677
     172,    4527,    4528,    4538,    4548,    4656,    4657,    4667,    4677
     173,    4526,    4527,    4548,    4547,    4655,    4656,    4677,    4676
     174,    4525,    4526,    4547,    4546,    4654,    4655,    4676,    4675
     175,    4524,    4525,    4546,    4545,    4653,    4654,    4675,    4674
     176,    4523,    4524,    4545,    4544,    4652,    4653,    4674,    4673
     177,    4522,    4523,    4544,    4543,    4651,    4652,    4673,    4672
     178,    4521,    4522,    4543,    4537,    4650,    4651,    4672,    4666
     179,    4328,    4327,    4534,    4533,    4332,    4334,    4663,    4662
     180,    4515,    4514,    4529,    4542,    4596,    4594,    4658,    4671
     181,    4516,    4515,    4542,    4541,    4598,    4596,    4671,    4670
     182,    4517,    4516,    4541,    4540,    4600,    4598,    4670,    4669
     183,    4518,    4517,    4540,    4539,    4602,    4600,    4669,    4668
     184,    4519,    4518,    4539,    4538,    4604,    4602,    4668,    4667
     185,    4520,    4519,    4538,    4528,    4606,    4604,    4667,    4657
     186,    4501,    4500,    4521,    4537,    4619,    4620,    4650,    4666
     187,    4502,    4501,    4537,    4536,    4618,    4619,    4666,    4665
     188,    4503,    4502,    4536,    4535,    4617,    4618,    4665,    4664
     189,    4504,    4503,    4535,    4534,    4616,    4617,    4664,    4663
     190,    4326,    4504,    4534,    4327,    4330,    4616,    4663,    4334
     191,    4498,    4323,    4328,    4533,    4574,    4325,    4332,    4662
     192,    4497,    4498,    4533,    4532,    4576,    4574,    4662,    4661
     193,    4496,    4497,    4532,    4531,    4578,    4576,    4661,    4660
     194,    4495,    4496,    4531,    4530,    4580,    4578,    4660,    4659
     195,    4494,    4495,    4530,    4529,    4582,    4580,    4659,    4658
     196,    4493,    4494,    4529,    4514,    4572,    4582,    4658,    4594
     197,    4506,    4505,    4520,    4528,    4649,    4593,    4606,    4657
     198,    4507,    4506,    4528,    4527,    4647,    4649,    4657,    4656
     199,    4508,    4507,    4527,    4526,    4645,    4647,    4656,    4655
     200,    4509,    4508,    4526,    4525,    4643,    4645,    4655,    4654
     201,    4510,    4509,    4525,    4524,    4641,    4643,    4654,    4653
     202,    4511,    4510,    4524,    4523,    4639,    4641,    4653,    4652
     203,    4512,    4511,    4523,    4522,    4637,    4639,    4652,    4651
     204,    4513,    4512,    4522,    4521,    4635,    4637,    4651,    4650
     205,    4499,    4513,    4521,    4500,    4609,    4635,    4650,    4620
     206,    4674,    4692,    4684,    4685,    4719,    4737,    4729,    4730
     207,    4674,    4675,    4688,    4692,    4719,    4720,    4733,    4737
     208,    4692,    4688,    4694,    4691,    4737,    4733,    4739,    4736
     209,    4690,    4691,    4694,    4693,    4735,    4736,    4739,    4738
     210,    4689,    4693,    4694,    4688,    4734,    4738,    4739,    4733
     211,    4679,    4680,    4690,    4693,    4724,    4725,    4735,    4738
     212,    4678,    4679,    4693,    4689,    4723,    4724,    4738,    4734
     213,    4683,    4684,    4692,    4691,    4728,    4729,    4737,    4736
     214,    4682,    4683,    4691,    4690,    4727,    4728,    4736,    4735
     215,    4681,    4682,    4690,    4680,    4726,    4727,    4735,    4725
     216,    4676,    4677,    4678,    4689,    4721,    4722,    4723,    4734
     217,    4675,    4676,    4689,    4688,    4720,    4721,    4734,    4733
     218,    4673,    4674,    4685,    4686,    4718,    4719,    4730,    4731
     219,    4672,    4673,    4686,    4687,    4717,    4718,    4731,    4732
     220,    4665,    4666,    4672,    4687,    4710,    4711,    4717,    4732
     221,    4664,    4665,    4687,    4686,    4709,    4710,    4732,    4731
     222,    4663,    4664,    4686,    4685,    4708,    4709,    4731,    4730
     223,    4662,    4663,    4685,    4684,    4707,    4708,    4730,    4729
     224,    4661,    4662,    4684,    4683,    4706,    4707,    4729,    4728
     225,    4660,    4661,    4683,    4682,    4705,    4706,    4728,    4727
     226,    4659,    4660,    4682,    4681,    4704,    4705,    4727,    4726
     227,    4671,    4658,    4659,    4681,    4716,    4703,    4704,    4726
     228,    4670,    4671,    4681,    4680,    4715,    4716,    4726,    4725
     229,    4669,    4670,    4680,    4679,    4714,    4715,    4725,    4724
     230,    4668,    4669,    4679,    4678,    4713,    4714,    4724,    4723
     231,    4667,    4668,    4678,    4677,    4712,    4713,    4723,    4722
     232,    4656,    4657,    4667,    4677,    4701,    4702,    4712,    4722
     233,    4655,    4656,    4677,    4676,    4700,    4701,    4722,    4721
     234,    4654,    4655,    4676,    4675,    4699,    4700,    4721,    4720
     235,    4653,    4654,    4675,    4674,    4698,    4699,    4720,    4719
     236,    4652,    4653,    4674,    4673,    4697,    4698,    4719,    4718
     237,    4651,    4652,    4673,    4672,    4696,    4697,    4718,    4717
     238,    4650,    4651,    4672,    4666,    4695,    4696,    4717,    4711
     239,    4332,    4334,    4663,    4662,    4331,    4333,    4708,    4707
     240,    4596,    4594,    4658,    4671,    4597,    4595,    4703,    4716
     241,    4598,    4596,    4671,    4670,    4599,    4597,    4716,    4715
     242,    4600,    4598,    4670,    4669,    4601,    4599,    4715,    4714
     243,    4602,    4600,    4669,    4668,    4603,    4601,    4714,    4713
     244,    4604,    4602,    4668,    4667,    4605,    4603,    4713,    4712
     245,    4606,    4604,    4667,    4657,    4607,    4605,    4712,    4702
     246,    4619,    4620,    4650,    4666,    4624,    4625,    4695,    4711
     247,    4618,    4619,    4666,    4665,    4623,    4624,    4711,    4710
     248,    4617,    4618,    4665,    4664,    4622,    4623,    4710,    4709
     249,    4616,    4617,    4664,    4663,    4621,    4622,    4709,    4708
     250,    4330,    4616,    4663,    4334,    4329,    4621,    4708,    4333
     251,    4574,    4325,    4332,    4662,    4575,    4324,    4331,    4707
     252,    4576,    4574,    4662,    4661,    4577,    4575,    4707,    4706
     253,    4578,    4576,    4661,    4660,    4579,    4577,    4706,    4705
     254,    4580,    4578,    4660,    4659,    4581,    4579,    4705,    4704
     255,    4582,    4580,    4659,    4658,    4583,    4581,    4704,    4703
     256,    4572,    4582,    4658,    4594,    4573,    4583,    4703,    4595
     257,    4649,    4593,    4606,    4657,    4648,    4592,    4607,    4702
     258,    4647,    4649,    4657,    4656,    4646,    4648,    4702,    4701
     259,    4645,    4647,    4656,    4655,    4644,    4646,    4701,    4700
     260,    4643,    4645,    4655,    4654,    4642,    4644,    4700,    4699
     261,    4641,    4643,    4654,    4653,    4640,    4642,    4699,    4698
     262,    4639,    4641,    4653,    4652,    4638,    4640,    4698,    4697
     263,    4637,    4639,    4652,    4651,    4636,    4638,    4697,    4696
     264,    4635,    4637,    4651,    4650,    4634,    4636,    4696,    4695
     265,    4609,    4635,    4650,    4620,    4610,    4634,    4695,    4625
     266,    4719,    4737,    4729,    4730,    4764,    4782,    4774,    4775
     267,    4719,    4720,    4733,    4737,    4764,    4765,    4778,    4782
     268,    4737,    4733,    4739,    4736,    4782,    4778,    4784,    4781
     269,    4735,    4736,    4739,    4738,    4780,    4781,    4784,    4783
     270,    4734,    4738,    4739,    4733,    4779,    4783,    4784,    4778
     271,    4724,    4725,    4735,    4738,    4769,    4770,    4780,    4783
     272,    4723,    4724,    4738,    4734,    4768,    4769,    4783,    4779
     273,    4728,    4729,    4737,    4736,    4773,    4774,    4782,    4781
     274,    4727,    4728,    4736,    4735,    4772,    4773,    4781,    4780
     275,    4726,    4727,    4735,    4725,    4771,    4772,    4780,    4770
     276,    4721,    4722,    4723,    4734,    4766,    4767,    4768,    4779
     277,    4720,    4721,    4734,    4733,    4765,    4766,    4779,    4778
     278,    4718,    4719,    4730,    4731,    4763,    4764,    4775,    4776
     279,    4717,    4718,    4731,    4732,    4762,    4763,    4776,    4777
     280,    4710,    4711,    4717,    4732,    4755,    4756,    4762,    4777
     281,    4709,    4710,    4732,    4731,    4754,    4755,    4777,    4776
     282,    4708,    4709,    4731,    4730,    4753,    4754,    4776,    4775
     283,    4707,    4708,    4730,    4729,    4752,    4753,    4775,    4774
     284,    4706,    4707,    4729,    4728,    4751,    4752,    4774,    4773
     285,    4705,    4706,    4728,    4727,    4750,    4751,    4773,    4772
     286,    4704,    4705,    4727,    4726,    4749,    4750,    4772,    4771
     287,    4716,    4703,    4704,    4726,    4761,    4748,    4749,    4771
     288,    4715,    4716,    4726,    4725,    4760,    4761,    4771,    4770
     289,    4714,    4715,    4725,    4724,    4759,    4760,    4770,    4769
     290,    4713,    4714,    4724,    4723,    4758,    4759,    4769,    4768
     291,    4712,    4713,    4723,    4722,    4757,    4758,    4768,    4767
     292,    4701,    4702,    4712,    4722,    4746,    4747,    4757,    4767
     293,    4700,    4701,    4722,    4721,    4745,    4746,    4767,    4766
     294,    4699,    4700,    4721,    4720,    4744,    4745,    4766,    4765
     295,    4698,    4699,    4720,    4719,    4743,    4744,    4765,    4764
     296,    4697,    4698,    4719,    4718,    4742,    4743,    4764,    4763
     297,    4696,    4697,    4718,    4717,    4741,    4742,    4763,    4762
     298,    4695,    4696,    4717,    4711,    4740,    4741,    4762,    4756
     299,    4331,    4333,    4708,    4707,    4320,    4319,    4753,    4752
     300,    4597,    4595,    4703,    4716,    4586,    4585,    4748,    4761
     301,    4599,    4597,    4716,    4715,    4587,    4586,    4761,    4760
     302,    4601,    4599,    4715,    4714,    4588,    4587,    4760,    4759
     303,    4603,    4601,    4714,    4713,    4589,    4588,    4759,    4758
     304,    4605,    4603,    4713,    4712,    4590,    4589,    4758,    4757
     305,    4607,    4605,    4712,    4702,    4591,    4590,    4757,    4747
     306,    4624,    4625,    4695,    4711,    4612,    4611,    4740,    4756
     307,    4623,    4624,    4711,    4710,    4613,    4612,    4756,    4755
     308,    4622,    4623,    4710,    4709,    4614,    4613,    4755,    4754
     309,    4621,    4622,    4709,    4708,    4615,    4614,    4754,    4753
     310,    4329,    4621,    4708,    4333,    4316,    4615,    4753,    4319
     311,    4575,    4324,    4331,    4707,    4571,    4313,    4320,    4752
     312,    4577,    4575,    4707,    4706,    4570,    4571,    4752,    4751
     313,    4579,    4577,    4706,    4705,    4569,    4570,    4751,    4750
     314,    4581,    4579,    4705,    4704,    4568,    4569,    4750,    4749
     315,    4583,    4581,    4704,    4703,    4567,    4568,    4749,    4748
     316,    4573,    4583,    4703,    4595,    4566,    4567,    4748,    4585
     317,    4648,    4592,    4607,    4702,    4633,    4584,    4591,    4747
     318,    4646,    4648,    4702,    4701,    4632,    4633,    4747,    4746
     319,    4644,    4646,    4701,    4700,    4631,    4632,    4746,    4745
     320,    4642,    4644,    4700,    4699,    4630,    4631,    4745,    4744
     321,    4640,    4642,    4699,    4698,    4629,    4630,    4744,    4743
     322,    4638,    4640,    4698,    4697,    4628,    4629,    4743,    4742
     323,    4636,    4638,    4697,    4696,    4627,    4628,    4742,    4741
     324,    4634,    4636,    4696,    4695,    4626,    4627,    4741,    4740
     325,    4610,    4634,    4695,    4625,    4608,    4626,    4740,    4611
     326,    9066,    9049,    9104,    9107,    9015,    9014,    9017,    9019
     327,    9106,    9050,    9066,    9107,    9020,    9016,    9015,    9019
     328,    4370,    4355,    9050,    9106,    4369,    4339,    9016,    9020
     329,    9105,    4357,    4370,    9106,    9018,    4356,    4369,    9020
     330,    9104,    9105,    9106,    9107,    9017,    9018,    9020,    9019
     331,    9067,    9048,    9102,    9109,    9066,    9049,    9104,    9107
     332,    9108,    9051,    9067,    9109,    9106,    9050,    9066,    9107
     333,    4371,    4354,    9051,    9108,    4370,    4355,    9050,    9106
     334,    9103,    4358,    4371,    9108,    9105,    4357,    4370,    9106
     335,    9102,    9103,    9108,    9109,    9104,    9105,    9106,    9107
     336,    9068,    9047,    9100,    9111,    9067,    9048,    9102,    9109
     337,    9110,    9052,    9068,    9111,    9108,    9051,    9067,    9109
     338,    4372,    4353,    9052,    9110,    4371,    4354,    9051,    9108
     339,    9101,    4359,    4372,    9110,    9103,    4358,    4371,    9108
     340,    9100,    9101,    9110,    9111,    9102,    9103,    9108,    9109
     341,    9069,    9046,    9098,    9113,    9068,    9047,    9100,    9111
     342,    9112,    9053,    9069,    9113,    9110,    9052,    9068,    9111
     343,    4373,    4352,    9053,    9112,    4372,    4353,    9052,    9110
     344,    9099,    4360,    4373,    9112,    9101,    4359,    4372,    9110
     345,    9098,    9099,    9112,    9113,    9100,    9101,    9110,    9111
     346,    9070,    9045,    9096,    9115,    9069,    9046,    9098,    9113
     347,    9114,    9054,    9070,    9115,    9112,    9053,    9069,    9113
     348,    4374,    4351,    9054,    9114,    4373,    4352,    9053,    9112
     349,    9097,    4361,    4374,    9114,    9099,    4360,    4373,    9112
     350,    9096,    9097,    9114,    9115,    9098,    9099,    9112,    9113
     351,    9071,    9044,    9094,    9117,    9070,    9045,    9096,    9115
     352,    9116,    9055,    9071,    9117,    9114,    9054,    9070,    9115
     353,    4375,    4350,    9055,    9116,    4374,    4351,    9054,    9114
     354,    9095,    4362,    4375,    9116,    9097,    4361,    4374,    9114
     355,    9094,    9095,    9116,    9117,    9096,    9097,    9114,    9115
     356,    9072,    9043,    9092,    9119,    9071,    9044,    9094,    9117
     357,    9118,    9056,    9072,    9119,    9116,    9055,    9071,    9117
     358,    4376,    4349,    9056,    9118,    4375,    4350,    9055,    9116
     359,    9093,    4363,    4376,    9118,    9095,    4362,    4375,    9116
     360,    9092,    9093,    9118,    9119,    9094,    9095,    9116,    9117
     361,    9073,    9042,    9090,    9121,    9072,    9043,    9092,    9119
     362,    9120,    9057,    9073,    9121,    9118,    9056,    9072,    9119
     363,    4377,    4348,    9057,    9120,    4376,    4349,    9056,    9118
     364,    9091,    4364,    4377,    9120,    9093,    4363,    4376,    9118
     365,    9090,    9091,    9120,    9121,    9092,    9093,    9118,    9119
     366,    9074,    9041,    9088,    9123,    9073,    9042,    9090,    9121
     367,    9122,    9058,    9074,    9123,    9120,    9057,    9073,    9121
     368,    4378,    4347,    9058,    9122,    4377,    4348,    9057,    9120
     369,    9089,    4365,    4378,    9122,    9091,    4364,    4377,    9120
     370,    9088,    9089,    9122,    9123,    9090,    9091,    9120,    9121
     371,    9075,    9040,    9086,    9125,    9074,    9041,    9088,    9123
     372,    9124,    9059,    9075,    9125,    9122,    9058,    9074,    9123
     373,    4379,    4346,    9059,    9124,    4378,    4347,    9058,    9122
     374,    9087,    4366,    4379,    9124,    9089,    4365,    4378,    9122
     375,    9086,    9087,    9124,    9125,    9088,    9089,    9122,    9123
     376,    9076,    9039,    9084,    9127,    9075,    9040,    9086,    9125
     377,    9126,    9060,    9076,    9127,    9124,    9059,    9075,    9125
     378,    4380,    4345,    9060,    9126,    4379,    4346,    9059,    9124
     379,    9085,    4367,    4380,    9126,    9087,    4366,    4379,    9124
     380,    9084,    9085,    9126,    9127,    9086,    9087,    9124,    9125
     381,    9077,    9038,    9082,    9129,    9076,    9039,    9084,    9127
     382,    9128,    9061,    9077,    9129,    9126,    9060,    9076,    9127
     383,    4381,    4344,    9061,    9128,    4380,    4345,    9060,    9126
     384,    9083,    4368,    4381,    9128,    9085,    4367,    4380,    9126
     385,    9082,    9083,    9128,    9129,    9084,    9085,    9126,    9127
     386,    9078,    9033,    9035,    9131,    9077,    9038,    9082,    9129
     387,    9130,    9062,    9078,    9131,    9128,    9061,    9077,    9129
     388,    4382,    4343,    9062,    9130,    4381,    4344,    9061,    9128
     389,    9034,    4335,    4382,    9130,    9083,    4368,    4381,    9128
     390,    9035,    9034,    9130,    9131,    9082,    9083,    9128,    9129
     391,    9079,    9024,    9028,    9133,    9078,    9033,    9035,    9131
     392,    9132,    9063,    9079,    9133,    9130,    9062,    9078,    9131
     393,    4383,    4342,    9063,    9132,    4382,    4343,    9062,    9130
     394,    9027,    4323,    4383,    9132,    9034,    4335,    4382,    9130
     395,    9028,    9027,    9132,    9133,    9035,    9034,    9130,    9131
     396,    9080,    9025,    9031,    9135,    9079,    9024,    9028,    9133
     397,    9134,    9064,    9080,    9135,    9132,    9063,    9079,    9133
     398,    4384,    4341,    9064,    9134,    4383,    4342,    9063,    9132
     399,    9029,    4325,    4384,    9134,    9027,    4323,    4383,    9132
     400,    9031,    9029,    9134,    9135,    9028,    9027,    9132,    9133
     401,    9081,    9026,    9032,    9137,    9080,    9025,    9031,    9135
     402,    9136,    9065,    9081,    9137,    9134,    9064,    9080,    9135
     403,    4385,    4340,    9065,    9136,    4384,    4341,    9064,    9134
     404,    9030,    4324,    4385,    9136,    9029,    4325,    4384,    9134
     405,    9032,    9030,    9136,    9137,    9031,    9029,    9134,    9135
     406,    9037,    9021,    9023,    9139,    9081,    9026,    9032,    9137
     407,    9138,    9036,    9037,    9139,    9136,    9065,    9081,    9137
     408,    4315,    4314,    9036,    9138,    4385,    4340,    9065,    9136
     409,    9022,    4313,    4315,    9138,    9030,    4324,    4385,    9136
     410,    9023,    9022,    9138,    9139,    9032,    9030,    9136,    9137
     411,    9497,    9499,    9495,    9496,    9209,    9211,    9207,    9208
     412,    9499,    9498,    9494,    9495,    9211,    9210,    9206,    9207
     413,    9489,    9490,    9498,    9499,    9201,    9202,    9210,    9211
     414,    9488,    9489,    9499,    9497,    9200,    9201,    9211,    9209
     415,    9492,    9493,    9494,    9498,    9204,    9205,    9206,    9210
     416,    9491,    9492,    9498,    9490,    9203,    9204,    9210,    9202
     417,    9480,    9481,    9488,    9497,    9192,    9193,    9200,    9209
     418,    9479,    9480,    9497,    9496,    9191,    9192,    9209,    9208
     419,    9487,    9478,    9479,    9496,    9199,    9190,    9191,    9208
     420,    9486,    9487,    9496,    9495,    9198,    9199,    9208,    9207
     421,    9485,    9486,    9495,    9494,    9197,    9198,    9207,    9206
     422,    9484,    9485,    9494,    9493,    9196,    9197,    9206,    9205
     423,    9483,    9484,    9493,    9492,    9195,    9196,    9205,    9204
     424,    9482,    9483,    9492,    9491,    9194,    9195,    9204,    9203
     425,    9476,    9477,    9482,    9491,    9188,    9189,    9194,    9203
     426,    9475,    9476,    9491,    9490,    9187,    9188,    9203,    9202
     427,    9474,    9475,    9490,    9489,    9186,    9187,    9202,    9201
     428,    9473,    9474,    9489,    9488,    9185,    9186,    9201,    9200
     429,    9472,    9473,    9488,    9481,    9184,    9185,    9200,    9193
     430,    9460,    9461,    9478,    9487,    9172,    9173,    9190,    9199
     431,    9459,    9460,    9487,    9486,    9171,    9172,    9199,    9198
     432,    9458,    9459,    9486,    9485,    9170,    9171,    9198,    9197
     433,    9466,    9458,    9485,    9484,    9178,    9170,    9197,    9196
     434,    9465,    9466,    9484,    9483,    9177,    9178,    9196,    9195
     435,    9464,    9465,    9483,    9482,    9176,    9177,    9195,    9194
     436,    9463,    9464,    9482,    9477,    9175,    9176,    9194,    9189
     437,    9470,    9471,    9472,    9481,    9182,    9183,    9184,    9193
     438,    9469,    9470,    9481,    9480,    9181,    9182,    9193,    9192
     439,    9468,    9469,    9480,    9479,    9180,    9181,    9192,    9191
     440,    9467,    9468,    9479,    9478,    9179,    9180,    9191,    9190
     441,    9462,    9467,    9478,    9461,    9174,    9179,    9190,    9173
     442,    9456,    9457,    9463,    9477,    9168,    9169,    9175,    9189
     443,    9455,    9456,    9477,    9476,    9167,    9168,    9189,    9188
     444,    9454,    9455,    9476,    9475,    9166,    9167,    9188,    9187
     445,    9453,    9454,    9475,    9474,    9165,    9166,    9187,    9186
     446,    9452,    9453,    9474,    9473,    9164,    9165,    9186,    9185
     447,    9451,    9452,    9473,    9472,    9163,    9164,    9185,    9184
     448,    9450,    9451,    9472,    9471,    9162,    9163,    9184,    9183
     449,    9035,    9034,    9458,    9466,    9028,    9027,    9170,    9178
     450,    9448,    9449,    9450,    9471,    9142,    9141,    9162,    9183
     451,    9447,    9448,    9471,    9470,    9143,    9142,    9183,    9182
     452,    9446,    9447,    9470,    9469,    9144,    9143,    9182,    9181
     453,    9445,    9446,    9469,    9468,    9145,    9144,    9181,    9180
     454,    9444,    9445,    9468,    9467,    9146,    9145,    9180,    9179
     455,    9443,    9444,    9467,    9462,    9147,    9146,    9179,    9174
     456,    9433,    9033,    9035,    9466,    9157,    9024,    9028,    9178
     457,    9432,    9433,    9466,    9465,    9158,    9157,    9178,    9177
     458,    9431,    9432,    9465,    9464,    9159,    9158,    9177,    9176
     459,    9430,    9431,    9464,    9463,    9160,    9159,    9176,    9175
     460,    9429,    9430,    9463,    9457,    9161,    9160,    9175,    9169
     461,    4790,    4785,    9443,    9462,    4494,    4493,    9147,    9174
     462,    4789,    4790,    9462,    9461,    4495,    4494,    9174,    9173
     463,    4788,    4789,    9461,    9460,    4496,    4495,    9173,    9172
     464,    4787,    4788,    9460,    9459,    4497,    4496,    9172,    9171
     465,    4786,    4787,    9459,    9458,    4498,    4497,    9171,    9170
     466,    4335,    4786,    9458,    9034,    4323,    4498,    9170,    9027
     467,    9435,    9428,    9429,    9457,    9149,    9148,    9161,    9169
     468,    9436,    9435,    9457,    9456,    9150,    9149,    9169,    9168
     469,    9437,    9436,    9456,    9455,    9151,    9150,    9168,    9167
     470,    9438,    9437,    9455,    9454,    9152,    9151,    9167,    9166
     471,    9439,    9438,    9454,    9453,    9153,    9152,    9166,    9165
     472,    9440,    9439,    9453,    9452,    9154,    9153,    9165,    9164
     473,    9441,    9440,    9452,    9451,    9155,    9154,    9164,    9163
     474,    9442,    9441,    9451,    9450,    9156,    9155,    9163,    9162
     475,    9434,    9442,    9450,    9449,    9140,    9156,    9162,    9141
     476,    9209,    9211,    9207,    9208,    9325,    9327,    9323,    9324
     477,    9211,    9210,    9206,    9207,    9327,    9326,    9322,    9323
     478,    9201,    9202,    9210,    9211,    9317,    9318,    9326,    9327
     479,    9200,    9201,    9211,    9209,    9316,    9317,    9327,    9325
     480,    9204,    9205,    9206,    9210,    9320,    9321,    9322,    9326
     481,    9203,    9204,    9210,    9202,    9319,    9320,    9326,    9318
     482,    9192,    9193,    9200,    9209,    9308,    9309,    9316,    9325
     483,    9191,    9192,    9209,    9208,    9307,    9308,    9325,    9324
     484,    9199,    9190,    9191,    9208,    9315,    9306,    9307,    9324
     485,    9198,    9199,    9208,    9207,    9314,    9315,    9324,    9323
     486,    9197,    9198,    9207,    9206,    9313,    9314,    9323,    9322
     487,    9196,    9197,    9206,    9205,    9312,    9313,    9322,    9321
     488,    9195,    9196,    9205,    9204,    9311,    9312,    9321,    9320
     489,    9194,    9195,    9204,    9203,    9310,    9311,    9320,    9319
     490,    9188,    9189,    9194,    9203,    9304,    9305,    9310,    9319
     491,    9187,    9188,    9203,    9202,    9303,    9304,    9319,    9318
     492,    9186,    9187,    9202,    9201,    9302,    9303,    9318,    9317
     493,    9185,    9186,    9201,    9200,    9301,    9302,    9317,    9316
     494,    9184,    9185,    9200,    9193,    9300,    9301,    9316,    9309
     495,    9172,    9173,    9190,    9199,    9288,    9289,    9306,    9315
     496,    9171,    9172,    9199,    9198,    9287,    9288,    9315,    9314
     497,    9170,    9171,    9198,    9197,    9286,    9287,    9314,    9313
     498,    9178,    9170,    9197,    9196,    9294,    9286,    9313,    9312
     499,    9177,    9178,    9196,    9195,    9293,    9294,    9312,    9311
     500,    9176,    9177,    9195,    9194,    9292,    9293,    9311,    9310
     501,    9175,    9176,    9194,    9189,    9291,    9292,    9310,    9305
     502,    9182,    9183,    9184,    9193,    9298,    9299,    9300,    9309
     503,    9181,    9182,    9193,    9192,    9297,    9298,    9309,    9308
     504,    9180,    9181,    9192,    9191,    9296,    9297,    9308,    9307
     505,    9179,    9180,    9191,    9190,    9295,    9296,    9307,    9306
     506,    9174,    9179,    9190,    9173,    9290,    9295,    9306,    9289
     507,    9168,    9169,    9175,    9189,    9284,    9285,    9291,    9305
     508,    9167,    9168,    9189,    9188,    9283,    9284,    9305,    9304
     509,    9166,    9167,    9188,    9187,    9282,    9283,    9304,    9303
     510,    9165,    9166,    9187,    9186,    9281,    9282,    9303,    9302
     511,    9164,    9165,    9186,    9185,    9280,    9281,    9302,    9301
     512,    9163,    9164,    9185,    9184,    9279,    9280,    9301,    9300
     513,    9162,    9163,    9184,    9183,    9278,    9279,    9300,    9299
     514,    9028,    9027,    9170,    9178,    9031,    9029,    9286,    9294
     515,    9142,    9141,    9162,    9183,    9251,    9253,    9278,    9299
     516,    9143,    9142,    9183,    9182,    9249,    9251,    9299,    9298
     517,    9144,    9143,    9182,    9181,    9247,    9249,    9298,    9297
     518,    9145,    9144,    9181,    9180,    9245,    9247,    9297,    9296
     519,    9146,    9145,    9180,    9179,    9243,    9245,    9296,    9295
     520,    9147,    9146,    9179,    9174,    9241,    9243,    9295,    9290
     521,    9157,    9024,    9028,    9178,    9224,    9025,    9031,    9294
     522,    9158,    9157,    9178,    9177,    9223,    9224,    9294,    9293
     523,    9159,    9158,    9177,    9176,    9222,    9223,    9293,    9292
     524,    9160,    9159,    9176,    9175,    9221,    9222,    9292,    9291
     525,    9161,    9160,    9175,    9169,    9220,    9221,    9291,    9285
     526,    4494,    4493,    9147,    9174,    4582,    4572,    9241,    9290
     527,    4495,    4494,    9174,    9173,    4580,    4582,    9290,    9289
     528,    4496,    4495,    9173,    9172,    4578,    4580,    9289,    9288
     529,    4497,    4496,    9172,    9171,    4576,    4578,    9288,    9287
     530,    4498,    4497,    9171,    9170,    4574,    4576,    9287,    9286
     531,    4323,    4498,    9170,    9027,    4325,    4574,    9286,    9029
     532,    9149,    9148,    9161,    9169,    9262,    9219,    9220,    9285
     533,    9150,    9149,    9169,    9168,    9264,    9262,    9285,    9284
     534,    9151,    9150,    9168,    9167,    9266,    9264,    9284,    9283
     535,    9152,    9151,    9167,    9166,    9268,    9266,    9283,    9282
     536,    9153,    9152,    9166,    9165,    9270,    9268,    9282,    9281
     537,    9154,    9153,    9165,    9164,    9272,    9270,    9281,    9280
     538,    9155,    9154,    9164,    9163,    9274,    9272,    9280,    9279
     539,    9156,    9155,    9163,    9162,    9276,    9274,    9279,    9278
     540,    9140,    9156,    9162,    9141,    9231,    9276,    9278,    9253
     541,    9325,    9327,    9323,    9324,    9375,    9377,    9373,    9374
     542,    9327,    9326,    9322,    9323,    9377,    9376,    9372,    9373
     543,    9317,    9318,    9326,    9327,    9367,    9368,    9376,    9377
     544,    9316,    9317,    9327,    9325,    9366,    9367,    9377,    9375
     545,    9320,    9321,    9322,    9326,    9370,    9371,    9372,    9376
     546,    9319,    9320,    9326,    9318,    9369,    9370,    9376,    9368
     547,    9308,    9309,    9316,    9325,    9358,    9359,    9366,    9375
     548,    9307,    9308,    9325,    9324,    9357,    9358,    9375,    9374
     549,    9315,    9306,    9307,    9324,    9365,    9356,    9357,    9374
     550,    9314,    9315,    9324,    9323,    9364,    9365,    9374,    9373
     551,    9313,    9314,    9323,    9322,    9363,    9364,    9373,    9372
     552,    9312,    9313,    9322,    9321,    9362,    9363,    9372,    9371
     553,    9311,    9312,    9321,    9320,    9361,    9362,    9371,    9370
     554,    9310,    9311,    9320,    9319,    9360,    9361,    9370,    9369
     555,    9304,    9305,    9310,    9319,    9354,    9355,    9360,    9369
     556,    9303,    9304,    9319,    9318,    9353,    9354,    9369,    9368
     557,    9302,    9303,    9318,    9317,    9352,    9353,    9368,    9367
     558,    9301,    9302,    9317,    9316,    9351,    9352,    9367,    9366
     559,    9300,    9301,    9316,    9309,    9350,    9351,    9366,    9359
     560,    9288,    9289,    9306,    9315,    9338,    9339,    9356,    9365
     561,    9287,    9288,    9315,    9314,    9337,    9338,    9365,    9364
     562,    9286,    9287,    9314,    9313,    9336,    9337,    9364,    9363
     563,    9294,    9286,    9313,    9312,    9344,    9336,    9363,    9362
     564,    9293,    9294,    9312,    9311,    9343,    9344,    9362,    9361
     565,    9292,    9293,    9311,    9310,    9342,    9343,    9361,    9360
     566,    9291,    9292,    9310,    9305,    9341,    9342,    9360,    9355
     567,    9298,    9299,    9300,    9309,    9348,    9349,    9350,    9359
     568,    9297,    9298,    9309,    9308,    9347,    9348,    9359,    9358
     569,    9296,    9297,    9308,    9307,    9346,    9347,    9358,    9357
     570,    9295,    9296,    9307,    9306,    9345,    9346,    9357,    9356
     571,    9290,    9295,    9306,    9289,    9340,    9345,    9356,    9339
     572,    9284,    9285,    9291,    9305,    9334,    9335,    9341,    9355
     573,    9283,    9284,    9305,    9304,    9333,    9334,    9355,    9354
     574,    9282,    9283,    9304,    9303,    9332,    9333,    9354,    9353
     575,    9281,    9282,    9303,    9302,    9331,    9332,    9353,    9352
     576,    9280,    9281,    9302,    9301,    9330,    9331,    9352,    9351
     577,    9279,    9280,    9301,    9300,    9329,    9330,    9351,    9350
     578,    9278,    9279,    9300,    9299,    9328,    9329,    9350,    9349
     579,    9031,    9029,    9286,    9294,    9032,    9030,    9336,    9344
     580,    9251,    9253,    9278,    9299,    9250,    9252,    9328,    9349
     581,    9249,    9251,    9299,    9298,    9248,    9250,    9349,    9348
     582,    9247,    9249,    9298,    9297,    9246,    9248,    9348,    9347
     583,    9245,    9247,    9297,    9296,    9244,    9246,    9347,    9346
     584,    9243,    9245,    9296,    9295,    9242,    9244,    9346,    9345
     585,    9241,    9243,    9295,    9290,    9240,    9242,    9345,    9340
     586,    9224,    9025,    9031,    9294,    9229,    9026,    9032,    9344
     587,    9223,    9224,    9294,    9293,    9228,    9229,    9344,    9343
     588,    9222,    9223,    9293,    9292,    9227,    9228,    9343,    9342
     589,    9221,    9222,    9292,    9291,    9226,    9227,    9342,    9341
     590,    9220,    9221,    9291,    9285,    9225,    9226,    9341,    9335
     591,    4582,    4572,    9241,    9290,    4583,    4573,    9240,    9340
     592,    4580,    4582,    9290,    9289,    4581,    4583,    9340,    9339
     593,    4578,    4580,    9289,    9288,    4579,    4581,    9339,    9338
     594,    4576,    4578,    9288,    9287,    4577,    4579,    9338,    9337
     595,    4574,    4576,    9287,    9286,    4575,    4577,    9337,    9336
     596,    4325,    4574,    9286,    9029,    4324,    4575,    9336,    9030
     597,    9262,    9219,    9220,    9285,    9263,    9218,    9225,    9335
     598,    9264,    9262,    9285,    9284,    9265,    9263,    9335,    9334
     599,    9266,    9264,    9284,    9283,    9267,    9265,    9334,    9333
     600,    9268,    9266,    9283,    9282,    9269,    9267,    9333,    9332
     601,    9270,    9268,    9282,    9281,    9271,    9269,    9332,    9331
     602,    9272,    9270,    9281,    9280,    9273,    9271,    9331,    9330
     603,    9274,    9272,    9280,    9279,    9275,    9273,    9330,    9329
     604,    9276,    9274,    9279,    9278,    9277,    9275,    9329,    9328
     605,    9231,    9276,    9278,    9253,    9232,    9277,    9328,    9252
     606,    9375,    9377,    9373,    9374,    9425,    9427,    9423,    9424
     607,    9377,    9376,    9372,    9373,    9427,    9426,    9422,    9423
     608,    9367,    9368,    9376,    9377,    9417,    9418,    9426,    9427
     609,    9366,    9367,    9377,    9375,    9416,    9417,    9427,    9425
     610,    9370,    9371,    9372,    9376,    9420,    9421,    9422,    9426
     611,    9369,    9370,    9376,    9368,    9419,    9420,    9426,    9418
     612,    9358,    9359,    9366,    9375,    9408,    9409,    9416,    9425
     613,    9357,    9358,    9375,    9374,    9407,    9408,    9425,    9424
     614,    9365,    9356,    9357,    9374,    9415,    9406,    9407,    9424
     615,    9364,    9365,    9374,    9373,    9414,    9415,    9424,    9423
     616,    9363,    9364,    9373,    9372,    9413,    9414,    9423,    9422
     617,    9362,    9363,    9372,    9371,    9412,    9413,    9422,    9421
     618,    9361,    9362,    9371,    9370,    9411,    9412,    9421,    9420
     619,    9360,    9361,    9370,    9369,    9410,    9411,    9420,    9419
     620,    9354,    9355,    9360,    9369,    9404,    9405,    9410,    9419
     621,    9353,    9354,    9369,    9368,    9403,    9404,    9419,    9418
     622,    9352,    9353,    9368,    9367,    9402,    9403,    9418,    9417
     623,    9351,    9352,    9367,    9366,    9401,    9402,    9417,    9416
     624,    9350,    9351,    9366,    9359,    9400,    9401,    9416,    9409
     625,    9338,    9339,    9356,    9365,    9388,    9389,    9406,    9415
     626,    9337,    9338,    9365,    9364,    9387,    9388,    9415,    9414
     627,    9336,    9337,    9364,    9363,    9386,    9387,    9414,    9413
     628,    9344,    9336,    9363,    9362,    9394,    9386,    9413,    9412
     629,    9343,    9344,    9362,    9361,    9393,    9394,    9412,    9411
     630,    9342,    9343,    9361,    9360,    9392,    9393,    9411,    9410
     631,    9341,    9342,    9360,    9355,    9391,    9392,    9410,    9405
     632,    9348,    9349,    9350,    9359,    9398,    9399,    9400,    9409
     633,    9347,    9348,    9359,    9358,    9397,    9398,    9409,    9408
     634,    9346,    9347,    9358,    9357,    9396,    9397,    9408,    9407
     635,    9345,    9346,    9357,    9356,    9395,    9396,    9407,    9406
     636,    9340,    9345,    9356,    9339,    9390,    9395,    9406,    9389
     637,    9334,    9335,    9341,    9355,    9384,    9385,    9391,    9405
     638,    9333,    9334,    9355,    9354,    9383,    9384,    9405,    9404
     639,    9332,    9333,    9354,    9353,    9382,    9383,    9404,    9403
     640,    9331,    9332,    9353,    9352,    9381,    9382,    9403,    9402
     641,    9330,    9331,    9352,    9351,    9380,    9381,    9402,    9401
     642,    9329,    9330,    9351,    9350,    9379,    9380,    9401,    9400
     643,    9328,    9329,    9350,    9349,    9378,    9379,    9400,    9399
     644,    9032,    9030,    9336,    9344,    9023,    9022,    9386,    9394
     645,    9250,    9252,    9328,    9349,    9234,    9233,    9378,    9399
     646,    9248,    9250,    9349,    9348,    9235,    9234,    9399,    9398
     647,    9246,    9248,    9348,    9347,    9236,    9235,    9398,    9397
     648,    9244,    9246,    9347,    9346,    9237,    9236,    9397,    9396
     649,    9242,    9244,    9346,    9345,    9238,    9237,    9396,    9395
     650,    9240,    9242,    9345,    9340,    9239,    9238,    9395,    9390
     651,    9229,    9026,    9032,    9344,    9213,    9021,    9023,    9394
     652,    9228,    9229,    9344,    9343,    9214,    9213,    9394,    9393
     653,    9227,    9228,    9343,    9342,    9215,    9214,    9393,    9392
     654,    9226,    9227,    9342,    9341,    9216,    9215,    9392,    9391
     655,    9225,    9226,    9341,    9335,    9217,    9216,    9391,    9385
     656,    4583,    4573,    9240,    9340,    4567,    4566,    9239,    9390
     657,    4581,    4583,    9340,    9339,    4568,    4567,    9390,    9389
     658,    4579,    4581,    9339,    9338,    4569,    4568,    9389,    9388
     659,    4577,    4579,    9338,    9337,    4570,    4569,    9388,    9387
     660,    4575,    4577,    9337,    9336,    4571,    4570,    9387,    9386
     661,    4324,    4575,    9336,    9030,    4313,    4571,    9386,    9022
     662,    9263,    9218,    9225,    9335,    9254,    9212,    9217,    9385
     663,    9265,    9263,    9335,    9334,    9255,    9254,    9385,    9384
     664,    9267,    9265,    9334,    9333,    9256,    9255,    9384,    9383
     665,    9269,    9267,    9333,    9332,    9257,    9256,    9383,    9382
     666,    9271,    9269,    9332,    9331,    9258,    9257,    9382,    9381
     667,    9273,    9271,    9331,    9330,    9259,    9258,    9381,    9380
     668,    9275,    9273,    9330,    9329,    9260,    9259,    9380,    9379
     669,    9277,    9275,    9329,    9328,    9261,    9260,    9379,    9378
     670,    9232,    9277,    9328,    9252,    9230,    9261,    9378,    9233
*ELEMENT, TYPE=C3D8R, ELSET=mortar
     671,    9894,    9908,    9934,    9933,    9895,    9932,    9960,    9947
     672,    9908,    9907,    9935,    9934,    9932,    9931,    9961,    9960
     673,    9907,    9906,    9936,    9935,    9931,    9930,    9962,    9961
     674,    9906,    9905,    9937,    9936,    9930,    9929,    9963,    9962
     675,    9905,    9904,    9938,    9937,    9929,    9928,    9964,    9963
     676,    9904,    9903,    9939,    9938,    9928,    9927,    9965,    9964
     677,    9903,    9902,    9940,    9939,    9927,    9926,    9966,    9965
     678,    9902,    9901,    9941,    9940,    9926,    9925,    9967,    9966
     679,    9901,    9900,    9942,    9941,    9925,    9924,    9968,    9967
     680,    9900,    9899,    9943,    9942,    9924,    9923,    9969,    9968
     681,    9899,    9898,    9944,    9943,    9923,    9922,    9970,    9969
     682,    9898,    9897,    9945,    9944,    9922,    9921,    9971,    9970
     683,    9897,    9888,    9891,    9945,    9921,    9890,    9892,    9971
     684,    9895,    9932,    9960,    9947,    9896,    9920,    9948,    9946
     685,    9932,    9931,    9961,    9960,    9920,    9919,    9949,    9948
     686,    9931,    9930,    9962,    9961,    9919,    9918,    9950,    9949
     687,    9930,    9929,    9963,    9962,    9918,    9917,    9951,    9950
     688,    9929,    9928,    9964,    9963,    9917,    9916,    9952,    9951
     689,    9928,    9927,    9965,    9964,    9916,    9915,    9953,    9952
     690,    9927,    9926,    9966,    9965,    9915,    9914,    9954,    9953
     691,    9926,    9925,    9967,    9966,    9914,    9913,    9955,    9954
     692,    9925,    9924,    9968,    9967,    9913,    9912,    9956,    9955
     693,    9924,    9923,    9969,    9968,    9912,    9911,    9957,    9956
     694,    9923,    9922,    9970,    9969,    9911,    9910,    9958,    9957
     695,    9922,    9921,    9971,    9970,    9910,    9909,    9959,    9958
     696,    9921,    9890,    9892,    9971,    9909,    9889,    9893,    9959
     697,    9896,    9920,    9948,    9946,    9860,    9874,    9876,    9861
     698,    9920,    9919,    9949,    9948,    9874,    9873,    9877,    9876
     699,    9919,    9918,    9950,    9949,    9873,    9872,    9878,    9877
     700,    9918,    9917,    9951,    9950,    9872,    9871,    9879,    9878
     701,    9917,    9916,    9952,    9951,    9871,    9870,    9880,    9879
     702,    9916,    9915,    9953,    9952,    9870,    9869,    9881,    9880
     703,    9915,    9914,    9954,    9953,    9869,    9868,    9882,    9881
     704,    9914,    9913,    9955,    9954,    9868,    9867,    9883,    9882
     705,    9913,    9912,    9956,    9955,    9867,    9866,    9884,    9883
     706,    9912,    9911,    9957,    9956,    9866,    9865,    9885,    9884
     707,    9911,    9910,    9958,    9957,    9865,    9864,    9886,    9885
     708,    9910,    9909,    9959,    9958,    9864,    9863,    9887,    9886
     709,    9909,    9889,    9893,    9959,    9863,    9862,    9875,    9887
     710,    9862,   13615,   13572,    9875,    9863,   13627,   13574,    9887
     711,   13615,   13614,   13573,   13572,   13627,   13639,   13586,   13574
     712,   13614,   13601,   13559,   13573,   13639,   13613,   13560,   13586
     713,    9863,   13627,   13574,    9887,    9864,   13626,   13575,    9886
     714,   13627,   13639,   13586,   13574,   13626,   13638,   13587,   13575
     715,   13639,   13613,   13560,   13586,   13638,   13612,   13561,   13587
     716,    9864,   13626,   13575,    9886,    9865,   13625,   13576,    9885
     717,   13626,   13638,   13587,   13575,   13625,   13637,   13588,   13576
     718,   13638,   13612,   13561,   13587,   13637,   13611,   13562,   13588
     719,    9865,   13625,   13576,    9885,    9866,   13624,   13577,    9884
     720,   13625,   13637,   13588,   13576,   13624,   13636,   13589,   13577
     721,   13637,   13611,   13562,   13588,   13636,   13610,   13563,   13589
     722,    9866,   13624,   13577,    9884,    9867,   13623,   13578,    9883
     723,   13624,   13636,   13589,   13577,   13623,   13635,   13590,   13578
     724,   13636,   13610,   13563,   13589,   13635,   13609,   13564,   13590
     725,    9867,   13623,   13578,    9883,    9868,   13622,   13579,    9882
     726,   13623,   13635,   13590,   13578,   13622,   13634,   13591,   13579
     727,   13635,   13609,   13564,   13590,   13634,   13608,   13565,   13591
     728,    9868,   13622,   13579,    9882,    9869,   13621,   13580,    9881
     729,   13622,   13634,   13591,   13579,   13621,   13633,   13592,   13580
     730,   13634,   13608,   13565,   13591,   13633,   13607,   13566,   13592
     731,    9869,   13621,   13580,    9881,    9870,   13620,   13581,    9880
     732,   13621,   13633,   13592,   13580,   13620,   13632,   13593,   13581
     733,   13633,   13607,   13566,   13592,   13632,   13606,   13567,   13593
     734,    9870,   13620,   13581,    9880,    9871,   13619,   13582,    9879
     735,   13620,   13632,   13593,   13581,   13619,   13631,   13594,   13582
     736,   13632,   13606,   13567,   13593,   13631,   13605,   13568,   13594
     737,    9871,   13619,   13582,    9879,    9872,   13618,   13583,    9878
     738,   13619,   13631,   13594,   13582,   13618,   13630,   13595,   13583
     739,   13631,   13605,   13568,   13594,   13630,   13604,   13569,   13595
     740,    9872,   13618,   13583,    9878,    9873,   13617,   13584,    9877
     741,   13618,   13630,   13595,   13583,   13617,   13629,   13596,   13584
     742,   13630,   13604,   13569,   13595,   13629,   13603,   13570,   13596
     743,    9873,   13617,   13584,    9877,    9874,   13616,   13585,    9876
     744,   13617,   13629,   13596,   13584,   13616,   13628,   13597,   13585
     745,   13629,   13603,   13570,   13596,   13628,   13602,   13571,   13597
     746,    9874,   13616,   13585,    9876,    9860,   13599,   13558,    9861
     747,   13616,   13628,   13597,   13585,   13599,   13600,   13557,   13558
     748,   13628,   13602,   13571,   13597,   13600,   13598,   13556,   13557
********************************** N O D E S E T S **********************************
*NSET, NSET=plate_bottom
    4335,    4336,    4337,    4338,    4785,    4786,
    4787,    4788,    4789,    4790,    4791,    4792,
    4793,    4794,    4795,    4796,    4797,    4798,
    4799,    4800,    4801,    4802,    4803,    4804,
    4805,    4806,    4807,    4808,    4809,    4810,
    4811,    4812,    4813,    4814,    4815,    4816,
    4817,    4818,    4819,    4820,    4821,    4822,
    4823,    4824,    4825,    4826,    4827,    4828,
    4829,    4830,    4831,    4832,    4833,    4834,
    4835,    4836,    4837,    4838,    4839,    4840,
    4841,    4842,    4843,    4844,    4845,    4846,
    4847,    4848,    4849,    4850,    4851,    4852,
    4853,    4854,    4855,    4856,    4857,    9033,
    9034,    9035,    9428,    9429,    9430,    9431,
    9432,    9433,    9434,    9435,    9436,    9437,
    9438,    9439,    9440,    9441,    9442,    9443,
    9444,    9445,    9446,    9447,    9448,    9449,
    9450,    9451,    9452,    9453,    9454,    9455,
    9456,    9457,    9458,    9459,    9460,    9461,
    9462,    9463,    9464,    9465,    9466,    9467,
    9468,    9469,    9470,    9471,    9472,    9473,
    9474,    9475,    9476,    9477,    9478,    9479,
    9480,    9481,    9482,    9483,    9484,    9485,
    9486,    9487,    9488,    9489,    9490,    9491,
    9492,    9493,    9494,    9495,    9496,    9497,
    9498,    9499,
*NSET, NSET=plate_left_loading
    9140,    9148,    9149,    9150,    9151,    9152,
    9153,    9154,    9155,    9156,
*NSET, NSET=z_symm
    4314,    4317,    4318,    4326,    4339,    4340,
    4341,    4342,    4343,    4344,    4345,    4346,
    4347,    4348,    4349,    4350,    4351,    4352,
    4353,    4354,    4355,    4425,    4426,    4427,
    4428,    4429,    4430,    4431,    4432,    4433,
    4434,    4435,    4436,    4437,    4438,    4439,
    4440,    4441,    4442,    4443,    4444,    4445,
    4446,    4447,    4448,    4449,    4450,    4451,
    4452,    4453,    4454,    4455,    4456,    4457,
    4458,    4499,    4500,    4501,    4502,    4503,
    4504,    4608,    4609,    4610,    4611,    4612,
    4613,    4614,    4615,    4616,    4617,    4618,
    4619,    4620,    4621,    4622,    4623,    4624,
    4625,    4799,    4800,    4801,    4802,    4803,
    4804,    9014,    9015,    9016,    9021,    9033,
    9036,    9037,    9050,    9051,    9052,    9053,
    9054,    9055,    9056,    9057,    9058,    9059,
    9060,    9061,    9062,    9063,    9064,    9065,
    9066,    9067,    9068,    9069,    9070,    9071,
    9072,    9073,    9074,    9075,    9076,    9077,
    9078,    9079,    9080,    9081,    9148,    9157,
    9158,    9159,    9160,    9161,    9212,    9213,
    9214,    9215,    9216,    9217,    9218,    9219,
    9220,    9221,    9222,    9223,    9224,    9225,
    9226,    9227,    9228,    9229,    9428,    9429,
    9430,    9431,    9432,    9433,   13556,   13559,
   13598,   13601,
********************************** S I D E S E T S **********************************
*ELSET, ELSET=plate_bottom_S1
      86,      87,      88,      89,      90,      91,      92,      93,      94,      95,
      96,      97,      98,      99,     100,     101,     102,     103,     104,     105,
     106,     107,     108,     109,     110,     111,     112,     113,     114,     115,
     116,     117,     118,     119,     120,     121,     122,     123,     124,     125,
     126,     127,     128,     129,     130,     131,     132,     133,     134,     135,
     136,     137,     138,     139,     140,     141,     142,     143,     144,     145,
     411,     412,     413,     414,     415,     416,     417,     418,     419,     420,
     421,     422,     423,     424,     425,     426,     427,     428,     429,     430,
     431,     432,     433,     434,     435,     436,     437,     438,     439,     440,
     441,     442,     443,     444,     445,     446,     447,     448,     449,     450,
     451,     452,     453,     454,     455,     456,     457,     458,     459,     460,
     461,     462,     463,     464,     465,     466,     467,     468,     469,     470,
     471,     472,     473,     474,     475
*SURFACE, NAME=plate_bottom
plate_bottom_S1, S1
*ELSET, ELSET=mortar_to_anchor_S5
     671,     672,     673,     674,     675,     676,     677,     678,     679,     680,
     681,     682,     683,     684,     685,     686,     687,     688,     689,     690,
     691,     692,     693,     694,     695,     696,     697,     698,     699,     700,
     701,     702,     703,     704,     705,     706,     707,     708,     709,     710,
     711,     712,     713,     714,     715,     716,     717,     718,     719,     720,
     721,     722,     723,     724,     725,     726,     727,     728,     729,     730,
     731,     732,     733,     734,     735,     736,     737,     738,     739,     740,
     741,     742,     743,     744,     745,     746,     747,     748
*SURFACE, NAME=mortar_to_anchor
mortar_to_anchor_S5, S5
*ELSET, ELSET=anchor_to_mortar_S3
      24,      25,      29,      30,      34,      35,      39,      40,      44,      45,
      49,      50,      54,      55,      59,      60,      64,      65,      69,      70,
      74,      75,      79,      80,      84,      85,     119,     179,     239,     299,
     329,     330,     334,     335,     339,     340,     344,     345,     349,     350,
     354,     355,     359,     360,     364,     365,     369,     370,     374,     375,
     379,     380,     384,     385,     389,     390,     449,     514,     579,     644
*ELSET, ELSET=anchor_to_mortar_S4
      21,      26,      31,      36,      41,      46,      51,      56,      61,      66,
      71,      76,      81,     131,     191,     251,     311,     326,     331,     336,
     341,     346,     351,     356,     361,     366,     371,     376,     381,     386,
     456,     521,     586,     651
*ELSET, ELSET=anchor_to_mortar_S6
     130,     190,     250,     310,     466,     531,     596,     661
*SURFACE, NAME=anchor_to_mortar
anchor_to_mortar_S3, S3
anchor_to_mortar_S4, S4
anchor_to_mortar_S6, S6
*ELSET, ELSET=mortar_to_concrete_S3
     671,     672,     673,     674,     675,     676,     677,     678,     679,     680,
     681,     682,     683,     684,     685,     686,     687,     688,     689,     690,
     691,     692,     693,     694,     695,     696,     697,     698,     699,     700,
     701,     702,     703,     704,     705,     706,     707,     708,     709,     710,
     711,     712,     713,     714,     715,     716,     717,     718,     719,     720,
     721,     722,     723,     724,     725,     726,     727,     728,     729,     730,
     731,     732,     733,     734,     735,     736,     737,     738,     739,     740,
     741,     742,     743,     744,     745,     746,     747,     748
*SURFACE, NAME=mortar_to_concrete
mortar_to_concrete_S3, S3
