********************************** N O D E S **********************************
*NODE, NSET=ALLNODES
       1,   -8.000000e+00,   -1.000000e+02,    0.000000e+00
       2,    8.000000e+00,   -1.000000e+02,    3.673940e-15
       3,   -4.000000e+00,   -1.000000e+02,    0.000000e+00
       4,    0.000000e+00,   -1.000000e+02,    0.000000e+00
       5,    4.000000e+00,   -1.000000e+02,    0.000000e+00
       6,   -6.928203e+00,   -1.000000e+02,   -4.000000e+00
       7,   -4.000000e+00,   -1.000000e+02,   -6.928203e+00
       8,   -1.469576e-15,   -1.000000e+02,   -8.000000e+00
       9,    4.000000e+00,   -1.000000e+02,   -6.928203e+00
      10,    6.928203e+00,   -1.000000e+02,   -4.000000e+00
      11,   -1.654799e+00,   -1.000000e+02,   -3.423652e+00
      12,   -4.166067e+00,   -1.000000e+02,   -2.494552e+00
      13,    3.366241e+00,   -1.000000e+02,   -4.575300e+00
      14,    1.222426e+00,   -1.000000e+02,   -3.926771e+00
      15,    4.764815e+00,   -1.000000e+02,   -2.858433e+00
      16,    8.000000e+00,    2.000000e+01,   -3.673940e-15
      17,    8.000000e+00,    0.000000e+00,    6.123234e-16
      18,    8.000000e+00,    1.500000e+01,   -3.061617e-16
      19,    8.000000e+00,    1.000000e+01,    0.000000e+00
      20,    8.000000e+00,    5.000000e+00,    3.061617e-16
      21,   -8.000000e+00,    2.000000e+01,    0.000000e+00
      22,    6.928203e+00,    2.000000e+01,   -4.000000e+00
      23,    4.000000e+00,    2.000000e+01,   -6.928203e+00
      24,   -3.062855e-15,    2.000000e+01,   -8.000000e+00
      25,   -4.000000e+00,    2.000000e+01,   -6.928203e+00
      26,   -6.928203e+00,    2.000000e+01,   -4.000000e+00
      27,   -8.000000e+00,    0.000000e+00,    0.000000e+00
      28,   -8.000000e+00,    5.000000e+00,    3.061617e-16
      29,   -8.000000e+00,    1.000000e+01,    0.000000e+00
      30,   -8.000000e+00,    1.500000e+01,   -3.061617e-16
      31,    6.928203e+00,    0.000000e+00,   -4.000000e+00
      32,    4.000000e+00,    0.000000e+00,   -6.928203e+00
      33,    4.898587e-16,    0.000000e+00,   -8.000000e+00
      34,   -4.000000e+00,    0.000000e+00,   -6.928203e+00
      35,   -6.928203e+00,    0.000000e+00,   -4.000000e+00
      36,    6.928203e+00,    5.000000e+00,   -4.000000e+00
      37,    6.928203e+00,    1.000000e+01,   -4.000000e+00
      38,    6.928203e+00,    1.500000e+01,   -4.000000e+00
      39,    4.000000e+00,    5.000000e+00,   -6.928203e+00
      40,    4.000000e+00,    1.000000e+01,   -6.928203e+00
      41,    4.000000e+00,    1.500000e+01,   -6.928203e+00
      42,    4.898587e-16,    5.000000e+00,   -8.000000e+00
      43,    4.898587e-16,    1.000000e+01,   -8.000000e+00
      44,   -3.062855e-15,    1.500000e+01,   -8.000000e+00
      45,   -4.000000e+00,    5.000000e+00,   -6.928203e+00
      46,   -4.000000e+00,    1.000000e+01,   -6.928203e+00
      47,   -4.000000e+00,    1.500000e+01,   -6.928203e+00
      48,   -6.928203e+00,    5.000000e+00,   -4.000000e+00
      49,   -6.928203e+00,    1.000000e+01,   -4.000000e+00
      50,   -6.928203e+00,    1.500000e+01,   -4.000000e+00
      51,   -8.000000e+00,   -4.000000e+00,   -2.204364e-15
      52,   -8.000000e+00,   -8.000000e+00,   -1.959435e-15
      53,   -8.000000e+00,   -1.200000e+01,   -1.714506e-15
      54,   -8.000000e+00,   -1.600000e+01,   -1.469576e-15
      55,   -8.000000e+00,   -2.000000e+01,   -1.224647e-15
      56,   -8.000000e+00,   -2.400000e+01,   -9.797174e-16
      57,   -8.000000e+00,   -2.800000e+01,   -7.347881e-16
      58,   -8.000000e+00,   -3.200000e+01,   -4.898587e-16
      59,   -8.000000e+00,   -3.600000e+01,   -2.449294e-16
      60,   -8.000000e+00,   -4.000000e+01,    0.000000e+00
      61,   -8.000000e+00,   -4.400000e+01,    2.449294e-16
      62,   -8.000000e+00,   -4.800000e+01,    4.898587e-16
      63,   -8.000000e+00,   -5.200000e+01,    7.347881e-16
      64,   -8.000000e+00,   -5.600000e+01,    9.797174e-16
      65,   -8.000000e+00,   -6.000000e+01,    1.224647e-15
      66,   -8.000000e+00,   -6.400000e+01,    1.469576e-15
      67,   -8.000000e+00,   -6.800000e+01,    1.714506e-15
      68,   -8.000000e+00,   -7.200000e+01,    1.959435e-15
      69,   -8.000000e+00,   -7.600000e+01,    2.204364e-15
      70,   -8.000000e+00,   -8.000000e+01,    2.449294e-15
      71,   -8.000000e+00,   -8.400000e+01,    2.694223e-15
      72,   -8.000000e+00,   -8.800000e+01,    2.939152e-15
      73,   -8.000000e+00,   -9.200000e+01,    3.184082e-15
      74,   -8.000000e+00,   -9.600000e+01,    3.429011e-15
      75,    8.000000e+00,   -9.600000e+01,    3.429011e-15
      76,    8.000000e+00,   -9.200000e+01,    3.184082e-15
      77,    8.000000e+00,   -8.800000e+01,    2.939152e-15
      78,    8.000000e+00,   -8.400000e+01,    2.694223e-15
      79,    8.000000e+00,   -8.000000e+01,    2.449294e-15
      80,    8.000000e+00,   -7.600000e+01,    2.204364e-15
      81,    8.000000e+00,   -7.200000e+01,    1.959435e-15
      82,    8.000000e+00,   -6.800000e+01,    1.714506e-15
      83,    8.000000e+00,   -6.400000e+01,    1.469576e-15
      84,    8.000000e+00,   -6.000000e+01,    1.224647e-15
      85,    8.000000e+00,   -5.600000e+01,    9.797174e-16
      86,    8.000000e+00,   -5.200000e+01,    7.347881e-16
      87,    8.000000e+00,   -4.800000e+01,    4.898587e-16
      88,    8.000000e+00,   -4.400000e+01,    2.449294e-16
      89,    8.000000e+00,   -4.000000e+01,    0.000000e+00
      90,    8.000000e+00,   -3.600000e+01,   -2.449294e-16
      91,    8.000000e+00,   -3.200000e+01,   -4.898587e-16
      92,    8.000000e+00,   -2.800000e+01,   -7.347881e-16
      93,    8.000000e+00,   -2.400000e+01,   -9.797174e-16
      94,    8.000000e+00,   -2.000000e+01,   -1.224647e-15
      95,    8.000000e+00,   -1.600000e+01,   -1.469576e-15
      96,    8.000000e+00,   -1.200000e+01,   -1.714506e-15
      97,    8.000000e+00,   -8.000000e+00,   -1.959435e-15
      98,    8.000000e+00,   -4.000000e+00,   -2.204364e-15
      99,    4.000000e+00,    2.000000e+01,    0.000000e+00
     100,    0.000000e+00,    2.000000e+01,    0.000000e+00
     101,   -4.000000e+00,    2.000000e+01,    0.000000e+00
     102,   -4.000000e+00,    1.500000e+01,    0.000000e+00
     103,   -4.000000e+00,    1.000000e+01,    0.000000e+00
     104,   -4.000000e+00,    5.000000e+00,    0.000000e+00
     105,   -4.000000e+00,    1.776357e-15,    0.000000e+00
     106,   -4.000000e+00,   -4.000000e+00,    0.000000e+00
     107,   -4.000000e+00,   -8.000000e+00,    0.000000e+00
     108,   -4.000000e+00,   -1.200000e+01,    0.000000e+00
     109,   -4.000000e+00,   -1.600000e+01,    0.000000e+00
     110,   -4.000000e+00,   -2.000000e+01,    0.000000e+00
     111,   -4.000000e+00,   -2.400000e+01,    0.000000e+00
     112,   -4.000000e+00,   -2.800000e+01,    0.000000e+00
     113,   -4.000000e+00,   -3.200000e+01,    0.000000e+00
     114,   -4.000000e+00,   -3.600000e+01,    0.000000e+00
     115,   -4.000000e+00,   -4.000000e+01,    0.000000e+00
     116,   -4.000000e+00,   -4.400000e+01,    0.000000e+00
     117,   -4.000000e+00,   -4.800000e+01,    0.000000e+00
     118,   -4.000000e+00,   -5.200000e+01,    0.000000e+00
     119,   -4.000000e+00,   -5.600000e+01,    0.000000e+00
     120,   -4.000000e+00,   -6.000000e+01,    0.000000e+00
     121,   -4.000000e+00,   -6.400000e+01,    0.000000e+00
     122,   -4.000000e+00,   -6.800000e+01,    0.000000e+00
     123,   -4.000000e+00,   -7.200000e+01,    0.000000e+00
     124,   -4.000000e+00,   -7.600000e+01,    0.000000e+00
     125,   -4.000000e+00,   -8.000000e+01,    0.000000e+00
     126,   -4.000000e+00,   -8.400000e+01,    0.000000e+00
     127,   -4.000000e+00,   -8.800000e+01,    0.000000e+00
     128,   -4.000000e+00,   -9.200000e+01,    0.000000e+00
     129,   -4.000000e+00,   -9.600000e+01,    0.000000e+00
     130,    2.220446e-16,    1.500000e+01,    0.000000e+00
     131,   -4.440892e-16,    1.000000e+01,    0.000000e+00
     132,    0.000000e+00,    5.000000e+00,    0.000000e+00
     133,    2.220446e-16,    0.000000e+00,    0.000000e+00
     134,    8.881784e-16,   -4.000000e+00,    0.000000e+00
     135,    6.661338e-16,   -8.000000e+00,    0.000000e+00
     136,   -6.661338e-16,   -1.200000e+01,    0.000000e+00
     137,   -2.220446e-16,   -1.600000e+01,    0.000000e+00
     138,    0.000000e+00,   -2.000000e+01,    0.000000e+00
     139,    4.440892e-16,   -2.400000e+01,    0.000000e+00
     140,   -2.220446e-16,   -2.800000e+01,    0.000000e+00
     141,    0.000000e+00,   -3.200000e+01,    0.000000e+00
     142,    0.000000e+00,   -3.600000e+01,    0.000000e+00
     143,    0.000000e+00,   -4.000000e+01,    0.000000e+00
     144,    0.000000e+00,   -4.400000e+01,    0.000000e+00
     145,    0.000000e+00,   -4.800000e+01,    0.000000e+00
     146,    4.440892e-16,   -5.200000e+01,    0.000000e+00
     147,    0.000000e+00,   -5.600000e+01,    0.000000e+00
     148,    0.000000e+00,   -6.000000e+01,    0.000000e+00
     149,    4.440892e-16,   -6.400000e+01,    0.000000e+00
     150,    0.000000e+00,   -6.800000e+01,    0.000000e+00
     151,    0.000000e+00,   -7.200000e+01,    0.000000e+00
     152,   -4.440892e-16,   -7.600000e+01,    0.000000e+00
     153,    0.000000e+00,   -8.000000e+01,    0.000000e+00
     154,    0.000000e+00,   -8.400000e+01,    0.000000e+00
     155,    0.000000e+00,   -8.800000e+01,    0.000000e+00
     156,    0.000000e+00,   -9.200000e+01,    0.000000e+00
     157,    0.000000e+00,   -9.600000e+01,    0.000000e+00
     158,    4.000000e+00,    1.500000e+01,    0.000000e+00
     159,    4.000000e+00,    1.000000e+01,    0.000000e+00
     160,    4.000000e+00,    5.000000e+00,    0.000000e+00
     161,    4.000000e+00,    1.776357e-15,    0.000000e+00
     162,    4.000000e+00,   -4.000000e+00,    0.000000e+00
     163,    4.000000e+00,   -8.000000e+00,    0.000000e+00
     164,    4.000000e+00,   -1.200000e+01,    0.000000e+00
     165,    4.000000e+00,   -1.600000e+01,    0.000000e+00
     166,    4.000000e+00,   -2.000000e+01,    0.000000e+00
     167,    4.000000e+00,   -2.400000e+01,    0.000000e+00
     168,    4.000000e+00,   -2.800000e+01,    0.000000e+00
     169,    4.000000e+00,   -3.200000e+01,    0.000000e+00
     170,    4.000000e+00,   -3.600000e+01,    0.000000e+00
     171,    4.000000e+00,   -4.000000e+01,    0.000000e+00
     172,    4.000000e+00,   -4.400000e+01,    0.000000e+00
     173,    4.000000e+00,   -4.800000e+01,    0.000000e+00
     174,    4.000000e+00,   -5.200000e+01,    0.000000e+00
     175,    4.000000e+00,   -5.600000e+01,    0.000000e+00
     176,    4.000000e+00,   -6.000000e+01,    0.000000e+00
     177,    4.000000e+00,   -6.400000e+01,    0.000000e+00
     178,    4.000000e+00,   -6.800000e+01,    0.000000e+00
     179,    4.000000e+00,   -7.200000e+01,    0.000000e+00
     180,    4.000000e+00,   -7.600000e+01,    0.000000e+00
     181,    4.000000e+00,   -8.000000e+01,    0.000000e+00
     182,    4.000000e+00,   -8.400000e+01,    0.000000e+00
     183,    4.000000e+00,   -8.800000e+01,    0.000000e+00
     184,    4.000000e+00,   -9.200000e+01,    0.000000e+00
     185,    4.000000e+00,   -9.600000e+01,    0.000000e+00
     186,   -6.928203e+00,   -4.000000e+00,   -4.000000e+00
     187,   -4.000000e+00,   -4.000000e+00,   -6.928203e+00
     188,   -1.286498e-15,   -4.000000e+00,   -8.000000e+00
     189,    4.000000e+00,   -4.000000e+00,   -6.928203e+00
     190,    6.928203e+00,   -4.000000e+00,   -4.000000e+00
     191,   -6.928203e+00,   -8.000000e+00,   -4.000000e+00
     192,   -4.000000e+00,   -8.000000e+00,   -6.928203e+00
     193,   -1.286498e-15,   -8.000000e+00,   -8.000000e+00
     194,    4.000000e+00,   -8.000000e+00,   -6.928203e+00
     195,    6.928203e+00,   -8.000000e+00,   -4.000000e+00
     196,   -6.928203e+00,   -1.200000e+01,   -4.000000e+00
     197,   -4.000000e+00,   -1.200000e+01,   -6.928203e+00
     198,   -1.286498e-15,   -1.200000e+01,   -8.000000e+00
     199,    4.000000e+00,   -1.200000e+01,   -6.928203e+00
     200,    6.928203e+00,   -1.200000e+01,   -4.000000e+00
     201,   -6.928203e+00,   -1.600000e+01,   -4.000000e+00
     202,   -4.000000e+00,   -1.600000e+01,   -6.928203e+00
     203,   -3.062855e-15,   -1.600000e+01,   -8.000000e+00
     204,    4.000000e+00,   -1.600000e+01,   -6.928203e+00
     205,    6.928203e+00,   -1.600000e+01,   -4.000000e+00
     206,   -6.928203e+00,   -2.000000e+01,   -4.000000e+00
     207,   -4.000000e+00,   -2.000000e+01,   -6.928203e+00
     208,   -1.286498e-15,   -2.000000e+01,   -8.000000e+00
     209,    4.000000e+00,   -2.000000e+01,   -6.928203e+00
     210,    6.928203e+00,   -2.000000e+01,   -4.000000e+00
     211,   -6.928203e+00,   -2.400000e+01,   -4.000000e+00
     212,   -4.000000e+00,   -2.400000e+01,   -6.928203e+00
     213,   -3.062855e-15,   -2.400000e+01,   -8.000000e+00
     214,    4.000000e+00,   -2.400000e+01,   -6.928203e+00
     215,    6.928203e+00,   -2.400000e+01,   -4.000000e+00
     216,   -6.928203e+00,   -2.800000e+01,   -4.000000e+00
     217,   -4.000000e+00,   -2.800000e+01,   -6.928203e+00
     218,   -3.062855e-15,   -2.800000e+01,   -8.000000e+00
     219,    4.000000e+00,   -2.800000e+01,   -6.928203e+00
     220,    6.928203e+00,   -2.800000e+01,   -4.000000e+00
     221,   -6.928203e+00,   -3.200000e+01,   -4.000000e+00
     222,   -4.000000e+00,   -3.200000e+01,   -6.928203e+00
     223,   -4.839212e-15,   -3.200000e+01,   -8.000000e+00
     224,    4.000000e+00,   -3.200000e+01,   -6.928203e+00
     225,    6.928203e+00,   -3.200000e+01,   -4.000000e+00
     226,   -6.928203e+00,   -3.600000e+01,   -4.000000e+00
     227,   -4.000000e+00,   -3.600000e+01,   -6.928203e+00
     228,   -4.839212e-15,   -3.600000e+01,   -8.000000e+00
     229,    4.000000e+00,   -3.600000e+01,   -6.928203e+00
     230,    6.928203e+00,   -3.600000e+01,   -4.000000e+00
     231,   -6.928203e+00,   -4.000000e+01,   -4.000000e+00
     232,   -4.000000e+00,   -4.000000e+01,   -6.928203e+00
     233,   -4.839212e-15,   -4.000000e+01,   -8.000000e+00
     234,    4.000000e+00,   -4.000000e+01,   -6.928203e+00
     235,    6.928203e+00,   -4.000000e+01,   -4.000000e+00
     236,   -6.928203e+00,   -4.400000e+01,   -4.000000e+00
     237,   -4.000000e+00,   -4.400000e+01,   -6.928203e+00
     238,    4.898587e-16,   -4.400000e+01,   -8.000000e+00
     239,    4.000000e+00,   -4.400000e+01,   -6.928203e+00
     240,    6.928203e+00,   -4.400000e+01,   -4.000000e+00
     241,   -6.928203e+00,   -4.800000e+01,   -4.000000e+00
     242,   -4.000000e+00,   -4.800000e+01,   -6.928203e+00
     243,   -1.286498e-15,   -4.800000e+01,   -8.000000e+00
     244,    4.000000e+00,   -4.800000e+01,   -6.928203e+00
     245,    6.928203e+00,   -4.800000e+01,   -4.000000e+00
     246,   -6.928203e+00,   -5.200000e+01,   -4.000000e+00
     247,   -4.000000e+00,   -5.200000e+01,   -6.928203e+00
     248,   -3.062855e-15,   -5.200000e+01,   -8.000000e+00
     249,    4.000000e+00,   -5.200000e+01,   -6.928203e+00
     250,    6.928203e+00,   -5.200000e+01,   -4.000000e+00
     251,   -6.928203e+00,   -5.600000e+01,   -4.000000e+00
     252,   -4.000000e+00,   -5.600000e+01,   -6.928203e+00
     253,   -3.062855e-15,   -5.600000e+01,   -8.000000e+00
     254,    4.000000e+00,   -5.600000e+01,   -6.928203e+00
     255,    6.928203e+00,   -5.600000e+01,   -4.000000e+00
     256,   -6.928203e+00,   -6.000000e+01,   -4.000000e+00
     257,   -4.000000e+00,   -6.000000e+01,   -6.928203e+00
     258,    4.898587e-16,   -6.000000e+01,   -8.000000e+00
     259,    4.000000e+00,   -6.000000e+01,   -6.928203e+00
     260,    6.928203e+00,   -6.000000e+01,   -4.000000e+00
     261,   -6.928203e+00,   -6.400000e+01,   -4.000000e+00
     262,   -4.000000e+00,   -6.400000e+01,   -6.928203e+00
     263,   -4.839212e-15,   -6.400000e+01,   -8.000000e+00
     264,    4.000000e+00,   -6.400000e+01,   -6.928203e+00
     265,    6.928203e+00,   -6.400000e+01,   -4.000000e+00
     266,   -6.928203e+00,   -6.800000e+01,   -4.000000e+00
     267,   -4.000000e+00,   -6.800000e+01,   -6.928203e+00
     268,   -1.286498e-15,   -6.800000e+01,   -8.000000e+00
     269,    4.000000e+00,   -6.800000e+01,   -6.928203e+00
     270,    6.928203e+00,   -6.800000e+01,   -4.000000e+00
     271,   -6.928203e+00,   -7.200000e+01,   -4.000000e+00
     272,   -4.000000e+00,   -7.200000e+01,   -6.928203e+00
     273,   -3.062855e-15,   -7.200000e+01,   -8.000000e+00
     274,    4.000000e+00,   -7.200000e+01,   -6.928203e+00
     275,    6.928203e+00,   -7.200000e+01,   -4.000000e+00
     276,   -6.928203e+00,   -7.600000e+01,   -4.000000e+00
     277,   -4.000000e+00,   -7.600000e+01,   -6.928203e+00
     278,   -4.839212e-15,   -7.600000e+01,   -8.000000e+00
     279,    4.000000e+00,   -7.600000e+01,   -6.928203e+00
     280,    6.928203e+00,   -7.600000e+01,   -4.000000e+00
     281,   -6.928203e+00,   -8.000000e+01,   -4.000000e+00
     282,   -4.000000e+00,   -8.000000e+01,   -6.928203e+00
     283,   -4.839212e-15,   -8.000000e+01,   -8.000000e+00
     284,    4.000000e+00,   -8.000000e+01,   -6.928203e+00
     285,    6.928203e+00,   -8.000000e+01,   -4.000000e+00
     286,   -6.928203e+00,   -8.400000e+01,   -4.000000e+00
     287,   -4.000000e+00,   -8.400000e+01,   -6.928203e+00
     288,   -3.062855e-15,   -8.400000e+01,   -8.000000e+00
     289,    4.000000e+00,   -8.400000e+01,   -6.928203e+00
     290,    6.928203e+00,   -8.400000e+01,   -4.000000e+00
     291,   -6.928203e+00,   -8.800000e+01,   -4.000000e+00
     292,   -4.000000e+00,   -8.800000e+01,   -6.928203e+00
     293,   -1.286498e-15,   -8.800000e+01,   -8.000000e+00
     294,    4.000000e+00,   -8.800000e+01,   -6.928203e+00
     295,    6.928203e+00,   -8.800000e+01,   -4.000000e+00
     296,   -6.928203e+00,   -9.200000e+01,   -4.000000e+00
     297,   -4.000000e+00,   -9.200000e+01,   -6.928203e+00
     298,   -3.062855e-15,   -9.200000e+01,   -8.000000e+00
     299,    4.000000e+00,   -9.200000e+01,   -6.928203e+00
     300,    6.928203e+00,   -9.200000e+01,   -4.000000e+00
     301,   -6.928203e+00,   -9.600000e+01,   -4.000000e+00
     302,   -4.000000e+00,   -9.600000e+01,   -6.928203e+00
     303,   -4.839212e-15,   -9.600000e+01,   -8.000000e+00
     304,    4.000000e+00,   -9.600000e+01,   -6.928203e+00
     305,    6.928203e+00,   -9.600000e+01,   -4.000000e+00
     306,   -1.654799e+00,   -9.600000e+01,   -3.423652e+00
     307,    1.222426e+00,   -9.600000e+01,   -3.926771e+00
     308,   -4.166067e+00,   -9.600000e+01,   -2.494552e+00
     309,    3.366241e+00,   -9.600000e+01,   -4.575300e+00
     310,    4.764815e+00,   -9.600000e+01,   -2.858433e+00
     311,   -1.654799e+00,   -9.200000e+01,   -3.423652e+00
     312,    1.222426e+00,   -9.200000e+01,   -3.926771e+00
     313,   -4.166067e+00,   -9.200000e+01,   -2.494552e+00
     314,    3.366241e+00,   -9.200000e+01,   -4.575300e+00
     315,    4.764815e+00,   -9.200000e+01,   -2.858433e+00
     316,   -1.654799e+00,   -8.800000e+01,   -3.423652e+00
     317,    1.222426e+00,   -8.800000e+01,   -3.926771e+00
     318,   -4.166067e+00,   -8.800000e+01,   -2.494552e+00
     319,    3.366241e+00,   -8.800000e+01,   -4.575300e+00
     320,    4.764815e+00,   -8.800000e+01,   -2.858433e+00
     321,   -1.654799e+00,   -8.400000e+01,   -3.423652e+00
     322,    1.222426e+00,   -8.400000e+01,   -3.926771e+00
     323,   -4.166067e+00,   -8.400000e+01,   -2.494552e+00
     324,    3.366241e+00,   -8.400000e+01,   -4.575300e+00
     325,    4.764815e+00,   -8.400000e+01,   -2.858433e+00
     326,   -1.654799e+00,   -8.000000e+01,   -3.423652e+00
     327,    1.222426e+00,   -8.000000e+01,   -3.926771e+00
     328,   -4.166067e+00,   -8.000000e+01,   -2.494552e+00
     329,    3.366241e+00,   -8.000000e+01,   -4.575300e+00
     330,    4.764815e+00,   -8.000000e+01,   -2.858433e+00
     331,   -1.654799e+00,   -7.600000e+01,   -3.423652e+00
     332,    1.222426e+00,   -7.600000e+01,   -3.926771e+00
     333,   -4.166067e+00,   -7.600000e+01,   -2.494552e+00
     334,    3.366241e+00,   -7.600000e+01,   -4.575300e+00
     335,    4.764815e+00,   -7.600000e+01,   -2.858433e+00
     336,   -1.654799e+00,   -7.200000e+01,   -3.423652e+00
     337,    1.222426e+00,   -7.200000e+01,   -3.926771e+00
     338,   -4.166067e+00,   -7.200000e+01,   -2.494552e+00
     339,    3.366241e+00,   -7.200000e+01,   -4.575300e+00
     340,    4.764815e+00,   -7.200000e+01,   -2.858433e+00
     341,   -1.654799e+00,   -6.800000e+01,   -3.423652e+00
     342,    1.222426e+00,   -6.800000e+01,   -3.926771e+00
     343,   -4.166067e+00,   -6.800000e+01,   -2.494552e+00
     344,    3.366241e+00,   -6.800000e+01,   -4.575300e+00
     345,    4.764815e+00,   -6.800000e+01,   -2.858433e+00
     346,   -1.654799e+00,   -6.400000e+01,   -3.423652e+00
     347,    1.222426e+00,   -6.400000e+01,   -3.926771e+00
     348,   -4.166067e+00,   -6.400000e+01,   -2.494552e+00
     349,    3.366241e+00,   -6.400000e+01,   -4.575300e+00
     350,    4.764815e+00,   -6.400000e+01,   -2.858433e+00
     351,   -1.654799e+00,   -6.000000e+01,   -3.423652e+00
     352,    1.222426e+00,   -6.000000e+01,   -3.926771e+00
     353,   -4.166067e+00,   -6.000000e+01,   -2.494552e+00
     354,    3.366241e+00,   -6.000000e+01,   -4.575300e+00
     355,    4.764815e+00,   -6.000000e+01,   -2.858433e+00
     356,   -1.654799e+00,   -5.600000e+01,   -3.423652e+00
     357,    1.222426e+00,   -5.600000e+01,   -3.926771e+00
     358,   -4.166067e+00,   -5.600000e+01,   -2.494552e+00
     359,    3.366241e+00,   -5.600000e+01,   -4.575300e+00
     360,    4.764815e+00,   -5.600000e+01,   -2.858433e+00
     361,   -1.654799e+00,   -5.200000e+01,   -3.423652e+00
     362,    1.222426e+00,   -5.200000e+01,   -3.926771e+00
     363,   -4.166067e+00,   -5.200000e+01,   -2.494552e+00
     364,    3.366241e+00,   -5.200000e+01,   -4.575300e+00
     365,    4.764815e+00,   -5.200000e+01,   -2.858433e+00
     366,   -1.654799e+00,   -4.800000e+01,   -3.423652e+00
     367,    1.222426e+00,   -4.800000e+01,   -3.926771e+00
     368,   -4.166067e+00,   -4.800000e+01,   -2.494552e+00
     369,    3.366241e+00,   -4.800000e+01,   -4.575300e+00
     370,    4.764815e+00,   -4.800000e+01,   -2.858433e+00
     371,   -1.654799e+00,   -4.400000e+01,   -3.423652e+00
     372,    1.222426e+00,   -4.400000e+01,   -3.926771e+00
     373,   -4.166067e+00,   -4.400000e+01,   -2.494552e+00
     374,    3.366241e+00,   -4.400000e+01,   -4.575300e+00
     375,    4.764815e+00,   -4.400000e+01,   -2.858433e+00
     376,   -1.654799e+00,   -4.000000e+01,   -3.423652e+00
     377,    1.222426e+00,   -4.000000e+01,   -3.926771e+00
     378,   -4.166067e+00,   -4.000000e+01,   -2.494552e+00
     379,    3.366241e+00,   -4.000000e+01,   -4.575300e+00
     380,    4.764815e+00,   -4.000000e+01,   -2.858433e+00
     381,   -1.654799e+00,   -3.600000e+01,   -3.423652e+00
     382,    1.222426e+00,   -3.600000e+01,   -3.926771e+00
     383,   -4.166067e+00,   -3.600000e+01,   -2.494552e+00
     384,    3.366241e+00,   -3.600000e+01,   -4.575300e+00
     385,    4.764815e+00,   -3.600000e+01,   -2.858433e+00
     386,   -1.654799e+00,   -3.200000e+01,   -3.423652e+00
     387,    1.222426e+00,   -3.200000e+01,   -3.926771e+00
     388,   -4.166067e+00,   -3.200000e+01,   -2.494552e+00
     389,    3.366241e+00,   -3.200000e+01,   -4.575300e+00
     390,    4.764815e+00,   -3.200000e+01,   -2.858433e+00
     391,   -1.654799e+00,   -2.800000e+01,   -3.423652e+00
     392,    1.222426e+00,   -2.800000e+01,   -3.926771e+00
     393,   -4.166067e+00,   -2.800000e+01,   -2.494552e+00
     394,    3.366241e+00,   -2.800000e+01,   -4.575300e+00
     395,    4.764815e+00,   -2.800000e+01,   -2.858433e+00
     396,   -1.654799e+00,   -2.400000e+01,   -3.423652e+00
     397,    1.222426e+00,   -2.400000e+01,   -3.926771e+00
     398,   -4.166067e+00,   -2.400000e+01,   -2.494552e+00
     399,    3.366241e+00,   -2.400000e+01,   -4.575300e+00
     400,    4.764815e+00,   -2.400000e+01,   -2.858433e+00
     401,   -1.654799e+00,   -2.000000e+01,   -3.423652e+00
     402,    1.222426e+00,   -2.000000e+01,   -3.926771e+00
     403,   -4.166067e+00,   -2.000000e+01,   -2.494552e+00
     404,    3.366241e+00,   -2.000000e+01,   -4.575300e+00
     405,    4.764815e+00,   -2.000000e+01,   -2.858433e+00
     406,   -1.654799e+00,   -1.600000e+01,   -3.423652e+00
     407,    1.222426e+00,   -1.600000e+01,   -3.926771e+00
     408,   -4.166067e+00,   -1.600000e+01,   -2.494552e+00
     409,    3.366241e+00,   -1.600000e+01,   -4.575300e+00
     410,    4.764815e+00,   -1.600000e+01,   -2.858433e+00
     411,   -1.654799e+00,   -1.200000e+01,   -3.423652e+00
     412,    1.222426e+00,   -1.200000e+01,   -3.926771e+00
     413,   -4.166067e+00,   -1.200000e+01,   -2.494552e+00
     414,    3.366241e+00,   -1.200000e+01,   -4.575300e+00
     415,    4.764815e+00,   -1.200000e+01,   -2.858433e+00
     416,   -1.654799e+00,   -8.000000e+00,   -3.423652e+00
     417,    1.222426e+00,   -8.000000e+00,   -3.926771e+00
     418,   -4.166067e+00,   -8.000000e+00,   -2.494552e+00
     419,    3.366241e+00,   -8.000000e+00,   -4.575300e+00
     420,    4.764815e+00,   -8.000000e+00,   -2.858433e+00
     421,   -1.654799e+00,   -4.000000e+00,   -3.423652e+00
     422,    1.222426e+00,   -4.000000e+00,   -3.926771e+00
     423,   -4.166067e+00,   -4.000000e+00,   -2.494552e+00
     424,    3.366241e+00,   -4.000000e+00,   -4.575300e+00
     425,    4.764815e+00,   -4.000000e+00,   -2.858433e+00
     426,   -1.654799e+00,    3.101025e-16,   -3.423652e+00
     427,    1.222426e+00,    2.582197e-16,   -3.926771e+00
     428,   -4.166067e+00,    4.059136e-16,   -2.494552e+00
     429,    3.366241e+00,    1.913418e-16,   -4.575300e+00
     430,    4.764815e+00,    3.683893e-16,   -2.858433e+00
     431,   -1.654799e+00,    5.000000e+00,   -3.423652e+00
     432,    1.222426e+00,    5.000000e+00,   -3.926771e+00
     433,   -4.166067e+00,    5.000000e+00,   -2.494552e+00
     434,    3.366241e+00,    5.000000e+00,   -4.575300e+00
     435,    4.764815e+00,    5.000000e+00,   -2.858433e+00
     436,   -1.654799e+00,    1.000000e+01,   -3.423652e+00
     437,    1.222426e+00,    1.000000e+01,   -3.926771e+00
     438,   -4.166067e+00,    1.000000e+01,   -2.494552e+00
     439,    3.366241e+00,    1.000000e+01,   -4.575300e+00
     440,    4.764815e+00,    1.000000e+01,   -2.858433e+00
     441,   -1.654799e+00,    1.500000e+01,   -3.423652e+00
     442,    1.222426e+00,    1.500000e+01,   -3.926771e+00
     443,   -4.166067e+00,    1.500000e+01,   -2.494552e+00
     444,    3.366241e+00,    1.500000e+01,   -4.575300e+00
     445,    4.764815e+00,    1.500000e+01,   -2.858433e+00
     446,   -1.654799e+00,    2.000000e+01,   -3.423652e+00
     447,    1.222426e+00,    2.000000e+01,   -3.926771e+00
     448,   -4.166067e+00,    2.000000e+01,   -2.494552e+00
     449,    3.366241e+00,    2.000000e+01,   -4.575300e+00
     450,    4.764815e+00,    2.000000e+01,   -2.858433e+00
     451,    2.000000e+02,    0.000000e+00,    0.000000e+00
     452,    2.720000e+01,    0.000000e+00,    0.000000e+00
     453,    4.640000e+01,    0.000000e+00,    0.000000e+00
     454,    6.560000e+01,    0.000000e+00,    0.000000e+00
     455,    8.480000e+01,    0.000000e+00,    0.000000e+00
     456,    1.040000e+02,    0.000000e+00,    0.000000e+00
     457,    1.232000e+02,    0.000000e+00,    0.000000e+00
     458,    1.424000e+02,    0.000000e+00,    0.000000e+00
     459,    1.616000e+02,    0.000000e+00,    0.000000e+00
     460,    1.808000e+02,    0.000000e+00,    0.000000e+00
     461,   -3.500000e+02,    0.000000e+00,    0.000000e+00
     462,   -3.298824e+02,    0.000000e+00,    0.000000e+00
     463,   -3.097647e+02,    0.000000e+00,    0.000000e+00
     464,   -2.896471e+02,    0.000000e+00,    0.000000e+00
     465,   -2.695294e+02,    0.000000e+00,    0.000000e+00
     466,   -2.494118e+02,    0.000000e+00,    0.000000e+00
     467,   -2.292941e+02,    0.000000e+00,    0.000000e+00
     468,   -2.091765e+02,    0.000000e+00,    0.000000e+00
     469,   -1.890588e+02,    0.000000e+00,    0.000000e+00
     470,   -1.689412e+02,    0.000000e+00,    0.000000e+00
     471,   -1.488235e+02,    0.000000e+00,    0.000000e+00
     472,   -1.287059e+02,    0.000000e+00,    0.000000e+00
     473,   -1.085882e+02,    0.000000e+00,    0.000000e+00
     474,   -8.847059e+01,    0.000000e+00,    0.000000e+00
     475,   -6.835294e+01,    0.000000e+00,    0.000000e+00
     476,   -4.823529e+01,    0.000000e+00,    0.000000e+00
     477,   -2.811765e+01,    0.000000e+00,    0.000000e+00
     478,   -3.500000e+02,    0.000000e+00,   -1.000000e+02
     479,   -3.500000e+02,    0.000000e+00,   -2.000000e+01
     480,   -3.500000e+02,    0.000000e+00,   -4.000000e+01
     481,   -3.500000e+02,    0.000000e+00,   -6.000000e+01
     482,   -3.500000e+02,    0.000000e+00,   -8.000000e+01
     483,    2.000000e+02,    0.000000e+00,   -1.000000e+02
     484,    1.796296e+02,    0.000000e+00,   -1.000000e+02
     485,    1.592593e+02,    0.000000e+00,   -1.000000e+02
     486,    1.388889e+02,    0.000000e+00,   -1.000000e+02
     487,    1.185185e+02,    0.000000e+00,   -1.000000e+02
     488,    9.814815e+01,    0.000000e+00,   -1.000000e+02
     489,    7.777778e+01,    0.000000e+00,   -1.000000e+02
     490,    5.740741e+01,    0.000000e+00,   -1.000000e+02
     491,    3.703704e+01,    0.000000e+00,   -1.000000e+02
     492,    1.666667e+01,    0.000000e+00,   -1.000000e+02
     493,   -3.703704e+00,    0.000000e+00,   -1.000000e+02
     494,   -2.407407e+01,    0.000000e+00,   -1.000000e+02
     495,   -4.444444e+01,    0.000000e+00,   -1.000000e+02
     496,   -6.481481e+01,    0.000000e+00,   -1.000000e+02
     497,   -8.518519e+01,    0.000000e+00,   -1.000000e+02
     498,   -1.055556e+02,    0.000000e+00,   -1.000000e+02
     499,   -1.259259e+02,    0.000000e+00,   -1.000000e+02
     500,   -1.462963e+02,    0.000000e+00,   -1.000000e+02
     501,   -1.666667e+02,    0.000000e+00,   -1.000000e+02
     502,   -1.870370e+02,    0.000000e+00,   -1.000000e+02
     503,   -2.074074e+02,    0.000000e+00,   -1.000000e+02
     504,   -2.277778e+02,    0.000000e+00,   -1.000000e+02
     505,   -2.481481e+02,    0.000000e+00,   -1.000000e+02
     506,   -2.685185e+02,    0.000000e+00,   -1.000000e+02
     507,   -2.888889e+02,    0.000000e+00,   -1.000000e+02
     508,   -3.092593e+02,    0.000000e+00,   -1.000000e+02
     509,   -3.296296e+02,    0.000000e+00,   -1.000000e+02
     510,    2.000000e+02,    0.000000e+00,   -2.000000e+01
     511,    2.000000e+02,    0.000000e+00,   -4.000000e+01
     512,    2.000000e+02,    0.000000e+00,   -6.000000e+01
     513,    2.000000e+02,    0.000000e+00,   -8.000000e+01
     514,    2.156408e+01,    0.000000e+00,   -9.235748e+00
     515,    1.682929e+01,    0.000000e+00,   -1.718078e+01
     516,    3.620589e+01,    0.000000e+00,   -1.522895e+01
     517,    2.693674e+01,    0.000000e+00,   -2.676165e+01
     518,    5.179964e+01,    0.000000e+00,   -2.242775e+01
     519,    3.782424e+01,    0.000000e+00,   -4.013475e+01
     520,    2.156844e+01,    0.000000e+00,   -5.013669e+01
     521,    1.650905e+01,    0.000000e+00,   -3.515468e+01
     522,    1.217536e+01,    0.000000e+00,   -2.552735e+01
     523,    3.114182e+00,    0.000000e+00,   -2.441642e+01
     524,   -6.545859e+00,    0.000000e+00,   -2.411110e+01
     525,    4.520426e+00,    0.000000e+00,   -3.843154e+01
     526,   -8.072056e+00,    0.000000e+00,   -4.066779e+01
     527,    6.074144e+00,    0.000000e+00,   -5.437630e+01
     528,   -6.791371e+00,    0.000000e+00,   -5.460811e+01
     529,    6.933755e+01,    0.000000e+00,   -2.874948e+01
     530,    4.796422e+01,    0.000000e+00,   -6.110499e+01
     531,    2.247909e+01,    0.000000e+00,   -7.184887e+01
     532,    1.882634e+00,    0.000000e+00,   -7.338219e+01
     533,   -1.837620e+01,    0.000000e+00,   -6.878026e+01
     534,   -2.306630e+01,    0.000000e+00,   -4.665280e+01
     535,    8.941392e+01,    0.000000e+00,   -3.190303e+01
     536,    7.096151e+01,    0.000000e+00,   -6.450314e+01
     537,    1.799632e+02,    0.000000e+00,   -2.193697e+01
     538,    1.587330e+02,    0.000000e+00,   -2.569518e+01
     539,    1.327657e+02,    0.000000e+00,   -3.717197e+01
     540,    1.101733e+02,    0.000000e+00,   -3.433215e+01
     541,   -4.219531e+01,    0.000000e+00,   -7.535104e+01
     542,   -4.275796e+01,    0.000000e+00,   -5.287697e+01
     543,   -6.358548e+01,    0.000000e+00,   -7.792719e+01
     544,   -6.316206e+01,    0.000000e+00,   -5.657630e+01
     545,   -6.417579e+01,    0.000000e+00,   -3.639692e+01
     546,   -2.452155e+01,    0.000000e+00,   -1.147638e+01
     547,    1.810512e+02,    0.000000e+00,   -8.096153e+01
     548,    1.814051e+02,    0.000000e+00,   -6.233968e+01
     549,    1.804585e+02,    0.000000e+00,   -4.291887e+01
     550,    1.121685e+02,    0.000000e+00,   -7.057599e+01
     551,    1.299972e+02,    0.000000e+00,   -7.616591e+01
     552,    1.460580e+02,    0.000000e+00,   -8.118372e+01
     553,    1.627851e+02,    0.000000e+00,   -8.187815e+01
     554,   -3.298011e+02,    0.000000e+00,   -1.999370e+01
     555,   -3.297346e+02,    0.000000e+00,   -3.998456e+01
     556,   -3.296865e+02,    0.000000e+00,   -5.997733e+01
     557,   -3.296555e+02,    0.000000e+00,   -7.998205e+01
     558,   -4.532879e+01,    0.000000e+00,   -1.570957e+01
     559,   -6.563284e+01,    0.000000e+00,   -1.791281e+01
     560,   -8.625325e+01,    0.000000e+00,   -1.900762e+01
     561,   -1.068497e+02,    0.000000e+00,   -1.952601e+01
     562,   -1.273385e+02,    0.000000e+00,   -1.977811e+01
     563,   -1.477359e+02,    0.000000e+00,   -1.988169e+01
     564,   -1.680668e+02,    0.000000e+00,   -1.993454e+01
     565,   -1.883465e+02,    0.000000e+00,   -1.996712e+01
     566,   -2.085953e+02,    0.000000e+00,   -1.997731e+01
     567,   -2.288196e+02,    0.000000e+00,   -1.998297e+01
     568,   -2.490276e+02,    0.000000e+00,   -1.998735e+01
     569,   -2.692285e+02,    0.000000e+00,   -1.998703e+01
     570,   -2.894215e+02,    0.000000e+00,   -1.998850e+01
     571,   -3.096126e+02,    0.000000e+00,   -1.998988e+01
     572,   -3.093078e+02,    0.000000e+00,   -7.996952e+01
     573,   -2.889660e+02,    0.000000e+00,   -7.996315e+01
     574,   -2.686195e+02,    0.000000e+00,   -7.996173e+01
     575,   -2.482762e+02,    0.000000e+00,   -7.996082e+01
     576,   -2.279322e+02,    0.000000e+00,   -7.994849e+01
     577,   -2.075663e+02,    0.000000e+00,   -7.994188e+01
     578,   -1.871232e+02,    0.000000e+00,   -7.992664e+01
     579,   -1.666820e+02,    0.000000e+00,   -7.989074e+01
     580,   -1.462396e+02,    0.000000e+00,   -7.984516e+01
     581,   -1.257237e+02,    0.000000e+00,   -7.973180e+01
     582,   -1.051254e+02,    0.000000e+00,   -7.949183e+01
     583,   -8.447473e+01,    0.000000e+00,   -7.898040e+01
     584,   -1.989383e+01,    0.000000e+00,   -2.403827e+01
     585,   -4.310503e+01,    0.000000e+00,   -3.257306e+01
     586,    1.608539e+02,    0.000000e+00,   -4.777512e+01
     587,    1.425524e+02,    0.000000e+00,   -5.717333e+01
     588,    9.213876e+01,    0.000000e+00,   -6.730932e+01
     589,   -3.094803e+02,    0.000000e+00,   -3.997460e+01
     590,   -3.093833e+02,    0.000000e+00,   -5.996728e+01
     591,   -8.475298e+01,    0.000000e+00,   -3.830791e+01
     592,   -1.056603e+02,    0.000000e+00,   -3.918023e+01
     593,   -1.263598e+02,    0.000000e+00,   -3.959174e+01
     594,   -1.469162e+02,    0.000000e+00,   -3.977731e+01
     595,   -1.673677e+02,    0.000000e+00,   -3.987184e+01
     596,   -1.877737e+02,    0.000000e+00,   -3.992085e+01
     597,   -2.081244e+02,    0.000000e+00,   -3.994259e+01
     598,   -2.284349e+02,    0.000000e+00,   -3.995384e+01
     599,   -2.487075e+02,    0.000000e+00,   -3.996429e+01
     600,   -2.689728e+02,    0.000000e+00,   -3.996469e+01
     601,   -2.892334e+02,    0.000000e+00,   -3.996881e+01
     602,   -2.890824e+02,    0.000000e+00,   -5.995929e+01
     603,   -2.687742e+02,    0.000000e+00,   -5.995873e+01
     604,   -2.484706e+02,    0.000000e+00,   -5.995115e+01
     605,   -2.281460e+02,    0.000000e+00,   -5.994158e+01
     606,   -2.077878e+02,    0.000000e+00,   -5.993093e+01
     607,   -1.873697e+02,    0.000000e+00,   -5.990290e+01
     608,   -1.669283e+02,    0.000000e+00,   -5.985674e+01
     609,   -1.464435e+02,    0.000000e+00,   -5.977144e+01
     610,   -1.258608e+02,    0.000000e+00,   -5.957657e+01
     611,   -1.051641e+02,    0.000000e+00,   -5.917363e+01
     612,   -8.440095e+01,    0.000000e+00,   -5.828051e+01
     613,    1.641049e+02,    0.000000e+00,   -6.505613e+01
     614,    1.507670e+02,    0.000000e+00,   -6.775271e+01
     615,   -3.500000e+02,    2.000000e+01,    0.000000e+00
     616,   -2.811765e+01,    2.000000e+01,    0.000000e+00
     617,   -4.823529e+01,    2.000000e+01,    0.000000e+00
     618,   -6.835294e+01,    2.000000e+01,    0.000000e+00
     619,   -8.847059e+01,    2.000000e+01,    0.000000e+00
     620,   -1.085882e+02,    2.000000e+01,    0.000000e+00
     621,   -1.287059e+02,    2.000000e+01,    0.000000e+00
     622,   -1.488235e+02,    2.000000e+01,    0.000000e+00
     623,   -1.689412e+02,    2.000000e+01,    0.000000e+00
     624,   -1.890588e+02,    2.000000e+01,    0.000000e+00
     625,   -2.091765e+02,    2.000000e+01,    0.000000e+00
     626,   -2.292941e+02,    2.000000e+01,    0.000000e+00
     627,   -2.494118e+02,    2.000000e+01,    0.000000e+00
     628,   -2.695294e+02,    2.000000e+01,    0.000000e+00
     629,   -2.896471e+02,    2.000000e+01,    0.000000e+00
     630,   -3.097647e+02,    2.000000e+01,    0.000000e+00
     631,   -3.298824e+02,    2.000000e+01,    0.000000e+00
     632,   -3.500000e+02,    1.500000e+01,    0.000000e+00
     633,   -3.500000e+02,    1.000000e+01,    0.000000e+00
     634,   -3.500000e+02,    5.000000e+00,    0.000000e+00
     635,   -2.811765e+01,    5.000000e+00,    0.000000e+00
     636,   -2.811765e+01,    1.000000e+01,    0.000000e+00
     637,   -2.811765e+01,    1.500000e+01,    0.000000e+00
     638,   -4.823529e+01,    5.000000e+00,    0.000000e+00
     639,   -4.823529e+01,    1.000000e+01,    0.000000e+00
     640,   -4.823529e+01,    1.500000e+01,    0.000000e+00
     641,   -6.835294e+01,    5.000000e+00,    0.000000e+00
     642,   -6.835294e+01,    1.000000e+01,    0.000000e+00
     643,   -6.835294e+01,    1.500000e+01,    0.000000e+00
     644,   -8.847059e+01,    5.000000e+00,    0.000000e+00
     645,   -8.847059e+01,    1.000000e+01,    0.000000e+00
     646,   -8.847059e+01,    1.500000e+01,    0.000000e+00
     647,   -1.085882e+02,    5.000000e+00,    0.000000e+00
     648,   -1.085882e+02,    1.000000e+01,    0.000000e+00
     649,   -1.085882e+02,    1.500000e+01,    0.000000e+00
     650,   -1.287059e+02,    5.000000e+00,    0.000000e+00
     651,   -1.287059e+02,    1.000000e+01,    0.000000e+00
     652,   -1.287059e+02,    1.500000e+01,    0.000000e+00
     653,   -1.488235e+02,    5.000000e+00,    0.000000e+00
     654,   -1.488235e+02,    1.000000e+01,    0.000000e+00
     655,   -1.488235e+02,    1.500000e+01,    0.000000e+00
     656,   -1.689412e+02,    5.000000e+00,    0.000000e+00
     657,   -1.689412e+02,    1.000000e+01,    0.000000e+00
     658,   -1.689412e+02,    1.500000e+01,    0.000000e+00
     659,   -1.890588e+02,    5.000000e+00,    0.000000e+00
     660,   -1.890588e+02,    1.000000e+01,    0.000000e+00
     661,   -1.890588e+02,    1.500000e+01,    0.000000e+00
     662,   -2.091765e+02,    5.000000e+00,    0.000000e+00
     663,   -2.091765e+02,    1.000000e+01,    0.000000e+00
     664,   -2.091765e+02,    1.500000e+01,    0.000000e+00
     665,   -2.292941e+02,    5.000000e+00,    0.000000e+00
     666,   -2.292941e+02,    1.000000e+01,    0.000000e+00
     667,   -2.292941e+02,    1.500000e+01,    0.000000e+00
     668,   -2.494118e+02,    5.000000e+00,    0.000000e+00
     669,   -2.494118e+02,    1.000000e+01,    0.000000e+00
     670,   -2.494118e+02,    1.500000e+01,    0.000000e+00
     671,   -2.695294e+02,    5.000000e+00,    0.000000e+00
     672,   -2.695294e+02,    1.000000e+01,    0.000000e+00
     673,   -2.695294e+02,    1.500000e+01,    0.000000e+00
     674,   -2.896471e+02,    5.000000e+00,    0.000000e+00
     675,   -2.896471e+02,    1.000000e+01,    0.000000e+00
     676,   -2.896471e+02,    1.500000e+01,    0.000000e+00
     677,   -3.097647e+02,    5.000000e+00,    0.000000e+00
     678,   -3.097647e+02,    1.000000e+01,    0.000000e+00
     679,   -3.097647e+02,    1.500000e+01,    0.000000e+00
     680,   -3.298824e+02,    5.000000e+00,    0.000000e+00
     681,   -3.298824e+02,    1.000000e+01,    0.000000e+00
     682,   -3.298824e+02,    1.500000e+01,    0.000000e+00
     683,    2.000000e+02,    2.000000e+01,    0.000000e+00
     684,    2.000000e+02,    5.000000e+00,    0.000000e+00
     685,    2.000000e+02,    1.000000e+01,    0.000000e+00
     686,    2.000000e+02,    1.500000e+01,    0.000000e+00
     687,    1.808000e+02,    2.000000e+01,    0.000000e+00
     688,    1.616000e+02,    2.000000e+01,    0.000000e+00
     689,    1.424000e+02,    2.000000e+01,    0.000000e+00
     690,    1.232000e+02,    2.000000e+01,    0.000000e+00
     691,    1.040000e+02,    2.000000e+01,    0.000000e+00
     692,    8.480000e+01,    2.000000e+01,    0.000000e+00
     693,    6.560000e+01,    2.000000e+01,    0.000000e+00
     694,    4.640000e+01,    2.000000e+01,    0.000000e+00
     695,    2.720000e+01,    2.000000e+01,    0.000000e+00
     696,    2.720000e+01,    1.500000e+01,    0.000000e+00
     697,    2.720000e+01,    1.000000e+01,    0.000000e+00
     698,    2.720000e+01,    5.000000e+00,    0.000000e+00
     699,    4.640000e+01,    1.500000e+01,    0.000000e+00
     700,    4.640000e+01,    1.000000e+01,    0.000000e+00
     701,    4.640000e+01,    5.000000e+00,    0.000000e+00
     702,    6.560000e+01,    1.500000e+01,    0.000000e+00
     703,    6.560000e+01,    1.000000e+01,    0.000000e+00
     704,    6.560000e+01,    5.000000e+00,    0.000000e+00
     705,    8.480000e+01,    1.500000e+01,    0.000000e+00
     706,    8.480000e+01,    1.000000e+01,    0.000000e+00
     707,    8.480000e+01,    5.000000e+00,    0.000000e+00
     708,    1.040000e+02,    1.500000e+01,    0.000000e+00
     709,    1.040000e+02,    1.000000e+01,    0.000000e+00
     710,    1.040000e+02,    5.000000e+00,    0.000000e+00
     711,    1.232000e+02,    1.500000e+01,    0.000000e+00
     712,    1.232000e+02,    1.000000e+01,    0.000000e+00
     713,    1.232000e+02,    5.000000e+00,    0.000000e+00
     714,    1.424000e+02,    1.500000e+01,    0.000000e+00
     715,    1.424000e+02,    1.000000e+01,    0.000000e+00
     716,    1.424000e+02,    5.000000e+00,    0.000000e+00
     717,    1.616000e+02,    1.500000e+01,    0.000000e+00
     718,    1.616000e+02,    1.000000e+01,    0.000000e+00
     719,    1.616000e+02,    5.000000e+00,    0.000000e+00
     720,    1.808000e+02,    1.500000e+01,    0.000000e+00
     721,    1.808000e+02,    1.000000e+01,    0.000000e+00
     722,    1.808000e+02,    5.000000e+00,    0.000000e+00
     723,    2.000000e+02,    2.000000e+01,   -1.000000e+02
     724,    2.000000e+02,    1.500000e+01,   -1.000000e+02
     725,    2.000000e+02,    1.000000e+01,   -1.000000e+02
     726,    2.000000e+02,    5.000000e+00,   -1.000000e+02
     727,   -3.500000e+02,    2.000000e+01,   -1.000000e+02
     728,   -3.500000e+02,    5.000000e+00,   -1.000000e+02
     729,   -3.500000e+02,    1.000000e+01,   -1.000000e+02
     730,   -3.500000e+02,    1.500000e+01,   -1.000000e+02
     731,   -3.296296e+02,    2.000000e+01,   -1.000000e+02
     732,   -3.092593e+02,    2.000000e+01,   -1.000000e+02
     733,   -2.888889e+02,    2.000000e+01,   -1.000000e+02
     734,   -2.685185e+02,    2.000000e+01,   -1.000000e+02
     735,   -2.481481e+02,    2.000000e+01,   -1.000000e+02
     736,   -2.277778e+02,    2.000000e+01,   -1.000000e+02
     737,   -2.074074e+02,    2.000000e+01,   -1.000000e+02
     738,   -1.870370e+02,    2.000000e+01,   -1.000000e+02
     739,   -1.666667e+02,    2.000000e+01,   -1.000000e+02
     740,   -1.462963e+02,    2.000000e+01,   -1.000000e+02
     741,   -1.259259e+02,    2.000000e+01,   -1.000000e+02
     742,   -1.055556e+02,    2.000000e+01,   -1.000000e+02
     743,   -8.518519e+01,    2.000000e+01,   -1.000000e+02
     744,   -6.481481e+01,    2.000000e+01,   -1.000000e+02
     745,   -4.444444e+01,    2.000000e+01,   -1.000000e+02
     746,   -2.407407e+01,    2.000000e+01,   -1.000000e+02
     747,   -3.703704e+00,    2.000000e+01,   -1.000000e+02
     748,    1.666667e+01,    2.000000e+01,   -1.000000e+02
     749,    3.703704e+01,    2.000000e+01,   -1.000000e+02
     750,    5.740741e+01,    2.000000e+01,   -1.000000e+02
     751,    7.777778e+01,    2.000000e+01,   -1.000000e+02
     752,    9.814815e+01,    2.000000e+01,   -1.000000e+02
     753,    1.185185e+02,    2.000000e+01,   -1.000000e+02
     754,    1.388889e+02,    2.000000e+01,   -1.000000e+02
     755,    1.592593e+02,    2.000000e+01,   -1.000000e+02
     756,    1.796296e+02,    2.000000e+01,   -1.000000e+02
     757,    1.796296e+02,    1.500000e+01,   -1.000000e+02
     758,    1.796296e+02,    1.000000e+01,   -1.000000e+02
     759,    1.796296e+02,    5.000000e+00,   -1.000000e+02
     760,    1.592593e+02,    1.500000e+01,   -1.000000e+02
     761,    1.592593e+02,    1.000000e+01,   -1.000000e+02
     762,    1.592593e+02,    5.000000e+00,   -1.000000e+02
     763,    1.388889e+02,    1.500000e+01,   -1.000000e+02
     764,    1.388889e+02,    1.000000e+01,   -1.000000e+02
     765,    1.388889e+02,    5.000000e+00,   -1.000000e+02
     766,    1.185185e+02,    1.500000e+01,   -1.000000e+02
     767,    1.185185e+02,    1.000000e+01,   -1.000000e+02
     768,    1.185185e+02,    5.000000e+00,   -1.000000e+02
     769,    9.814815e+01,    1.500000e+01,   -1.000000e+02
     770,    9.814815e+01,    1.000000e+01,   -1.000000e+02
     771,    9.814815e+01,    5.000000e+00,   -1.000000e+02
     772,    7.777778e+01,    1.500000e+01,   -1.000000e+02
     773,    7.777778e+01,    1.000000e+01,   -1.000000e+02
     774,    7.777778e+01,    5.000000e+00,   -1.000000e+02
     775,    5.740741e+01,    1.500000e+01,   -1.000000e+02
     776,    5.740741e+01,    1.000000e+01,   -1.000000e+02
     777,    5.740741e+01,    5.000000e+00,   -1.000000e+02
     778,    3.703704e+01,    1.500000e+01,   -1.000000e+02
     779,    3.703704e+01,    1.000000e+01,   -1.000000e+02
     780,    3.703704e+01,    5.000000e+00,   -1.000000e+02
     781,    1.666667e+01,    1.500000e+01,   -1.000000e+02
     782,    1.666667e+01,    1.000000e+01,   -1.000000e+02
     783,    1.666667e+01,    5.000000e+00,   -1.000000e+02
     784,   -3.703704e+00,    1.500000e+01,   -1.000000e+02
     785,   -3.703704e+00,    1.000000e+01,   -1.000000e+02
     786,   -3.703704e+00,    5.000000e+00,   -1.000000e+02
     787,   -2.407407e+01,    1.500000e+01,   -1.000000e+02
     788,   -2.407407e+01,    1.000000e+01,   -1.000000e+02
     789,   -2.407407e+01,    5.000000e+00,   -1.000000e+02
     790,   -4.444444e+01,    1.500000e+01,   -1.000000e+02
     791,   -4.444444e+01,    1.000000e+01,   -1.000000e+02
     792,   -4.444444e+01,    5.000000e+00,   -1.000000e+02
     793,   -6.481481e+01,    1.500000e+01,   -1.000000e+02
     794,   -6.481481e+01,    1.000000e+01,   -1.000000e+02
     795,   -6.481481e+01,    5.000000e+00,   -1.000000e+02
     796,   -8.518519e+01,    1.500000e+01,   -1.000000e+02
     797,   -8.518519e+01,    1.000000e+01,   -1.000000e+02
     798,   -8.518519e+01,    5.000000e+00,   -1.000000e+02
     799,   -1.055556e+02,    1.500000e+01,   -1.000000e+02
     800,   -1.055556e+02,    1.000000e+01,   -1.000000e+02
     801,   -1.055556e+02,    5.000000e+00,   -1.000000e+02
     802,   -1.259259e+02,    1.500000e+01,   -1.000000e+02
     803,   -1.259259e+02,    1.000000e+01,   -1.000000e+02
     804,   -1.259259e+02,    5.000000e+00,   -1.000000e+02
     805,   -1.462963e+02,    1.500000e+01,   -1.000000e+02
     806,   -1.462963e+02,    1.000000e+01,   -1.000000e+02
     807,   -1.462963e+02,    5.000000e+00,   -1.000000e+02
     808,   -1.666667e+02,    1.500000e+01,   -1.000000e+02
     809,   -1.666667e+02,    1.000000e+01,   -1.000000e+02
     810,   -1.666667e+02,    5.000000e+00,   -1.000000e+02
     811,   -1.870370e+02,    1.500000e+01,   -1.000000e+02
     812,   -1.870370e+02,    1.000000e+01,   -1.000000e+02
     813,   -1.870370e+02,    5.000000e+00,   -1.000000e+02
     814,   -2.074074e+02,    1.500000e+01,   -1.000000e+02
     815,   -2.074074e+02,    1.000000e+01,   -1.000000e+02
     816,   -2.074074e+02,    5.000000e+00,   -1.000000e+02
     817,   -2.277778e+02,    1.500000e+01,   -1.000000e+02
     818,   -2.277778e+02,    1.000000e+01,   -1.000000e+02
     819,   -2.277778e+02,    5.000000e+00,   -1.000000e+02
     820,   -2.481481e+02,    1.500000e+01,   -1.000000e+02
     821,   -2.481481e+02,    1.000000e+01,   -1.000000e+02
     822,   -2.481481e+02,    5.000000e+00,   -1.000000e+02
     823,   -2.685185e+02,    1.500000e+01,   -1.000000e+02
     824,   -2.685185e+02,    1.000000e+01,   -1.000000e+02
     825,   -2.685185e+02,    5.000000e+00,   -1.000000e+02
     826,   -2.888889e+02,    1.500000e+01,   -1.000000e+02
     827,   -2.888889e+02,    1.000000e+01,   -1.000000e+02
     828,   -2.888889e+02,    5.000000e+00,   -1.000000e+02
     829,   -3.092593e+02,    1.500000e+01,   -1.000000e+02
     830,   -3.092593e+02,    1.000000e+01,   -1.000000e+02
     831,   -3.092593e+02,    5.000000e+00,   -1.000000e+02
     832,   -3.296296e+02,    1.500000e+01,   -1.000000e+02
     833,   -3.296296e+02,    1.000000e+01,   -1.000000e+02
     834,   -3.296296e+02,    5.000000e+00,   -1.000000e+02
     835,   -3.500000e+02,    2.000000e+01,   -2.000000e+01
     836,   -3.500000e+02,    2.000000e+01,   -4.000000e+01
     837,   -3.500000e+02,    2.000000e+01,   -6.000000e+01
     838,   -3.500000e+02,    2.000000e+01,   -8.000000e+01
     839,   -3.500000e+02,    5.000000e+00,   -2.000000e+01
     840,   -3.500000e+02,    1.000000e+01,   -2.000000e+01
     841,   -3.500000e+02,    1.500000e+01,   -2.000000e+01
     842,   -3.500000e+02,    5.000000e+00,   -4.000000e+01
     843,   -3.500000e+02,    1.000000e+01,   -4.000000e+01
     844,   -3.500000e+02,    1.500000e+01,   -4.000000e+01
     845,   -3.500000e+02,    5.000000e+00,   -6.000000e+01
     846,   -3.500000e+02,    1.000000e+01,   -6.000000e+01
     847,   -3.500000e+02,    1.500000e+01,   -6.000000e+01
     848,   -3.500000e+02,    5.000000e+00,   -8.000000e+01
     849,   -3.500000e+02,    1.000000e+01,   -8.000000e+01
     850,   -3.500000e+02,    1.500000e+01,   -8.000000e+01
     851,    2.000000e+02,    2.000000e+01,   -2.000000e+01
     852,    2.000000e+02,    2.000000e+01,   -4.000000e+01
     853,    2.000000e+02,    2.000000e+01,   -6.000000e+01
     854,    2.000000e+02,    2.000000e+01,   -8.000000e+01
     855,    2.000000e+02,    1.500000e+01,   -2.000000e+01
     856,    2.000000e+02,    1.000000e+01,   -2.000000e+01
     857,    2.000000e+02,    5.000000e+00,   -2.000000e+01
     858,    2.000000e+02,    1.500000e+01,   -4.000000e+01
     859,    2.000000e+02,    1.000000e+01,   -4.000000e+01
     860,    2.000000e+02,    5.000000e+00,   -4.000000e+01
     861,    2.000000e+02,    1.500000e+01,   -6.000000e+01
     862,    2.000000e+02,    1.000000e+01,   -6.000000e+01
     863,    2.000000e+02,    5.000000e+00,   -6.000000e+01
     864,    2.000000e+02,    1.500000e+01,   -8.000000e+01
     865,    2.000000e+02,    1.000000e+01,   -8.000000e+01
     866,    2.000000e+02,    5.000000e+00,   -8.000000e+01
     867,    2.090693e+01,    5.510618e+00,   -9.509382e+00
     868,    1.682929e+01,    5.000000e+00,   -1.718078e+01
     869,    3.954677e+01,    5.010810e+00,   -1.558428e+01
     870,    2.947610e+01,    5.298950e+00,   -2.899707e+01
     871,    5.372505e+01,    5.020948e+00,   -2.206982e+01
     872,    3.930061e+01,    5.015735e+00,   -4.192768e+01
     873,    1.650905e+01,    5.000000e+00,   -3.515468e+01
     874,    2.237881e+01,    5.050520e+00,   -5.305172e+01
     875,    1.217536e+01,    5.000000e+00,   -2.552735e+01
     876,    3.683564e+00,    4.953352e+00,   -2.256757e+01
     877,   -4.099909e+00,    4.915056e+00,   -2.299524e+01
     878,   -1.881089e+01,    4.984978e+00,   -2.347677e+01
     879,    4.520426e+00,    5.000000e+00,   -3.843154e+01
     880,   -9.802571e+00,    4.933964e+00,   -4.210173e+01
     881,   -2.372560e+01,    4.991028e+00,   -4.728090e+01
     882,    6.365556e+00,    5.069076e+00,   -5.778740e+01
     883,   -9.151949e+00,    5.180422e+00,   -5.916631e+01
     884,    6.923165e+01,    4.993144e+00,   -2.887252e+01
     885,    4.799941e+01,    4.998297e+00,   -6.142406e+01
     886,    2.227915e+01,    4.994235e+00,   -7.250143e+01
     887,    1.180211e+00,    5.020325e+00,   -7.551735e+01
     888,   -1.966315e+01,    5.024160e+00,   -7.085607e+01
     889,    8.901729e+01,    4.998995e+00,   -3.205978e+01
     890,    7.127179e+01,    5.002672e+00,   -6.481684e+01
     891,    1.800826e+02,    4.999224e+00,   -2.202560e+01
     892,    1.589268e+02,    5.000510e+00,   -2.605671e+01
     893,    1.328768e+02,    5.003487e+00,   -3.726084e+01
     894,    1.098545e+02,    5.004712e+00,   -3.432352e+01
     895,   -4.253827e+01,    5.003113e+00,   -7.537254e+01
     896,   -4.308190e+01,    4.999647e+00,   -5.286435e+01
     897,   -6.378680e+01,    5.000747e+00,   -7.775145e+01
     898,   -6.368150e+01,    5.000876e+00,   -5.638957e+01
     899,   -4.298337e+01,    4.994263e+00,   -3.241010e+01
     900,   -6.438803e+01,    4.999029e+00,   -3.630704e+01
     901,    1.818679e+02,    5.003222e+00,   -8.132966e+01
     902,    1.831095e+02,    5.019672e+00,   -6.175158e+01
     903,    1.808985e+02,    5.003091e+00,   -4.217953e+01
     904,   -2.346292e+01,    4.909289e+00,   -1.154266e+01
     905,    9.249337e+01,    4.998958e+00,   -6.725193e+01
     906,    1.125679e+02,    4.996188e+00,   -7.030505e+01
     907,    1.286664e+02,    4.996689e+00,   -7.663618e+01
     908,    1.447157e+02,    5.046374e+00,   -8.370498e+01
     909,    1.634376e+02,    4.978466e+00,   -8.253740e+01
     910,   -3.298081e+02,    4.999996e+00,   -1.999419e+01
     911,   -3.297442e+02,    4.999995e+00,   -3.998765e+01
     912,   -3.296948e+02,    4.999993e+00,   -5.998392e+01
     913,   -3.296587e+02,    4.999982e+00,   -7.998783e+01
     914,   -4.544475e+01,    4.988606e+00,   -1.623787e+01
     915,   -6.604331e+01,    4.999758e+00,   -1.790214e+01
     916,   -8.655769e+01,    5.000350e+00,   -1.894281e+01
     917,   -1.070311e+02,    5.000146e+00,   -1.948169e+01
     918,   -1.274517e+02,    5.000058e+00,   -1.974740e+01
     919,   -1.478112e+02,    5.000036e+00,   -1.986940e+01
     920,   -1.681180e+02,    5.000017e+00,   -1.992865e+01
     921,   -1.883856e+02,    5.000009e+00,   -1.995975e+01
     922,   -2.086255e+02,    5.000008e+00,   -1.997342e+01
     923,   -2.288440e+02,    5.000006e+00,   -1.998032e+01
     924,   -2.490474e+02,    5.000001e+00,   -1.998451e+01
     925,   -2.692429e+02,    5.000003e+00,   -1.998594e+01
     926,   -2.894330e+02,    5.000002e+00,   -1.998767e+01
     927,   -3.096206e+02,    5.000003e+00,   -1.999004e+01
     928,   -3.093174e+02,    4.999982e+00,   -7.997902e+01
     929,   -2.889781e+02,    4.999982e+00,   -7.997389e+01
     930,   -2.686368e+02,    4.999987e+00,   -7.997150e+01
     931,   -2.482945e+02,    4.999992e+00,   -7.996865e+01
     932,   -2.279459e+02,    4.999992e+00,   -7.996121e+01
     933,   -2.075776e+02,    4.999959e+00,   -7.995294e+01
     934,   -1.871709e+02,    4.999944e+00,   -7.993678e+01
     935,   -1.667495e+02,    4.999985e+00,   -7.990450e+01
     936,   -1.463085e+02,    5.000000e+00,   -7.984730e+01
     937,   -1.258152e+02,    4.999998e+00,   -7.972194e+01
     938,   -1.052554e+02,    5.000071e+00,   -7.945652e+01
     939,   -8.461731e+01,    4.999994e+00,   -7.889787e+01
     940,    1.616114e+02,    5.010723e+00,   -4.592902e+01
     941,    1.421470e+02,    5.002247e+00,   -5.607340e+01
     942,   -3.094939e+02,    5.000005e+00,   -3.997888e+01
     943,   -3.093942e+02,    5.000002e+00,   -5.997376e+01
     944,   -8.515391e+01,    5.000468e+00,   -3.820920e+01
     945,   -1.058828e+02,    5.000041e+00,   -3.912716e+01
     946,   -1.265013e+02,    5.000014e+00,   -3.956668e+01
     947,   -1.470151e+02,    5.000000e+00,   -3.977210e+01
     948,   -1.674453e+02,    5.000000e+00,   -3.987153e+01
     949,   -1.878248e+02,    4.999996e+00,   -3.992156e+01
     950,   -2.081610e+02,    4.999994e+00,   -3.994576e+01
     951,   -2.284611e+02,    5.000004e+00,   -3.995817e+01
     952,   -2.487330e+02,    5.000008e+00,   -3.996640e+01
     953,   -2.689927e+02,    4.999999e+00,   -3.996966e+01
     954,   -2.892464e+02,    5.000006e+00,   -3.997335e+01
     955,   -2.890954e+02,    5.000002e+00,   -5.996702e+01
     956,   -2.687926e+02,    5.000003e+00,   -5.996377e+01
     957,   -2.484869e+02,    5.000005e+00,   -5.995819e+01
     958,   -2.281656e+02,    5.000000e+00,   -5.994938e+01
     959,   -2.078153e+02,    4.999979e+00,   -5.993655e+01
     960,   -1.874223e+02,    4.999983e+00,   -5.991018e+01
     961,   -1.669969e+02,    5.000005e+00,   -5.986086e+01
     962,   -1.465260e+02,    4.999989e+00,   -5.976411e+01
     963,   -1.259755e+02,    4.999990e+00,   -5.955626e+01
     964,   -1.053285e+02,    5.000042e+00,   -5.911912e+01
     965,   -8.458760e+01,    4.999897e+00,   -5.820138e+01
     966,    1.662666e+02,    5.052104e+00,   -6.387072e+01
     967,    1.493976e+02,    5.192651e+00,   -6.683205e+01
     968,    2.100297e+01,    1.000959e+01,   -9.533455e+00
     969,    1.682929e+01,    1.000000e+01,   -1.718078e+01
     970,    3.972712e+01,    9.998408e+00,   -1.564077e+01
     971,    2.990233e+01,    9.956746e+00,   -2.911233e+01
     972,    5.415589e+01,    9.999939e+00,   -2.203526e+01
     973,    3.955592e+01,    1.000530e+01,   -4.236352e+01
     974,    1.650905e+01,    1.000000e+01,   -3.515468e+01
     975,    2.274521e+01,    9.999371e+00,   -5.346425e+01
     976,    1.217536e+01,    1.000000e+01,   -2.552735e+01
     977,    3.662437e+00,    1.000000e+01,   -2.255588e+01
     978,   -4.139098e+00,    9.999870e+00,   -2.316774e+01
     979,   -1.856607e+01,    9.999772e+00,   -2.336101e+01
     980,    4.520426e+00,    1.000000e+01,   -3.843154e+01
     981,   -1.008694e+01,    9.973931e+00,   -4.247795e+01
     982,   -2.387182e+01,    9.998144e+00,   -4.740116e+01
     983,    6.662176e+00,    9.999279e+00,   -5.822853e+01
     984,   -9.445368e+00,    9.994091e+00,   -5.984781e+01
     985,    6.924105e+01,    1.000001e+01,   -2.890177e+01
     986,    4.802107e+01,    1.000001e+01,   -6.153841e+01
     987,    2.222389e+01,    9.998603e+00,   -7.279446e+01
     988,    1.093711e+00,    9.999519e+00,   -7.591536e+01
     989,   -2.003413e+01,    9.996178e+00,   -7.125401e+01
     990,    8.892319e+01,    1.000000e+01,   -3.209068e+01
     991,    7.135376e+01,    9.999996e+00,   -6.490135e+01
     992,    1.801210e+02,    9.999962e+00,   -2.204118e+01
     993,    1.589775e+02,    9.999977e+00,   -2.611693e+01
     994,    1.329135e+02,    1.000002e+01,   -3.726351e+01
     995,    1.097779e+02,    1.000000e+01,   -3.431569e+01
     996,   -4.265718e+01,    9.999641e+00,   -7.539655e+01
     997,   -4.318238e+01,    9.999944e+00,   -5.286224e+01
     998,   -6.385334e+01,    9.999991e+00,   -7.770641e+01
     999,   -6.381871e+01,    9.999999e+00,   -5.633868e+01
    1000,   -4.294823e+01,    9.999982e+00,   -3.236411e+01
    1001,   -6.446369e+01,    1.000000e+01,   -3.627912e+01
    1002,    1.820711e+02,    9.999831e+00,   -8.132645e+01
    1003,    1.831723e+02,    1.000073e+01,   -6.167408e+01
    1004,    1.810011e+02,    9.999308e+00,   -4.204756e+01
    1005,   -2.340229e+01,    9.999635e+00,   -1.149532e+01
    1006,    9.258558e+01,    1.000000e+01,   -6.724829e+01
    1007,    1.126411e+02,    1.000000e+01,   -7.025976e+01
    1008,    1.283686e+02,    9.999981e+00,   -7.669710e+01
    1009,    1.447833e+02,    9.999796e+00,   -8.387956e+01
    1010,    1.635602e+02,    9.999872e+00,   -8.252872e+01
    1011,   -3.298100e+02,    1.000000e+01,   -1.999437e+01
    1012,   -3.297469e+02,    1.000000e+01,   -3.998857e+01
    1013,   -3.296971e+02,    1.000000e+01,   -5.998570e+01
    1014,   -3.296597e+02,    1.000000e+01,   -7.998943e+01
    1015,   -4.540432e+01,    9.999798e+00,   -1.622761e+01
    1016,   -6.614997e+01,    9.999995e+00,   -1.789610e+01
    1017,   -8.664820e+01,    1.000000e+01,   -1.892565e+01
    1018,   -1.070849e+02,    1.000000e+01,   -1.946916e+01
    1019,   -1.274846e+02,    1.000000e+01,   -1.973911e+01
    1020,   -1.478330e+02,    1.000000e+01,   -1.986595e+01
    1021,   -1.681331e+02,    1.000000e+01,   -1.992702e+01
    1022,   -1.883969e+02,    1.000000e+01,   -1.995799e+01
    1023,   -2.086342e+02,    1.000000e+01,   -1.997245e+01
    1024,   -2.288509e+02,    1.000000e+01,   -1.997970e+01
    1025,   -2.490530e+02,    1.000000e+01,   -1.998386e+01
    1026,   -2.692471e+02,    1.000000e+01,   -1.998573e+01
    1027,   -2.894362e+02,    1.000000e+01,   -1.998757e+01
    1028,   -3.096230e+02,    1.000000e+01,   -1.999017e+01
    1029,   -3.093200e+02,    1.000000e+01,   -7.998159e+01
    1030,   -2.889816e+02,    1.000000e+01,   -7.997681e+01
    1031,   -2.686416e+02,    1.000000e+01,   -7.997415e+01
    1032,   -2.482995e+02,    1.000000e+01,   -7.997098e+01
    1033,   -2.279499e+02,    1.000000e+01,   -7.996457e+01
    1034,   -2.075819e+02,    1.000000e+01,   -7.995598e+01
    1035,   -1.871841e+02,    1.000000e+01,   -7.993967e+01
    1036,   -1.667681e+02,    1.000000e+01,   -7.990789e+01
    1037,   -1.463285e+02,    1.000000e+01,   -7.984770e+01
    1038,   -1.258417e+02,    1.000000e+01,   -7.971862e+01
    1039,   -1.052921e+02,    1.000000e+01,   -7.944555e+01
    1040,   -8.466014e+01,    1.000000e+01,   -7.887311e+01
    1041,    1.616041e+02,    9.999412e+00,   -4.561521e+01
    1042,    1.422016e+02,    1.000040e+01,   -5.574553e+01
    1043,   -3.094978e+02,    1.000000e+01,   -3.998013e+01
    1044,   -3.093976e+02,    1.000000e+01,   -5.997577e+01
    1045,   -8.526409e+01,    1.000000e+01,   -3.818121e+01
    1046,   -1.059495e+02,    1.000000e+01,   -3.911099e+01
    1047,   -1.265436e+02,    1.000000e+01,   -3.955898e+01
    1048,   -1.470444e+02,    1.000000e+01,   -3.977013e+01
    1049,   -1.674679e+02,    1.000000e+01,   -3.987140e+01
    1050,   -1.878402e+02,    1.000000e+01,   -3.992182e+01
    1051,   -2.081718e+02,    1.000000e+01,   -3.994663e+01
    1052,   -2.284690e+02,    1.000000e+01,   -3.995936e+01
    1053,   -2.487402e+02,    1.000000e+01,   -3.996714e+01
    1054,   -2.689985e+02,    1.000000e+01,   -3.997099e+01
    1055,   -2.892504e+02,    1.000000e+01,   -3.997468e+01
    1056,   -2.890994e+02,    1.000000e+01,   -5.996930e+01
    1057,   -2.687980e+02,    1.000000e+01,   -5.996549e+01
    1058,   -2.484922e+02,    1.000000e+01,   -5.996024e+01
    1059,   -2.281716e+02,    1.000000e+01,   -5.995171e+01
    1060,   -2.078238e+02,    1.000000e+01,   -5.993840e+01
    1061,   -1.874379e+02,    1.000000e+01,   -5.991225e+01
    1062,   -1.670176e+02,    1.000000e+01,   -5.986209e+01
    1063,   -1.465512e+02,    1.000000e+01,   -5.976213e+01
    1064,   -1.260105e+02,    1.000000e+01,   -5.954983e+01
    1065,   -1.053784e+02,    1.000000e+01,   -5.910294e+01
    1066,   -8.465314e+01,    1.000000e+01,   -5.817497e+01
    1067,    1.663592e+02,    9.972472e+00,   -6.401887e+01
    1068,    1.493409e+02,    9.969327e+00,   -6.707324e+01
    1069,    2.091040e+01,    1.450869e+01,   -9.511349e+00
    1070,    1.682929e+01,    1.500000e+01,   -1.718078e+01
    1071,    3.954602e+01,    1.498625e+01,   -1.558394e+01
    1072,    2.946301e+01,    1.461586e+01,   -2.898896e+01
    1073,    5.372541e+01,    1.497902e+01,   -2.206966e+01
    1074,    3.932037e+01,    1.499138e+01,   -4.193005e+01
    1075,    1.650905e+01,    1.500000e+01,   -3.515468e+01
    1076,    2.237590e+01,    1.494853e+01,   -5.305872e+01
    1077,    1.217536e+01,    1.500000e+01,   -2.552735e+01
    1078,    3.682905e+00,    1.503944e+01,   -2.256683e+01
    1079,   -4.084785e+00,    1.507905e+01,   -2.298953e+01
    1080,   -1.881069e+01,    1.501470e+01,   -2.347665e+01
    1081,    4.520426e+00,    1.500000e+01,   -3.843154e+01
    1082,   -9.796597e+00,    1.501567e+01,   -4.209670e+01
    1083,   -2.372202e+01,    1.500607e+01,   -4.728024e+01
    1084,    6.361203e+00,    1.492888e+01,   -5.779439e+01
    1085,   -9.161470e+00,    1.480505e+01,   -5.921007e+01
    1086,    6.923168e+01,    1.500688e+01,   -2.887252e+01
    1087,    4.800001e+01,    1.500180e+01,   -6.142414e+01
    1088,    2.227716e+01,    1.500283e+01,   -7.250948e+01
    1089,    1.177978e+00,    1.497892e+01,   -7.552091e+01
    1090,   -1.967339e+01,    1.496954e+01,   -7.086175e+01
    1091,    8.901729e+01,    1.500101e+01,   -3.205978e+01
    1092,    7.127180e+01,    1.499732e+01,   -6.481685e+01
    1093,    1.800825e+02,    1.500072e+01,   -2.202528e+01
    1094,    1.589269e+02,    1.499945e+01,   -2.605673e+01
    1095,    1.328768e+02,    1.499653e+01,   -3.726086e+01
    1096,    1.098545e+02,    1.499529e+01,   -3.432352e+01
    1097,   -4.253838e+01,    1.499636e+01,   -7.537276e+01
    1098,   -4.308179e+01,    1.500025e+01,   -5.286431e+01
    1099,   -6.378679e+01,    1.499924e+01,   -7.775145e+01
    1100,   -6.368150e+01,    1.499912e+01,   -5.638957e+01
    1101,   -4.298330e+01,    1.500571e+01,   -3.241012e+01
    1102,   -6.438803e+01,    1.500097e+01,   -3.630704e+01
    1103,    1.818689e+02,    1.499652e+01,   -8.133398e+01
    1104,    1.831197e+02,    1.498177e+01,   -6.174812e+01
    1105,    1.808980e+02,    1.499573e+01,   -4.217215e+01
    1106,   -2.345915e+01,    1.509062e+01,   -1.154327e+01
    1107,    9.249337e+01,    1.500104e+01,   -6.725193e+01
    1108,    1.125679e+02,    1.500381e+01,   -7.030506e+01
    1109,    1.286662e+02,    1.500323e+01,   -7.663653e+01
    1110,    1.447086e+02,    1.495319e+01,   -8.370987e+01
    1111,    1.634361e+02,    1.502128e+01,   -8.253609e+01
    1112,   -3.298081e+02,    1.500000e+01,   -1.999419e+01
    1113,   -3.297442e+02,    1.500000e+01,   -3.998765e+01
    1114,   -3.296948e+02,    1.500001e+01,   -5.998392e+01
    1115,   -3.296587e+02,    1.500002e+01,   -7.998783e+01
    1116,   -4.544340e+01,    1.501135e+01,   -1.623753e+01
    1117,   -6.604326e+01,    1.500024e+01,   -1.790213e+01
    1118,   -8.655769e+01,    1.499965e+01,   -1.894281e+01
    1119,   -1.070311e+02,    1.499985e+01,   -1.948169e+01
    1120,   -1.274517e+02,    1.499994e+01,   -1.974740e+01
    1121,   -1.478112e+02,    1.499996e+01,   -1.986940e+01
    1122,   -1.681180e+02,    1.499998e+01,   -1.992865e+01
    1123,   -1.883856e+02,    1.499999e+01,   -1.995976e+01
    1124,   -2.086255e+02,    1.499999e+01,   -1.997342e+01
    1125,   -2.288440e+02,    1.499999e+01,   -1.998032e+01
    1126,   -2.490474e+02,    1.500000e+01,   -1.998451e+01
    1127,   -2.692429e+02,    1.500000e+01,   -1.998594e+01
    1128,   -2.894330e+02,    1.500000e+01,   -1.998767e+01
    1129,   -3.096206e+02,    1.500000e+01,   -1.999004e+01
    1130,   -3.093174e+02,    1.500002e+01,   -7.997902e+01
    1131,   -2.889781e+02,    1.500002e+01,   -7.997389e+01
    1132,   -2.686368e+02,    1.500001e+01,   -7.997150e+01
    1133,   -2.482945e+02,    1.500001e+01,   -7.996865e+01
    1134,   -2.279459e+02,    1.500001e+01,   -7.996121e+01
    1135,   -2.075776e+02,    1.500004e+01,   -7.995294e+01
    1136,   -1.871709e+02,    1.500006e+01,   -7.993678e+01
    1137,   -1.667495e+02,    1.500001e+01,   -7.990450e+01
    1138,   -1.463085e+02,    1.500000e+01,   -7.984730e+01
    1139,   -1.258152e+02,    1.500000e+01,   -7.972194e+01
    1140,   -1.052554e+02,    1.499993e+01,   -7.945652e+01
    1141,   -8.461731e+01,    1.500001e+01,   -7.889787e+01
    1142,    1.616143e+02,    1.498847e+01,   -4.592995e+01
    1143,    1.421478e+02,    1.499826e+01,   -5.607584e+01
    1144,   -3.094939e+02,    1.499999e+01,   -3.997888e+01
    1145,   -3.093942e+02,    1.500000e+01,   -5.997376e+01
    1146,   -8.515391e+01,    1.499953e+01,   -3.820920e+01
    1147,   -1.058828e+02,    1.499996e+01,   -3.912716e+01
    1148,   -1.265013e+02,    1.499999e+01,   -3.956668e+01
    1149,   -1.470151e+02,    1.500000e+01,   -3.977210e+01
    1150,   -1.674453e+02,    1.500000e+01,   -3.987153e+01
    1151,   -1.878248e+02,    1.500000e+01,   -3.992156e+01
    1152,   -2.081610e+02,    1.500001e+01,   -3.994576e+01
    1153,   -2.284611e+02,    1.500000e+01,   -3.995817e+01
    1154,   -2.487330e+02,    1.499999e+01,   -3.996640e+01
    1155,   -2.689927e+02,    1.500000e+01,   -3.996966e+01
    1156,   -2.892464e+02,    1.499999e+01,   -3.997335e+01
    1157,   -2.890954e+02,    1.500000e+01,   -5.996702e+01
    1158,   -2.687926e+02,    1.500000e+01,   -5.996377e+01
    1159,   -2.484869e+02,    1.499999e+01,   -5.995819e+01
    1160,   -2.281656e+02,    1.500000e+01,   -5.994938e+01
    1161,   -2.078153e+02,    1.500002e+01,   -5.993655e+01
    1162,   -1.874223e+02,    1.500002e+01,   -5.991018e+01
    1163,   -1.669969e+02,    1.499999e+01,   -5.986086e+01
    1164,   -1.465260e+02,    1.500001e+01,   -5.976411e+01
    1165,   -1.259755e+02,    1.500001e+01,   -5.955626e+01
    1166,   -1.053285e+02,    1.499996e+01,   -5.911912e+01
    1167,   -8.458760e+01,    1.500010e+01,   -5.820138e+01
    1168,    1.662599e+02,    1.489253e+01,   -6.386913e+01
    1169,    1.493943e+02,    1.474498e+01,   -6.683414e+01
    1170,    2.156408e+01,    2.000000e+01,   -9.235748e+00
    1171,    1.682929e+01,    2.000000e+01,   -1.718078e+01
    1172,    3.620589e+01,    2.000000e+01,   -1.522895e+01
    1173,    2.693674e+01,    2.000000e+01,   -2.676165e+01
    1174,    5.179964e+01,    2.000000e+01,   -2.242775e+01
    1175,    3.782424e+01,    2.000000e+01,   -4.013475e+01
    1176,    1.650905e+01,    2.000000e+01,   -3.515468e+01
    1177,    2.156844e+01,    2.000000e+01,   -5.013669e+01
    1178,    1.217536e+01,    2.000000e+01,   -2.552735e+01
    1179,    3.114182e+00,    2.000000e+01,   -2.441642e+01
    1180,   -6.545859e+00,    2.000000e+01,   -2.411110e+01
    1181,   -1.989383e+01,    2.000000e+01,   -2.403827e+01
    1182,    4.520426e+00,    2.000000e+01,   -3.843154e+01
    1183,   -8.072056e+00,    2.000000e+01,   -4.066779e+01
    1184,   -2.306630e+01,    2.000000e+01,   -4.665280e+01
    1185,    6.074144e+00,    2.000000e+01,   -5.437630e+01
    1186,   -6.791371e+00,    2.000000e+01,   -5.460811e+01
    1187,    6.933755e+01,    2.000000e+01,   -2.874948e+01
    1188,    4.796422e+01,    2.000000e+01,   -6.110499e+01
    1189,    2.247909e+01,    2.000000e+01,   -7.184887e+01
    1190,    1.882634e+00,    2.000000e+01,   -7.338219e+01
    1191,   -1.837620e+01,    2.000000e+01,   -6.878026e+01
    1192,    8.941392e+01,    2.000000e+01,   -3.190303e+01
    1193,    7.096151e+01,    2.000000e+01,   -6.450314e+01
    1194,    1.799632e+02,    2.000000e+01,   -2.193697e+01
    1195,    1.587330e+02,    2.000000e+01,   -2.569518e+01
    1196,    1.327657e+02,    2.000000e+01,   -3.717197e+01
    1197,    1.101733e+02,    2.000000e+01,   -3.433215e+01
    1198,   -4.219531e+01,    2.000000e+01,   -7.535104e+01
    1199,   -4.275796e+01,    2.000000e+01,   -5.287697e+01
    1200,   -6.358548e+01,    2.000000e+01,   -7.792719e+01
    1201,   -6.316206e+01,    2.000000e+01,   -5.657630e+01
    1202,   -4.310503e+01,    2.000000e+01,   -3.257306e+01
    1203,   -6.417579e+01,    2.000000e+01,   -3.639692e+01
    1204,    1.810512e+02,    2.000000e+01,   -8.096153e+01
    1205,    1.814051e+02,    2.000000e+01,   -6.233968e+01
    1206,    1.804585e+02,    2.000000e+01,   -4.291887e+01
    1207,   -2.452155e+01,    2.000000e+01,   -1.147638e+01
    1208,    9.213876e+01,    2.000000e+01,   -6.730932e+01
    1209,    1.121685e+02,    2.000000e+01,   -7.057599e+01
    1210,    1.299972e+02,    2.000000e+01,   -7.616591e+01
    1211,    1.460580e+02,    2.000000e+01,   -8.118372e+01
    1212,    1.627851e+02,    2.000000e+01,   -8.187815e+01
    1213,   -3.298011e+02,    2.000000e+01,   -1.999370e+01
    1214,   -3.297346e+02,    2.000000e+01,   -3.998456e+01
    1215,   -3.296865e+02,    2.000000e+01,   -5.997733e+01
    1216,   -3.296555e+02,    2.000000e+01,   -7.998205e+01
    1217,   -4.532879e+01,    2.000000e+01,   -1.570957e+01
    1218,   -6.563284e+01,    2.000000e+01,   -1.791281e+01
    1219,   -8.625325e+01,    2.000000e+01,   -1.900762e+01
    1220,   -1.068497e+02,    2.000000e+01,   -1.952601e+01
    1221,   -1.273385e+02,    2.000000e+01,   -1.977811e+01
    1222,   -1.477359e+02,    2.000000e+01,   -1.988169e+01
    1223,   -1.680668e+02,    2.000000e+01,   -1.993454e+01
    1224,   -1.883465e+02,    2.000000e+01,   -1.996712e+01
    1225,   -2.085953e+02,    2.000000e+01,   -1.997731e+01
    1226,   -2.288196e+02,    2.000000e+01,   -1.998297e+01
    1227,   -2.490276e+02,    2.000000e+01,   -1.998735e+01
    1228,   -2.692285e+02,    2.000000e+01,   -1.998703e+01
    1229,   -2.894215e+02,    2.000000e+01,   -1.998850e+01
    1230,   -3.096126e+02,    2.000000e+01,   -1.998988e+01
    1231,   -3.093078e+02,    2.000000e+01,   -7.996952e+01
    1232,   -2.889660e+02,    2.000000e+01,   -7.996315e+01
    1233,   -2.686195e+02,    2.000000e+01,   -7.996173e+01
    1234,   -2.482762e+02,    2.000000e+01,   -7.996082e+01
    1235,   -2.279322e+02,    2.000000e+01,   -7.994849e+01
    1236,   -2.075663e+02,    2.000000e+01,   -7.994188e+01
    1237,   -1.871232e+02,    2.000000e+01,   -7.992664e+01
    1238,   -1.666820e+02,    2.000000e+01,   -7.989074e+01
    1239,   -1.462396e+02,    2.000000e+01,   -7.984516e+01
    1240,   -1.257237e+02,    2.000000e+01,   -7.973180e+01
    1241,   -1.051254e+02,    2.000000e+01,   -7.949183e+01
    1242,   -8.447473e+01,    2.000000e+01,   -7.898040e+01
    1243,    1.608539e+02,    2.000000e+01,   -4.777512e+01
    1244,    1.425524e+02,    2.000000e+01,   -5.717333e+01
    1245,   -3.094803e+02,    2.000000e+01,   -3.997460e+01
    1246,   -3.093833e+02,    2.000000e+01,   -5.996728e+01
    1247,   -8.475298e+01,    2.000000e+01,   -3.830791e+01
    1248,   -1.056603e+02,    2.000000e+01,   -3.918023e+01
    1249,   -1.263598e+02,    2.000000e+01,   -3.959174e+01
    1250,   -1.469162e+02,    2.000000e+01,   -3.977731e+01
    1251,   -1.673677e+02,    2.000000e+01,   -3.987184e+01
    1252,   -1.877737e+02,    2.000000e+01,   -3.992085e+01
    1253,   -2.081244e+02,    2.000000e+01,   -3.994259e+01
    1254,   -2.284349e+02,    2.000000e+01,   -3.995384e+01
    1255,   -2.487075e+02,    2.000000e+01,   -3.996429e+01
    1256,   -2.689728e+02,    2.000000e+01,   -3.996469e+01
    1257,   -2.892334e+02,    2.000000e+01,   -3.996881e+01
    1258,   -2.890824e+02,    2.000000e+01,   -5.995929e+01
    1259,   -2.687742e+02,    2.000000e+01,   -5.995873e+01
    1260,   -2.484706e+02,    2.000000e+01,   -5.995115e+01
    1261,   -2.281460e+02,    2.000000e+01,   -5.994158e+01
    1262,   -2.077878e+02,    2.000000e+01,   -5.993093e+01
    1263,   -1.873697e+02,    2.000000e+01,   -5.990290e+01
    1264,   -1.669283e+02,    2.000000e+01,   -5.985674e+01
    1265,   -1.464435e+02,    2.000000e+01,   -5.977144e+01
    1266,   -1.258608e+02,    2.000000e+01,   -5.957657e+01
    1267,   -1.051641e+02,    2.000000e+01,   -5.917363e+01
    1268,   -8.440095e+01,    2.000000e+01,   -5.828051e+01
    1269,    1.641049e+02,    2.000000e+01,   -6.505613e+01
    1270,    1.507670e+02,    2.000000e+01,   -6.775271e+01
    1271,   -9.000000e+00,    1.874700e-31,    0.000000e+00
    1272,   -9.000000e+00,   -1.000000e+02,    0.000000e+00
    1273,   -9.000000e+00,   -4.000000e+00,   -2.816688e-15
    1274,   -9.000000e+00,   -8.000000e+00,   -2.571758e-15
    1275,   -9.000000e+00,   -1.200000e+01,   -2.326829e-15
    1276,   -9.000000e+00,   -1.600000e+01,   -2.081900e-15
    1277,   -9.000000e+00,   -2.000000e+01,   -1.836970e-15
    1278,   -9.000000e+00,   -2.400000e+01,   -1.592041e-15
    1279,   -9.000000e+00,   -2.800000e+01,   -1.347111e-15
    1280,   -9.000000e+00,   -3.200000e+01,   -1.102182e-15
    1281,   -9.000000e+00,   -3.600000e+01,   -8.572528e-16
    1282,   -9.000000e+00,   -4.000000e+01,   -6.123234e-16
    1283,   -9.000000e+00,   -4.400000e+01,   -3.673940e-16
    1284,   -9.000000e+00,   -4.800000e+01,   -1.224647e-16
    1285,   -9.000000e+00,   -5.200000e+01,    1.224647e-16
    1286,   -9.000000e+00,   -5.600000e+01,    3.673940e-16
    1287,   -9.000000e+00,   -6.000000e+01,    6.123234e-16
    1288,   -9.000000e+00,   -6.400000e+01,    8.572528e-16
    1289,   -9.000000e+00,   -6.800000e+01,    1.102182e-15
    1290,   -9.000000e+00,   -7.200000e+01,    1.347111e-15
    1291,   -9.000000e+00,   -7.600000e+01,    1.592041e-15
    1292,   -9.000000e+00,   -8.000000e+01,    1.836970e-15
    1293,   -9.000000e+00,   -8.400000e+01,    2.081900e-15
    1294,   -9.000000e+00,   -8.800000e+01,    2.326829e-15
    1295,   -9.000000e+00,   -9.200000e+01,    2.571758e-15
    1296,   -9.000000e+00,   -9.600000e+01,    2.816688e-15
    1297,   -8.000000e+00,   -1.000000e+02,    0.000000e+00
    1298,   -8.000000e+00,    1.874700e-31,    0.000000e+00
    1299,   -8.000000e+00,   -9.600000e+01,    2.816688e-15
    1300,   -8.000000e+00,   -9.200000e+01,    2.571758e-15
    1301,   -8.000000e+00,   -8.800000e+01,    2.326829e-15
    1302,   -8.000000e+00,   -8.400000e+01,    2.081900e-15
    1303,   -8.000000e+00,   -8.000000e+01,    1.836970e-15
    1304,   -8.000000e+00,   -7.600000e+01,    1.592041e-15
    1305,   -8.000000e+00,   -7.200000e+01,    1.347111e-15
    1306,   -8.000000e+00,   -6.800000e+01,    1.102182e-15
    1307,   -8.000000e+00,   -6.400000e+01,    8.572528e-16
    1308,   -8.000000e+00,   -6.000000e+01,    6.123234e-16
    1309,   -8.000000e+00,   -5.600000e+01,    3.673940e-16
    1310,   -8.000000e+00,   -5.200000e+01,    1.224647e-16
    1311,   -8.000000e+00,   -4.800000e+01,   -1.224647e-16
    1312,   -8.000000e+00,   -4.400000e+01,   -3.673940e-16
    1313,   -8.000000e+00,   -4.000000e+01,   -6.123234e-16
    1314,   -8.000000e+00,   -3.600000e+01,   -8.572528e-16
    1315,   -8.000000e+00,   -3.200000e+01,   -1.102182e-15
    1316,   -8.000000e+00,   -2.800000e+01,   -1.347111e-15
    1317,   -8.000000e+00,   -2.400000e+01,   -1.592041e-15
    1318,   -8.000000e+00,   -2.000000e+01,   -1.836970e-15
    1319,   -8.000000e+00,   -1.600000e+01,   -2.081900e-15
    1320,   -8.000000e+00,   -1.200000e+01,   -2.326829e-15
    1321,   -8.000000e+00,   -8.000000e+00,   -2.571758e-15
    1322,   -8.000000e+00,   -4.000000e+00,   -2.816688e-15
    1323,    9.000000e+00,   -1.000000e+02,    3.061617e-15
    1324,    9.000000e+00,    0.000000e+00,   -3.061617e-15
    1325,    9.000000e+00,   -9.600000e+01,    2.816688e-15
    1326,    9.000000e+00,   -9.200000e+01,    2.571758e-15
    1327,    9.000000e+00,   -8.800000e+01,    2.326829e-15
    1328,    9.000000e+00,   -8.400000e+01,    2.081900e-15
    1329,    9.000000e+00,   -8.000000e+01,    1.836970e-15
    1330,    9.000000e+00,   -7.600000e+01,    1.592041e-15
    1331,    9.000000e+00,   -7.200000e+01,    1.347111e-15
    1332,    9.000000e+00,   -6.800000e+01,    1.102182e-15
    1333,    9.000000e+00,   -6.400000e+01,    8.572528e-16
    1334,    9.000000e+00,   -6.000000e+01,    6.123234e-16
    1335,    9.000000e+00,   -5.600000e+01,    3.673940e-16
    1336,    9.000000e+00,   -5.200000e+01,    1.224647e-16
    1337,    9.000000e+00,   -4.800000e+01,   -1.224647e-16
    1338,    9.000000e+00,   -4.400000e+01,   -3.673940e-16
    1339,    9.000000e+00,   -4.000000e+01,   -6.123234e-16
    1340,    9.000000e+00,   -3.600000e+01,   -8.572528e-16
    1341,    9.000000e+00,   -3.200000e+01,   -1.102182e-15
    1342,    9.000000e+00,   -2.800000e+01,   -1.347111e-15
    1343,    9.000000e+00,   -2.400000e+01,   -1.592041e-15
    1344,    9.000000e+00,   -2.000000e+01,   -1.836970e-15
    1345,    9.000000e+00,   -1.600000e+01,   -2.081900e-15
    1346,    9.000000e+00,   -1.200000e+01,   -2.326829e-15
    1347,    9.000000e+00,   -8.000000e+00,   -2.571758e-15
    1348,    9.000000e+00,   -4.000000e+00,   -2.816688e-15
    1349,    8.000000e+00,    0.000000e+00,   -3.061617e-15
    1350,    8.000000e+00,   -1.000000e+02,    3.061617e-15
    1351,    8.000000e+00,   -4.000000e+00,   -2.816688e-15
    1352,    8.000000e+00,   -8.000000e+00,   -2.571758e-15
    1353,    8.000000e+00,   -1.200000e+01,   -2.326829e-15
    1354,    8.000000e+00,   -1.600000e+01,   -2.081900e-15
    1355,    8.000000e+00,   -2.000000e+01,   -1.836970e-15
    1356,    8.000000e+00,   -2.400000e+01,   -1.592041e-15
    1357,    8.000000e+00,   -2.800000e+01,   -1.347111e-15
    1358,    8.000000e+00,   -3.200000e+01,   -1.102182e-15
    1359,    8.000000e+00,   -3.600000e+01,   -8.572528e-16
    1360,    8.000000e+00,   -4.000000e+01,   -6.123234e-16
    1361,    8.000000e+00,   -4.400000e+01,   -3.673940e-16
    1362,    8.000000e+00,   -4.800000e+01,   -1.224647e-16
    1363,    8.000000e+00,   -5.200000e+01,    1.224647e-16
    1364,    8.000000e+00,   -5.600000e+01,    3.673940e-16
    1365,    8.000000e+00,   -6.000000e+01,    6.123234e-16
    1366,    8.000000e+00,   -6.400000e+01,    8.572528e-16
    1367,    8.000000e+00,   -6.800000e+01,    1.102182e-15
    1368,    8.000000e+00,   -7.200000e+01,    1.347111e-15
    1369,    8.000000e+00,   -7.600000e+01,    1.592041e-15
    1370,    8.000000e+00,   -8.000000e+01,    1.836970e-15
    1371,    8.000000e+00,   -8.400000e+01,    2.081900e-15
    1372,    8.000000e+00,   -8.800000e+01,    2.326829e-15
    1373,    8.000000e+00,   -9.200000e+01,    2.571758e-15
    1374,    8.000000e+00,   -9.600000e+01,    2.816688e-15
    1375,    8.108720e+00,   -2.391094e-16,   -3.904954e+00
    1376,    5.611408e+00,   -4.308603e-16,   -7.036483e+00
    1377,    2.002688e+00,   -5.372741e-16,   -8.774351e+00
    1378,   -2.002688e+00,   -5.372741e-16,   -8.774351e+00
    1379,   -5.611408e+00,   -4.308603e-16,   -7.036483e+00
    1380,   -8.108720e+00,   -2.391094e-16,   -3.904954e+00
    1381,   -7.207751e+00,   -2.125417e-16,   -3.471070e+00
    1382,   -4.987918e+00,   -3.829870e-16,   -6.254652e+00
    1383,   -1.780167e+00,   -4.775769e-16,   -7.799423e+00
    1384,    1.780167e+00,   -4.775769e-16,   -7.799423e+00
    1385,    4.987918e+00,   -3.829870e-16,   -6.254652e+00
    1386,    7.207751e+00,   -2.125417e-16,   -3.471070e+00
    1387,   -8.108720e+00,   -1.000000e+02,   -3.904954e+00
    1388,   -5.611408e+00,   -1.000000e+02,   -7.036483e+00
    1389,   -2.002688e+00,   -1.000000e+02,   -8.774351e+00
    1390,    2.002688e+00,   -1.000000e+02,   -8.774351e+00
    1391,    5.611408e+00,   -1.000000e+02,   -7.036483e+00
    1392,    8.108720e+00,   -1.000000e+02,   -3.904954e+00
    1393,    8.108720e+00,   -4.000000e+00,   -3.904954e+00
    1394,    8.108720e+00,   -8.000000e+00,   -3.904954e+00
    1395,    8.108720e+00,   -1.200000e+01,   -3.904954e+00
    1396,    8.108720e+00,   -1.600000e+01,   -3.904954e+00
    1397,    8.108720e+00,   -2.000000e+01,   -3.904954e+00
    1398,    8.108720e+00,   -2.400000e+01,   -3.904954e+00
    1399,    8.108720e+00,   -2.800000e+01,   -3.904954e+00
    1400,    8.108720e+00,   -3.200000e+01,   -3.904954e+00
    1401,    8.108720e+00,   -3.600000e+01,   -3.904954e+00
    1402,    8.108720e+00,   -4.000000e+01,   -3.904954e+00
    1403,    8.108720e+00,   -4.400000e+01,   -3.904954e+00
    1404,    8.108720e+00,   -4.800000e+01,   -3.904954e+00
    1405,    8.108720e+00,   -5.200000e+01,   -3.904954e+00
    1406,    8.108720e+00,   -5.600000e+01,   -3.904954e+00
    1407,    8.108720e+00,   -6.000000e+01,   -3.904954e+00
    1408,    8.108720e+00,   -6.400000e+01,   -3.904954e+00
    1409,    8.108720e+00,   -6.800000e+01,   -3.904954e+00
    1410,    8.108720e+00,   -7.200000e+01,   -3.904954e+00
    1411,    8.108720e+00,   -7.600000e+01,   -3.904954e+00
    1412,    8.108720e+00,   -8.000000e+01,   -3.904954e+00
    1413,    8.108720e+00,   -8.400000e+01,   -3.904954e+00
    1414,    8.108720e+00,   -8.800000e+01,   -3.904954e+00
    1415,    8.108720e+00,   -9.200000e+01,   -3.904954e+00
    1416,    8.108720e+00,   -9.600000e+01,   -3.904954e+00
    1417,    5.611408e+00,   -4.000000e+00,   -7.036483e+00
    1418,    5.611408e+00,   -8.000000e+00,   -7.036483e+00
    1419,    5.611408e+00,   -1.200000e+01,   -7.036483e+00
    1420,    5.611408e+00,   -1.600000e+01,   -7.036483e+00
    1421,    5.611408e+00,   -2.000000e+01,   -7.036483e+00
    1422,    5.611408e+00,   -2.400000e+01,   -7.036483e+00
    1423,    5.611408e+00,   -2.800000e+01,   -7.036483e+00
    1424,    5.611408e+00,   -3.200000e+01,   -7.036483e+00
    1425,    5.611408e+00,   -3.600000e+01,   -7.036483e+00
    1426,    5.611408e+00,   -4.000000e+01,   -7.036483e+00
    1427,    5.611408e+00,   -4.400000e+01,   -7.036483e+00
    1428,    5.611408e+00,   -4.800000e+01,   -7.036483e+00
    1429,    5.611408e+00,   -5.200000e+01,   -7.036483e+00
    1430,    5.611408e+00,   -5.600000e+01,   -7.036483e+00
    1431,    5.611408e+00,   -6.000000e+01,   -7.036483e+00
    1432,    5.611408e+00,   -6.400000e+01,   -7.036483e+00
    1433,    5.611408e+00,   -6.800000e+01,   -7.036483e+00
    1434,    5.611408e+00,   -7.200000e+01,   -7.036483e+00
    1435,    5.611408e+00,   -7.600000e+01,   -7.036483e+00
    1436,    5.611408e+00,   -8.000000e+01,   -7.036483e+00
    1437,    5.611408e+00,   -8.400000e+01,   -7.036483e+00
    1438,    5.611408e+00,   -8.800000e+01,   -7.036483e+00
    1439,    5.611408e+00,   -9.200000e+01,   -7.036483e+00
    1440,    5.611408e+00,   -9.600000e+01,   -7.036483e+00
    1441,    2.002688e+00,   -4.000000e+00,   -8.774351e+00
    1442,    2.002688e+00,   -8.000000e+00,   -8.774351e+00
    1443,    2.002688e+00,   -1.200000e+01,   -8.774351e+00
    1444,    2.002688e+00,   -1.600000e+01,   -8.774351e+00
    1445,    2.002688e+00,   -2.000000e+01,   -8.774351e+00
    1446,    2.002688e+00,   -2.400000e+01,   -8.774351e+00
    1447,    2.002688e+00,   -2.800000e+01,   -8.774351e+00
    1448,    2.002688e+00,   -3.200000e+01,   -8.774351e+00
    1449,    2.002688e+00,   -3.600000e+01,   -8.774351e+00
    1450,    2.002688e+00,   -4.000000e+01,   -8.774351e+00
    1451,    2.002688e+00,   -4.400000e+01,   -8.774351e+00
    1452,    2.002688e+00,   -4.800000e+01,   -8.774351e+00
    1453,    2.002688e+00,   -5.200000e+01,   -8.774351e+00
    1454,    2.002688e+00,   -5.600000e+01,   -8.774351e+00
    1455,    2.002688e+00,   -6.000000e+01,   -8.774351e+00
    1456,    2.002688e+00,   -6.400000e+01,   -8.774351e+00
    1457,    2.002688e+00,   -6.800000e+01,   -8.774351e+00
    1458,    2.002688e+00,   -7.200000e+01,   -8.774351e+00
    1459,    2.002688e+00,   -7.600000e+01,   -8.774351e+00
    1460,    2.002688e+00,   -8.000000e+01,   -8.774351e+00
    1461,    2.002688e+00,   -8.400000e+01,   -8.774351e+00
    1462,    2.002688e+00,   -8.800000e+01,   -8.774351e+00
    1463,    2.002688e+00,   -9.200000e+01,   -8.774351e+00
    1464,    2.002688e+00,   -9.600000e+01,   -8.774351e+00
    1465,   -2.002688e+00,   -4.000000e+00,   -8.774351e+00
    1466,   -2.002688e+00,   -8.000000e+00,   -8.774351e+00
    1467,   -2.002688e+00,   -1.200000e+01,   -8.774351e+00
    1468,   -2.002688e+00,   -1.600000e+01,   -8.774351e+00
    1469,   -2.002688e+00,   -2.000000e+01,   -8.774351e+00
    1470,   -2.002688e+00,   -2.400000e+01,   -8.774351e+00
    1471,   -2.002688e+00,   -2.800000e+01,   -8.774351e+00
    1472,   -2.002688e+00,   -3.200000e+01,   -8.774351e+00
    1473,   -2.002688e+00,   -3.600000e+01,   -8.774351e+00
    1474,   -2.002688e+00,   -4.000000e+01,   -8.774351e+00
    1475,   -2.002688e+00,   -4.400000e+01,   -8.774351e+00
    1476,   -2.002688e+00,   -4.800000e+01,   -8.774351e+00
    1477,   -2.002688e+00,   -5.200000e+01,   -8.774351e+00
    1478,   -2.002688e+00,   -5.600000e+01,   -8.774351e+00
    1479,   -2.002688e+00,   -6.000000e+01,   -8.774351e+00
    1480,   -2.002688e+00,   -6.400000e+01,   -8.774351e+00
    1481,   -2.002688e+00,   -6.800000e+01,   -8.774351e+00
    1482,   -2.002688e+00,   -7.200000e+01,   -8.774351e+00
    1483,   -2.002688e+00,   -7.600000e+01,   -8.774351e+00
    1484,   -2.002688e+00,   -8.000000e+01,   -8.774351e+00
    1485,   -2.002688e+00,   -8.400000e+01,   -8.774351e+00
    1486,   -2.002688e+00,   -8.800000e+01,   -8.774351e+00
    1487,   -2.002688e+00,   -9.200000e+01,   -8.774351e+00
    1488,   -2.002688e+00,   -9.600000e+01,   -8.774351e+00
    1489,   -5.611408e+00,   -4.000000e+00,   -7.036483e+00
    1490,   -5.611408e+00,   -8.000000e+00,   -7.036483e+00
    1491,   -5.611408e+00,   -1.200000e+01,   -7.036483e+00
    1492,   -5.611408e+00,   -1.600000e+01,   -7.036483e+00
    1493,   -5.611408e+00,   -2.000000e+01,   -7.036483e+00
    1494,   -5.611408e+00,   -2.400000e+01,   -7.036483e+00
    1495,   -5.611408e+00,   -2.800000e+01,   -7.036483e+00
    1496,   -5.611408e+00,   -3.200000e+01,   -7.036483e+00
    1497,   -5.611408e+00,   -3.600000e+01,   -7.036483e+00
    1498,   -5.611408e+00,   -4.000000e+01,   -7.036483e+00
    1499,   -5.611408e+00,   -4.400000e+01,   -7.036483e+00
    1500,   -5.611408e+00,   -4.800000e+01,   -7.036483e+00
    1501,   -5.611408e+00,   -5.200000e+01,   -7.036483e+00
    1502,   -5.611408e+00,   -5.600000e+01,   -7.036483e+00
    1503,   -5.611408e+00,   -6.000000e+01,   -7.036483e+00
    1504,   -5.611408e+00,   -6.400000e+01,   -7.036483e+00
    1505,   -5.611408e+00,   -6.800000e+01,   -7.036483e+00
    1506,   -5.611408e+00,   -7.200000e+01,   -7.036483e+00
    1507,   -5.611408e+00,   -7.600000e+01,   -7.036483e+00
    1508,   -5.611408e+00,   -8.000000e+01,   -7.036483e+00
    1509,   -5.611408e+00,   -8.400000e+01,   -7.036483e+00
    1510,   -5.611408e+00,   -8.800000e+01,   -7.036483e+00
    1511,   -5.611408e+00,   -9.200000e+01,   -7.036483e+00
    1512,   -5.611408e+00,   -9.600000e+01,   -7.036483e+00
    1513,   -8.108720e+00,   -4.000000e+00,   -3.904954e+00
    1514,   -8.108720e+00,   -8.000000e+00,   -3.904954e+00
    1515,   -8.108720e+00,   -1.200000e+01,   -3.904954e+00
    1516,   -8.108720e+00,   -1.600000e+01,   -3.904954e+00
    1517,   -8.108720e+00,   -2.000000e+01,   -3.904954e+00
    1518,   -8.108720e+00,   -2.400000e+01,   -3.904954e+00
    1519,   -8.108720e+00,   -2.800000e+01,   -3.904954e+00
    1520,   -8.108720e+00,   -3.200000e+01,   -3.904954e+00
    1521,   -8.108720e+00,   -3.600000e+01,   -3.904954e+00
    1522,   -8.108720e+00,   -4.000000e+01,   -3.904954e+00
    1523,   -8.108720e+00,   -4.400000e+01,   -3.904954e+00
    1524,   -8.108720e+00,   -4.800000e+01,   -3.904954e+00
    1525,   -8.108720e+00,   -5.200000e+01,   -3.904954e+00
    1526,   -8.108720e+00,   -5.600000e+01,   -3.904954e+00
    1527,   -8.108720e+00,   -6.000000e+01,   -3.904954e+00
    1528,   -8.108720e+00,   -6.400000e+01,   -3.904954e+00
    1529,   -8.108720e+00,   -6.800000e+01,   -3.904954e+00
    1530,   -8.108720e+00,   -7.200000e+01,   -3.904954e+00
    1531,   -8.108720e+00,   -7.600000e+01,   -3.904954e+00
    1532,   -8.108720e+00,   -8.000000e+01,   -3.904954e+00
    1533,   -8.108720e+00,   -8.400000e+01,   -3.904954e+00
    1534,   -8.108720e+00,   -8.800000e+01,   -3.904954e+00
    1535,   -8.108720e+00,   -9.200000e+01,   -3.904954e+00
    1536,   -8.108720e+00,   -9.600000e+01,   -3.904954e+00
    1537,    7.207751e+00,   -1.000000e+02,   -3.471070e+00
    1538,    4.987918e+00,   -1.000000e+02,   -6.254652e+00
    1539,    1.780167e+00,   -1.000000e+02,   -7.799423e+00
    1540,   -1.780167e+00,   -1.000000e+02,   -7.799423e+00
    1541,   -4.987918e+00,   -1.000000e+02,   -6.254652e+00
    1542,   -7.207751e+00,   -1.000000e+02,   -3.471070e+00
    1543,    7.207751e+00,   -9.600000e+01,   -3.471070e+00
    1544,    7.207751e+00,   -9.200000e+01,   -3.471070e+00
    1545,    7.207751e+00,   -8.800000e+01,   -3.471070e+00
    1546,    7.207751e+00,   -8.400000e+01,   -3.471070e+00
    1547,    7.207751e+00,   -8.000000e+01,   -3.471070e+00
    1548,    7.207751e+00,   -7.600000e+01,   -3.471070e+00
    1549,    7.207751e+00,   -7.200000e+01,   -3.471070e+00
    1550,    7.207751e+00,   -6.800000e+01,   -3.471070e+00
    1551,    7.207751e+00,   -6.400000e+01,   -3.471070e+00
    1552,    7.207751e+00,   -6.000000e+01,   -3.471070e+00
    1553,    7.207751e+00,   -5.600000e+01,   -3.471070e+00
    1554,    7.207751e+00,   -5.200000e+01,   -3.471070e+00
    1555,    7.207751e+00,   -4.800000e+01,   -3.471070e+00
    1556,    7.207751e+00,   -4.400000e+01,   -3.471070e+00
    1557,    7.207751e+00,   -4.000000e+01,   -3.471070e+00
    1558,    7.207751e+00,   -3.600000e+01,   -3.471070e+00
    1559,    7.207751e+00,   -3.200000e+01,   -3.471070e+00
    1560,    7.207751e+00,   -2.800000e+01,   -3.471070e+00
    1561,    7.207751e+00,   -2.400000e+01,   -3.471070e+00
    1562,    7.207751e+00,   -2.000000e+01,   -3.471070e+00
    1563,    7.207751e+00,   -1.600000e+01,   -3.471070e+00
    1564,    7.207751e+00,   -1.200000e+01,   -3.471070e+00
    1565,    7.207751e+00,   -8.000000e+00,   -3.471070e+00
    1566,    7.207751e+00,   -4.000000e+00,   -3.471070e+00
    1567,    4.987918e+00,   -9.600000e+01,   -6.254652e+00
    1568,    4.987918e+00,   -9.200000e+01,   -6.254652e+00
    1569,    4.987918e+00,   -8.800000e+01,   -6.254652e+00
    1570,    4.987918e+00,   -8.400000e+01,   -6.254652e+00
    1571,    4.987918e+00,   -8.000000e+01,   -6.254652e+00
    1572,    4.987918e+00,   -7.600000e+01,   -6.254652e+00
    1573,    4.987918e+00,   -7.200000e+01,   -6.254652e+00
    1574,    4.987918e+00,   -6.800000e+01,   -6.254652e+00
    1575,    4.987918e+00,   -6.400000e+01,   -6.254652e+00
    1576,    4.987918e+00,   -6.000000e+01,   -6.254652e+00
    1577,    4.987918e+00,   -5.600000e+01,   -6.254652e+00
    1578,    4.987918e+00,   -5.200000e+01,   -6.254652e+00
    1579,    4.987918e+00,   -4.800000e+01,   -6.254652e+00
    1580,    4.987918e+00,   -4.400000e+01,   -6.254652e+00
    1581,    4.987918e+00,   -4.000000e+01,   -6.254652e+00
    1582,    4.987918e+00,   -3.600000e+01,   -6.254652e+00
    1583,    4.987918e+00,   -3.200000e+01,   -6.254652e+00
    1584,    4.987918e+00,   -2.800000e+01,   -6.254652e+00
    1585,    4.987918e+00,   -2.400000e+01,   -6.254652e+00
    1586,    4.987918e+00,   -2.000000e+01,   -6.254652e+00
    1587,    4.987918e+00,   -1.600000e+01,   -6.254652e+00
    1588,    4.987918e+00,   -1.200000e+01,   -6.254652e+00
    1589,    4.987918e+00,   -8.000000e+00,   -6.254652e+00
    1590,    4.987918e+00,   -4.000000e+00,   -6.254652e+00
    1591,    1.780167e+00,   -9.600000e+01,   -7.799423e+00
    1592,    1.780167e+00,   -9.200000e+01,   -7.799423e+00
    1593,    1.780167e+00,   -8.800000e+01,   -7.799423e+00
    1594,    1.780167e+00,   -8.400000e+01,   -7.799423e+00
    1595,    1.780167e+00,   -8.000000e+01,   -7.799423e+00
    1596,    1.780167e+00,   -7.600000e+01,   -7.799423e+00
    1597,    1.780167e+00,   -7.200000e+01,   -7.799423e+00
    1598,    1.780167e+00,   -6.800000e+01,   -7.799423e+00
    1599,    1.780167e+00,   -6.400000e+01,   -7.799423e+00
    1600,    1.780167e+00,   -6.000000e+01,   -7.799423e+00
    1601,    1.780167e+00,   -5.600000e+01,   -7.799423e+00
    1602,    1.780167e+00,   -5.200000e+01,   -7.799423e+00
    1603,    1.780167e+00,   -4.800000e+01,   -7.799423e+00
    1604,    1.780167e+00,   -4.400000e+01,   -7.799423e+00
    1605,    1.780167e+00,   -4.000000e+01,   -7.799423e+00
    1606,    1.780167e+00,   -3.600000e+01,   -7.799423e+00
    1607,    1.780167e+00,   -3.200000e+01,   -7.799423e+00
    1608,    1.780167e+00,   -2.800000e+01,   -7.799423e+00
    1609,    1.780167e+00,   -2.400000e+01,   -7.799423e+00
    1610,    1.780167e+00,   -2.000000e+01,   -7.799423e+00
    1611,    1.780167e+00,   -1.600000e+01,   -7.799423e+00
    1612,    1.780167e+00,   -1.200000e+01,   -7.799423e+00
    1613,    1.780167e+00,   -8.000000e+00,   -7.799423e+00
    1614,    1.780167e+00,   -4.000000e+00,   -7.799423e+00
    1615,   -1.780167e+00,   -9.600000e+01,   -7.799423e+00
    1616,   -1.780167e+00,   -9.200000e+01,   -7.799423e+00
    1617,   -1.780167e+00,   -8.800000e+01,   -7.799423e+00
    1618,   -1.780167e+00,   -8.400000e+01,   -7.799423e+00
    1619,   -1.780167e+00,   -8.000000e+01,   -7.799423e+00
    1620,   -1.780167e+00,   -7.600000e+01,   -7.799423e+00
    1621,   -1.780167e+00,   -7.200000e+01,   -7.799423e+00
    1622,   -1.780167e+00,   -6.800000e+01,   -7.799423e+00
    1623,   -1.780167e+00,   -6.400000e+01,   -7.799423e+00
    1624,   -1.780167e+00,   -6.000000e+01,   -7.799423e+00
    1625,   -1.780167e+00,   -5.600000e+01,   -7.799423e+00
    1626,   -1.780167e+00,   -5.200000e+01,   -7.799423e+00
    1627,   -1.780167e+00,   -4.800000e+01,   -7.799423e+00
    1628,   -1.780167e+00,   -4.400000e+01,   -7.799423e+00
    1629,   -1.780167e+00,   -4.000000e+01,   -7.799423e+00
    1630,   -1.780167e+00,   -3.600000e+01,   -7.799423e+00
    1631,   -1.780167e+00,   -3.200000e+01,   -7.799423e+00
    1632,   -1.780167e+00,   -2.800000e+01,   -7.799423e+00
    1633,   -1.780167e+00,   -2.400000e+01,   -7.799423e+00
    1634,   -1.780167e+00,   -2.000000e+01,   -7.799423e+00
    1635,   -1.780167e+00,   -1.600000e+01,   -7.799423e+00
    1636,   -1.780167e+00,   -1.200000e+01,   -7.799423e+00
    1637,   -1.780167e+00,   -8.000000e+00,   -7.799423e+00
    1638,   -1.780167e+00,   -4.000000e+00,   -7.799423e+00
    1639,   -4.987918e+00,   -9.600000e+01,   -6.254652e+00
    1640,   -4.987918e+00,   -9.200000e+01,   -6.254652e+00
    1641,   -4.987918e+00,   -8.800000e+01,   -6.254652e+00
    1642,   -4.987918e+00,   -8.400000e+01,   -6.254652e+00
    1643,   -4.987918e+00,   -8.000000e+01,   -6.254652e+00
    1644,   -4.987918e+00,   -7.600000e+01,   -6.254652e+00
    1645,   -4.987918e+00,   -7.200000e+01,   -6.254652e+00
    1646,   -4.987918e+00,   -6.800000e+01,   -6.254652e+00
    1647,   -4.987918e+00,   -6.400000e+01,   -6.254652e+00
    1648,   -4.987918e+00,   -6.000000e+01,   -6.254652e+00
    1649,   -4.987918e+00,   -5.600000e+01,   -6.254652e+00
    1650,   -4.987918e+00,   -5.200000e+01,   -6.254652e+00
    1651,   -4.987918e+00,   -4.800000e+01,   -6.254652e+00
    1652,   -4.987918e+00,   -4.400000e+01,   -6.254652e+00
    1653,   -4.987918e+00,   -4.000000e+01,   -6.254652e+00
    1654,   -4.987918e+00,   -3.600000e+01,   -6.254652e+00
    1655,   -4.987918e+00,   -3.200000e+01,   -6.254652e+00
    1656,   -4.987918e+00,   -2.800000e+01,   -6.254652e+00
    1657,   -4.987918e+00,   -2.400000e+01,   -6.254652e+00
    1658,   -4.987918e+00,   -2.000000e+01,   -6.254652e+00
    1659,   -4.987918e+00,   -1.600000e+01,   -6.254652e+00
    1660,   -4.987918e+00,   -1.200000e+01,   -6.254652e+00
    1661,   -4.987918e+00,   -8.000000e+00,   -6.254652e+00
    1662,   -4.987918e+00,   -4.000000e+00,   -6.254652e+00
    1663,   -7.207751e+00,   -9.600000e+01,   -3.471070e+00
    1664,   -7.207751e+00,   -9.200000e+01,   -3.471070e+00
    1665,   -7.207751e+00,   -8.800000e+01,   -3.471070e+00
    1666,   -7.207751e+00,   -8.400000e+01,   -3.471070e+00
    1667,   -7.207751e+00,   -8.000000e+01,   -3.471070e+00
    1668,   -7.207751e+00,   -7.600000e+01,   -3.471070e+00
    1669,   -7.207751e+00,   -7.200000e+01,   -3.471070e+00
    1670,   -7.207751e+00,   -6.800000e+01,   -3.471070e+00
    1671,   -7.207751e+00,   -6.400000e+01,   -3.471070e+00
    1672,   -7.207751e+00,   -6.000000e+01,   -3.471070e+00
    1673,   -7.207751e+00,   -5.600000e+01,   -3.471070e+00
    1674,   -7.207751e+00,   -5.200000e+01,   -3.471070e+00
    1675,   -7.207751e+00,   -4.800000e+01,   -3.471070e+00
    1676,   -7.207751e+00,   -4.400000e+01,   -3.471070e+00
    1677,   -7.207751e+00,   -4.000000e+01,   -3.471070e+00
    1678,   -7.207751e+00,   -3.600000e+01,   -3.471070e+00
    1679,   -7.207751e+00,   -3.200000e+01,   -3.471070e+00
    1680,   -7.207751e+00,   -2.800000e+01,   -3.471070e+00
    1681,   -7.207751e+00,   -2.400000e+01,   -3.471070e+00
    1682,   -7.207751e+00,   -2.000000e+01,   -3.471070e+00
    1683,   -7.207751e+00,   -1.600000e+01,   -3.471070e+00
    1684,   -7.207751e+00,   -1.200000e+01,   -3.471070e+00
    1685,   -7.207751e+00,   -8.000000e+00,   -3.471070e+00
    1686,   -7.207751e+00,   -4.000000e+00,   -3.471070e+00
********************************** E L E M E N T S ****************************
*ELEMENT, TYPE=C3D8R, ELSET=steel
       1,     309,     310,     185,     307,      13,      15,       5,      14
       2,     304,     305,     310,     309,       9,      10,      15,      13
       3,     305,      75,     185,     310,      10,       2,       5,      15
       4,     303,     307,     306,     302,       8,      14,      11,       7
       5,     304,     309,     307,     303,       9,      13,      14,       8
       6,     301,     302,     306,     308,       6,       7,      11,      12
       7,     129,      74,     301,     308,       3,       1,       6,      12
       8,     157,     129,     308,     306,       4,       3,      12,      11
       9,     185,     157,     306,     307,       5,       4,      11,      14
      10,     314,     315,     184,     312,     309,     310,     185,     307
      11,     299,     300,     315,     314,     304,     305,     310,     309
      12,     300,      76,     184,     315,     305,      75,     185,     310
      13,     298,     312,     311,     297,     303,     307,     306,     302
      14,     299,     314,     312,     298,     304,     309,     307,     303
      15,     296,     297,     311,     313,     301,     302,     306,     308
      16,     128,      73,     296,     313,     129,      74,     301,     308
      17,     156,     128,     313,     311,     157,     129,     308,     306
      18,     184,     156,     311,     312,     185,     157,     306,     307
      19,     319,     320,     183,     317,     314,     315,     184,     312
      20,     294,     295,     320,     319,     299,     300,     315,     314
      21,     295,      77,     183,     320,     300,      76,     184,     315
      22,     293,     317,     316,     292,     298,     312,     311,     297
      23,     294,     319,     317,     293,     299,     314,     312,     298
      24,     291,     292,     316,     318,     296,     297,     311,     313
      25,     127,      72,     291,     318,     128,      73,     296,     313
      26,     155,     127,     318,     316,     156,     128,     313,     311
      27,     183,     155,     316,     317,     184,     156,     311,     312
      28,     324,     325,     182,     322,     319,     320,     183,     317
      29,     289,     290,     325,     324,     294,     295,     320,     319
      30,     290,      78,     182,     325,     295,      77,     183,     320
      31,     288,     322,     321,     287,     293,     317,     316,     292
      32,     289,     324,     322,     288,     294,     319,     317,     293
      33,     286,     287,     321,     323,     291,     292,     316,     318
      34,     126,      71,     286,     323,     127,      72,     291,     318
      35,     154,     126,     323,     321,     155,     127,     318,     316
      36,     182,     154,     321,     322,     183,     155,     316,     317
      37,     329,     330,     181,     327,     324,     325,     182,     322
      38,     284,     285,     330,     329,     289,     290,     325,     324
      39,     285,      79,     181,     330,     290,      78,     182,     325
      40,     283,     327,     326,     282,     288,     322,     321,     287
      41,     284,     329,     327,     283,     289,     324,     322,     288
      42,     281,     282,     326,     328,     286,     287,     321,     323
      43,     125,      70,     281,     328,     126,      71,     286,     323
      44,     153,     125,     328,     326,     154,     126,     323,     321
      45,     181,     153,     326,     327,     182,     154,     321,     322
      46,     334,     335,     180,     332,     329,     330,     181,     327
      47,     279,     280,     335,     334,     284,     285,     330,     329
      48,     280,      80,     180,     335,     285,      79,     181,     330
      49,     278,     332,     331,     277,     283,     327,     326,     282
      50,     279,     334,     332,     278,     284,     329,     327,     283
      51,     276,     277,     331,     333,     281,     282,     326,     328
      52,     124,      69,     276,     333,     125,      70,     281,     328
      53,     152,     124,     333,     331,     153,     125,     328,     326
      54,     180,     152,     331,     332,     181,     153,     326,     327
      55,     339,     340,     179,     337,     334,     335,     180,     332
      56,     274,     275,     340,     339,     279,     280,     335,     334
      57,     275,      81,     179,     340,     280,      80,     180,     335
      58,     273,     337,     336,     272,     278,     332,     331,     277
      59,     274,     339,     337,     273,     279,     334,     332,     278
      60,     271,     272,     336,     338,     276,     277,     331,     333
      61,     123,      68,     271,     338,     124,      69,     276,     333
      62,     151,     123,     338,     336,     152,     124,     333,     331
      63,     179,     151,     336,     337,     180,     152,     331,     332
      64,     344,     345,     178,     342,     339,     340,     179,     337
      65,     269,     270,     345,     344,     274,     275,     340,     339
      66,     270,      82,     178,     345,     275,      81,     179,     340
      67,     268,     342,     341,     267,     273,     337,     336,     272
      68,     269,     344,     342,     268,     274,     339,     337,     273
      69,     266,     267,     341,     343,     271,     272,     336,     338
      70,     122,      67,     266,     343,     123,      68,     271,     338
      71,     150,     122,     343,     341,     151,     123,     338,     336
      72,     178,     150,     341,     342,     179,     151,     336,     337
      73,     349,     350,     177,     347,     344,     345,     178,     342
      74,     264,     265,     350,     349,     269,     270,     345,     344
      75,     265,      83,     177,     350,     270,      82,     178,     345
      76,     263,     347,     346,     262,     268,     342,     341,     267
      77,     264,     349,     347,     263,     269,     344,     342,     268
      78,     261,     262,     346,     348,     266,     267,     341,     343
      79,     121,      66,     261,     348,     122,      67,     266,     343
      80,     149,     121,     348,     346,     150,     122,     343,     341
      81,     177,     149,     346,     347,     178,     150,     341,     342
      82,     354,     355,     176,     352,     349,     350,     177,     347
      83,     259,     260,     355,     354,     264,     265,     350,     349
      84,     260,      84,     176,     355,     265,      83,     177,     350
      85,     258,     352,     351,     257,     263,     347,     346,     262
      86,     259,     354,     352,     258,     264,     349,     347,     263
      87,     256,     257,     351,     353,     261,     262,     346,     348
      88,     120,      65,     256,     353,     121,      66,     261,     348
      89,     148,     120,     353,     351,     149,     121,     348,     346
      90,     176,     148,     351,     352,     177,     149,     346,     347
      91,     359,     360,     175,     357,     354,     355,     176,     352
      92,     254,     255,     360,     359,     259,     260,     355,     354
      93,     255,      85,     175,     360,     260,      84,     176,     355
      94,     253,     357,     356,     252,     258,     352,     351,     257
      95,     254,     359,     357,     253,     259,     354,     352,     258
      96,     251,     252,     356,     358,     256,     257,     351,     353
      97,     119,      64,     251,     358,     120,      65,     256,     353
      98,     147,     119,     358,     356,     148,     120,     353,     351
      99,     175,     147,     356,     357,     176,     148,     351,     352
     100,     364,     365,     174,     362,     359,     360,     175,     357
     101,     249,     250,     365,     364,     254,     255,     360,     359
     102,     250,      86,     174,     365,     255,      85,     175,     360
     103,     248,     362,     361,     247,     253,     357,     356,     252
     104,     249,     364,     362,     248,     254,     359,     357,     253
     105,     246,     247,     361,     363,     251,     252,     356,     358
     106,     118,      63,     246,     363,     119,      64,     251,     358
     107,     146,     118,     363,     361,     147,     119,     358,     356
     108,     174,     146,     361,     362,     175,     147,     356,     357
     109,     369,     370,     173,     367,     364,     365,     174,     362
     110,     244,     245,     370,     369,     249,     250,     365,     364
     111,     245,      87,     173,     370,     250,      86,     174,     365
     112,     243,     367,     366,     242,     248,     362,     361,     247
     113,     244,     369,     367,     243,     249,     364,     362,     248
     114,     241,     242,     366,     368,     246,     247,     361,     363
     115,     117,      62,     241,     368,     118,      63,     246,     363
     116,     145,     117,     368,     366,     146,     118,     363,     361
     117,     173,     145,     366,     367,     174,     146,     361,     362
     118,     374,     375,     172,     372,     369,     370,     173,     367
     119,     239,     240,     375,     374,     244,     245,     370,     369
     120,     240,      88,     172,     375,     245,      87,     173,     370
     121,     238,     372,     371,     237,     243,     367,     366,     242
     122,     239,     374,     372,     238,     244,     369,     367,     243
     123,     236,     237,     371,     373,     241,     242,     366,     368
     124,     116,      61,     236,     373,     117,      62,     241,     368
     125,     144,     116,     373,     371,     145,     117,     368,     366
     126,     172,     144,     371,     372,     173,     145,     366,     367
     127,     379,     380,     171,     377,     374,     375,     172,     372
     128,     234,     235,     380,     379,     239,     240,     375,     374
     129,     235,      89,     171,     380,     240,      88,     172,     375
     130,     233,     377,     376,     232,     238,     372,     371,     237
     131,     234,     379,     377,     233,     239,     374,     372,     238
     132,     231,     232,     376,     378,     236,     237,     371,     373
     133,     115,      60,     231,     378,     116,      61,     236,     373
     134,     143,     115,     378,     376,     144,     116,     373,     371
     135,     171,     143,     376,     377,     172,     144,     371,     372
     136,     384,     385,     170,     382,     379,     380,     171,     377
     137,     229,     230,     385,     384,     234,     235,     380,     379
     138,     230,      90,     170,     385,     235,      89,     171,     380
     139,     228,     382,     381,     227,     233,     377,     376,     232
     140,     229,     384,     382,     228,     234,     379,     377,     233
     141,     226,     227,     381,     383,     231,     232,     376,     378
     142,     114,      59,     226,     383,     115,      60,     231,     378
     143,     142,     114,     383,     381,     143,     115,     378,     376
     144,     170,     142,     381,     382,     171,     143,     376,     377
     145,     389,     390,     169,     387,     384,     385,     170,     382
     146,     224,     225,     390,     389,     229,     230,     385,     384
     147,     225,      91,     169,     390,     230,      90,     170,     385
     148,     223,     387,     386,     222,     228,     382,     381,     227
     149,     224,     389,     387,     223,     229,     384,     382,     228
     150,     221,     222,     386,     388,     226,     227,     381,     383
     151,     113,      58,     221,     388,     114,      59,     226,     383
     152,     141,     113,     388,     386,     142,     114,     383,     381
     153,     169,     141,     386,     387,     170,     142,     381,     382
     154,     394,     395,     168,     392,     389,     390,     169,     387
     155,     219,     220,     395,     394,     224,     225,     390,     389
     156,     220,      92,     168,     395,     225,      91,     169,     390
     157,     218,     392,     391,     217,     223,     387,     386,     222
     158,     219,     394,     392,     218,     224,     389,     387,     223
     159,     216,     217,     391,     393,     221,     222,     386,     388
     160,     112,      57,     216,     393,     113,      58,     221,     388
     161,     140,     112,     393,     391,     141,     113,     388,     386
     162,     168,     140,     391,     392,     169,     141,     386,     387
     163,     399,     400,     167,     397,     394,     395,     168,     392
     164,     214,     215,     400,     399,     219,     220,     395,     394
     165,     215,      93,     167,     400,     220,      92,     168,     395
     166,     213,     397,     396,     212,     218,     392,     391,     217
     167,     214,     399,     397,     213,     219,     394,     392,     218
     168,     211,     212,     396,     398,     216,     217,     391,     393
     169,     111,      56,     211,     398,     112,      57,     216,     393
     170,     139,     111,     398,     396,     140,     112,     393,     391
     171,     167,     139,     396,     397,     168,     140,     391,     392
     172,     404,     405,     166,     402,     399,     400,     167,     397
     173,     209,     210,     405,     404,     214,     215,     400,     399
     174,     210,      94,     166,     405,     215,      93,     167,     400
     175,     208,     402,     401,     207,     213,     397,     396,     212
     176,     209,     404,     402,     208,     214,     399,     397,     213
     177,     206,     207,     401,     403,     211,     212,     396,     398
     178,     110,      55,     206,     403,     111,      56,     211,     398
     179,     138,     110,     403,     401,     139,     111,     398,     396
     180,     166,     138,     401,     402,     167,     139,     396,     397
     181,     409,     410,     165,     407,     404,     405,     166,     402
     182,     204,     205,     410,     409,     209,     210,     405,     404
     183,     205,      95,     165,     410,     210,      94,     166,     405
     184,     203,     407,     406,     202,     208,     402,     401,     207
     185,     204,     409,     407,     203,     209,     404,     402,     208
     186,     201,     202,     406,     408,     206,     207,     401,     403
     187,     109,      54,     201,     408,     110,      55,     206,     403
     188,     137,     109,     408,     406,     138,     110,     403,     401
     189,     165,     137,     406,     407,     166,     138,     401,     402
     190,     414,     415,     164,     412,     409,     410,     165,     407
     191,     199,     200,     415,     414,     204,     205,     410,     409
     192,     200,      96,     164,     415,     205,      95,     165,     410
     193,     198,     412,     411,     197,     203,     407,     406,     202
     194,     199,     414,     412,     198,     204,     409,     407,     203
     195,     196,     197,     411,     413,     201,     202,     406,     408
     196,     108,      53,     196,     413,     109,      54,     201,     408
     197,     136,     108,     413,     411,     137,     109,     408,     406
     198,     164,     136,     411,     412,     165,     137,     406,     407
     199,     419,     420,     163,     417,     414,     415,     164,     412
     200,     194,     195,     420,     419,     199,     200,     415,     414
     201,     195,      97,     163,     420,     200,      96,     164,     415
     202,     193,     417,     416,     192,     198,     412,     411,     197
     203,     194,     419,     417,     193,     199,     414,     412,     198
     204,     191,     192,     416,     418,     196,     197,     411,     413
     205,     107,      52,     191,     418,     108,      53,     196,     413
     206,     135,     107,     418,     416,     136,     108,     413,     411
     207,     163,     135,     416,     417,     164,     136,     411,     412
     208,     424,     425,     162,     422,     419,     420,     163,     417
     209,     189,     190,     425,     424,     194,     195,     420,     419
     210,     190,      98,     162,     425,     195,      97,     163,     420
     211,     188,     422,     421,     187,     193,     417,     416,     192
     212,     189,     424,     422,     188,     194,     419,     417,     193
     213,     186,     187,     421,     423,     191,     192,     416,     418
     214,     106,      51,     186,     423,     107,      52,     191,     418
     215,     134,     106,     423,     421,     135,     107,     418,     416
     216,     162,     134,     421,     422,     163,     135,     416,     417
     217,     429,     430,     161,     427,     424,     425,     162,     422
     218,      32,      31,     430,     429,     189,     190,     425,     424
     219,      31,      17,     161,     430,     190,      98,     162,     425
     220,      33,     427,     426,      34,     188,     422,     421,     187
     221,      32,     429,     427,      33,     189,     424,     422,     188
     222,      35,      34,     426,     428,     186,     187,     421,     423
     223,     105,      27,      35,     428,     106,      51,     186,     423
     224,     133,     105,     428,     426,     134,     106,     423,     421
     225,     161,     133,     426,     427,     162,     134,     421,     422
     226,     434,     435,     160,     432,     429,     430,     161,     427
     227,      39,      36,     435,     434,      32,      31,     430,     429
     228,      36,      20,     160,     435,      31,      17,     161,     430
     229,      42,     432,     431,      45,      33,     427,     426,      34
     230,      39,     434,     432,      42,      32,     429,     427,      33
     231,      48,      45,     431,     433,      35,      34,     426,     428
     232,     104,      28,      48,     433,     105,      27,      35,     428
     233,     132,     104,     433,     431,     133,     105,     428,     426
     234,     160,     132,     431,     432,     161,     133,     426,     427
     235,     439,     440,     159,     437,     434,     435,     160,     432
     236,      40,      37,     440,     439,      39,      36,     435,     434
     237,      37,      19,     159,     440,      36,      20,     160,     435
     238,      43,     437,     436,      46,      42,     432,     431,      45
     239,      40,     439,     437,      43,      39,     434,     432,      42
     240,      49,      46,     436,     438,      48,      45,     431,     433
     241,     103,      29,      49,     438,     104,      28,      48,     433
     242,     131,     103,     438,     436,     132,     104,     433,     431
     243,     159,     131,     436,     437,     160,     132,     431,     432
     244,     444,     445,     158,     442,     439,     440,     159,     437
     245,      41,      38,     445,     444,      40,      37,     440,     439
     246,      38,      18,     158,     445,      37,      19,     159,     440
     247,      44,     442,     441,      47,      43,     437,     436,      46
     248,      41,     444,     442,      44,      40,     439,     437,      43
     249,      50,      47,     441,     443,      49,      46,     436,     438
     250,     102,      30,      50,     443,     103,      29,      49,     438
     251,     130,     102,     443,     441,     131,     103,     438,     436
     252,     158,     130,     441,     442,     159,     131,     436,     437
     253,     449,     450,      99,     447,     444,     445,     158,     442
     254,      23,      22,     450,     449,      41,      38,     445,     444
     255,      22,      16,      99,     450,      38,      18,     158,     445
     256,      24,     447,     446,      25,      44,     442,     441,      47
     257,      23,     449,     447,      24,      41,     444,     442,      44
     258,      26,      25,     446,     448,      50,      47,     441,     443
     259,     101,      21,      26,     448,     102,      30,      50,     443
     260,     100,     101,     448,     446,     130,     102,     443,     441
     261,      99,     100,     446,     447,     158,     130,     441,     442
     262,     893,     906,     907,     941,     539,     550,     551,     587
     263,     893,     894,     905,     906,     539,     540,     588,     550
     264,     878,      45,      48,     904,     584,      34,      35,     546
     265,     883,     880,     881,     888,     528,     526,     534,     533
     266,     965,     898,     900,     944,     612,     544,     545,     591
     267,     944,     945,     964,     965,     591,     592,     611,     612
     268,     963,     964,     945,     946,     610,     611,     592,     593
     269,     962,     963,     946,     947,     609,     610,     593,     594
     270,     961,     962,     947,     948,     608,     609,     594,     595
     271,     960,     961,     948,     949,     607,     608,     595,     596
     272,     959,     960,     949,     950,     606,     607,     596,     597
     273,     958,     959,     950,     951,     605,     606,     597,     598
     274,     957,     958,     951,     952,     604,     605,     598,     599
     275,     956,     957,     952,     953,     603,     604,     599,     600
     276,     955,     956,     953,     954,     602,     603,     600,     601
     277,     943,     955,     954,     942,     590,     602,     601,     589
     278,     940,     941,     967,     966,     586,     587,     614,     613
     279,     909,     966,     967,     908,     553,     613,     614,     552
     280,     907,     908,     967,     941,     551,     552,     614,     587
     281,     902,     903,     940,     966,     548,     549,     586,     613
     282,     901,     902,     966,     909,     547,     548,     613,     553
     283,     939,     897,     898,     965,     583,     543,     544,     612
     284,     938,     939,     965,     964,     582,     583,     612,     611
     285,     937,     938,     964,     963,     581,     582,     611,     610
     286,     936,     937,     963,     962,     580,     581,     610,     609
     287,     935,     936,     962,     961,     579,     580,     609,     608
     288,     934,     935,     961,     960,     578,     579,     608,     607
     289,     933,     934,     960,     959,     577,     578,     607,     606
     290,     932,     933,     959,     958,     576,     577,     606,     605
     291,     931,     932,     958,     957,     575,     576,     605,     604
     292,     930,     931,     957,     956,     574,     575,     604,     603
     293,     929,     930,     956,     955,     573,     574,     603,     602
     294,     928,     929,     955,     943,     572,     573,     602,     590
     295,     926,     927,     942,     954,     570,     571,     589,     601
     296,     925,     926,     954,     953,     569,     570,     601,     600
     297,     924,     925,     953,     952,     568,     569,     600,     599
     298,     923,     924,     952,     951,     567,     568,     599,     598
     299,     922,     923,     951,     950,     566,     567,     598,     597
     300,     921,     922,     950,     949,     565,     566,     597,     596
     301,     920,     921,     949,     948,     564,     565,     596,     595
     302,     919,     920,     948,     947,     563,     564,     595,     594
     303,     918,     919,     947,     946,     562,     563,     594,     593
     304,     917,     918,     946,     945,     561,     562,     593,     592
     305,     916,     917,     945,     944,     560,     561,     592,     591
     306,     915,     916,     944,     900,     559,     560,     591,     545
     307,     912,     913,     928,     943,     556,     557,     572,     590
     308,     911,     912,     943,     942,     555,     556,     590,     589
     309,     910,     911,     942,     927,     554,     555,     589,     571
     310,     894,     889,     890,     905,     540,     535,     536,     588
     311,     892,     893,     941,     940,     538,     539,     587,     586
     312,     891,     892,     940,     903,     537,     538,     586,     549
     313,     914,     915,     900,     899,     558,     559,     545,     585
     314,     904,     914,     899,     878,     546,     558,     585,     584
     315,     798,     795,     897,     939,     497,     496,     543,     583
     316,     801,     798,     939,     938,     498,     497,     583,     582
     317,     804,     801,     938,     937,     499,     498,     582,     581
     318,     807,     804,     937,     936,     500,     499,     581,     580
     319,     810,     807,     936,     935,     501,     500,     580,     579
     320,     813,     810,     935,     934,     502,     501,     579,     578
     321,     816,     813,     934,     933,     503,     502,     578,     577
     322,     819,     816,     933,     932,     504,     503,     577,     576
     323,     822,     819,     932,     931,     505,     504,     576,     575
     324,     825,     822,     931,     930,     506,     505,     575,     574
     325,     828,     825,     930,     929,     507,     506,     574,     573
     326,     831,     828,     929,     928,     508,     507,     573,     572
     327,     834,     831,     928,     913,     509,     508,     572,     557
     328,     677,     680,     910,     927,     463,     462,     554,     571
     329,     674,     677,     927,     926,     464,     463,     571,     570
     330,     671,     674,     926,     925,     465,     464,     570,     569
     331,     668,     671,     925,     924,     466,     465,     569,     568
     332,     665,     668,     924,     923,     467,     466,     568,     567
     333,     662,     665,     923,     922,     468,     467,     567,     566
     334,     659,     662,     922,     921,     469,     468,     566,     565
     335,     656,     659,     921,     920,     470,     469,     565,     564
     336,     653,     656,     920,     919,     471,     470,     564,     563
     337,     650,     653,     919,     918,     472,     471,     563,     562
     338,     647,     650,     918,     917,     473,     472,     562,     561
     339,     644,     647,     917,     916,     474,     473,     561,     560
     340,     641,     644,     916,     915,     475,     474,     560,     559
     341,     638,     641,     915,     914,     476,     475,     559,     558
     342,     635,     638,     914,     904,     477,     476,     558,     546
     343,     848,     728,     834,     913,     482,     478,     509,     557
     344,     845,     848,     913,     912,     481,     482,     557,     556
     345,     842,     845,     912,     911,     480,     481,     556,     555
     346,     839,     842,     911,     910,     479,     480,     555,     554
     347,     634,     839,     910,     680,     461,     479,     554,     462
     348,     762,     759,     901,     909,     485,     484,     547,     553
     349,     765,     762,     909,     908,     486,     485,     553,     552
     350,     768,     765,     908,     907,     487,     486,     552,     551
     351,     771,     768,     907,     906,     488,     487,     551,     550
     352,     774,     771,     906,     905,     489,     488,     550,     588
     353,     777,     774,     905,     890,     490,     489,     588,     536
     354,     780,     777,     890,     885,     491,     490,     536,     530
     355,      48,      28,     635,     904,      35,      27,     477,     546
     356,     860,     857,     891,     903,     511,     510,     537,     549
     357,     863,     860,     903,     902,     512,     511,     549,     548
     358,     866,     863,     902,     901,     513,     512,     548,     547
     359,     726,     866,     901,     759,     483,     513,     547,     484
     360,     896,     881,     878,     899,     542,     534,     584,     585
     361,     896,     899,     900,     898,     542,     585,     545,     544
     362,     895,     896,     898,     897,     541,     542,     544,     543
     363,     792,     895,     897,     795,     495,     541,     543,     496
     364,     888,     881,     896,     895,     533,     534,     542,     541
     365,     789,     888,     895,     792,     494,     533,     541,     495
     366,     713,     710,     889,     894,     457,     456,     535,     540
     367,     716,     713,     894,     893,     458,     457,     540,     539
     368,     719,     716,     893,     892,     459,     458,     539,     538
     369,     722,     719,     892,     891,     460,     459,     538,     537
     370,     684,     722,     891,     857,     451,     460,     537,     510
     371,     887,     888,     789,     786,     532,     533,     494,     493
     372,     885,     886,     783,     780,     530,     531,     492,     491
     373,     886,     887,     786,     783,     531,     532,     493,     492
     374,     884,     885,     890,     889,     529,     530,     536,     535
     375,     707,     884,     889,     710,     455,     529,     535,     456
     376,     882,     883,     888,     887,     527,     528,     533,     532
     377,     874,     882,     887,     886,     520,     527,     532,     531
     378,     872,     874,     886,     885,     519,     520,     531,     530
     379,     871,     872,     885,     884,     518,     519,     530,     529
     380,     704,     871,     884,     707,     454,     518,     529,     455
     381,     879,     880,     883,     882,     525,     526,     528,     527
     382,     873,     879,     882,     874,     521,     525,     527,     520
     383,     877,     878,     881,     880,     524,     584,     534,     526
     384,     876,     877,     880,     879,     523,     524,     526,     525
     385,     875,     876,     879,     873,     522,     523,     525,     521
     386,      42,      45,     878,     877,      33,      34,     584,     524
     387,      39,      42,     877,     876,      32,      33,     524,     523
     388,     868,      39,     876,     875,     515,      32,     523,     522
     389,     870,     868,     875,     873,     517,     515,     522,     521
     390,     870,     873,     874,     872,     517,     521,     520,     519
     391,     869,     870,     872,     871,     516,     517,     519,     518
     392,     701,     869,     871,     704,     453,     516,     518,     454
     393,     867,     868,     870,     869,     514,     515,     517,     516
     394,     698,     867,     869,     701,     452,     514,     516,     453
     395,      36,      39,     868,     867,      31,      32,     515,     514
     396,      20,      36,     867,     698,      17,      31,     514,     452
     397,     994,    1007,    1008,    1042,     893,     906,     907,     941
     398,     994,     995,    1006,    1007,     893,     894,     905,     906
     399,     979,      46,      49,    1005,     878,      45,      48,     904
     400,     984,     981,     982,     989,     883,     880,     881,     888
     401,    1066,     999,    1001,    1045,     965,     898,     900,     944
     402,    1045,    1046,    1065,    1066,     944,     945,     964,     965
     403,    1064,    1065,    1046,    1047,     963,     964,     945,     946
     404,    1063,    1064,    1047,    1048,     962,     963,     946,     947
     405,    1062,    1063,    1048,    1049,     961,     962,     947,     948
     406,    1061,    1062,    1049,    1050,     960,     961,     948,     949
     407,    1060,    1061,    1050,    1051,     959,     960,     949,     950
     408,    1059,    1060,    1051,    1052,     958,     959,     950,     951
     409,    1058,    1059,    1052,    1053,     957,     958,     951,     952
     410,    1057,    1058,    1053,    1054,     956,     957,     952,     953
     411,    1056,    1057,    1054,    1055,     955,     956,     953,     954
     412,    1044,    1056,    1055,    1043,     943,     955,     954,     942
     413,    1041,    1042,    1068,    1067,     940,     941,     967,     966
     414,    1010,    1067,    1068,    1009,     909,     966,     967,     908
     415,    1008,    1009,    1068,    1042,     907,     908,     967,     941
     416,    1003,    1004,    1041,    1067,     902,     903,     940,     966
     417,    1002,    1003,    1067,    1010,     901,     902,     966,     909
     418,    1040,     998,     999,    1066,     939,     897,     898,     965
     419,    1039,    1040,    1066,    1065,     938,     939,     965,     964
     420,    1038,    1039,    1065,    1064,     937,     938,     964,     963
     421,    1037,    1038,    1064,    1063,     936,     937,     963,     962
     422,    1036,    1037,    1063,    1062,     935,     936,     962,     961
     423,    1035,    1036,    1062,    1061,     934,     935,     961,     960
     424,    1034,    1035,    1061,    1060,     933,     934,     960,     959
     425,    1033,    1034,    1060,    1059,     932,     933,     959,     958
     426,    1032,    1033,    1059,    1058,     931,     932,     958,     957
     427,    1031,    1032,    1058,    1057,     930,     931,     957,     956
     428,    1030,    1031,    1057,    1056,     929,     930,     956,     955
     429,    1029,    1030,    1056,    1044,     928,     929,     955,     943
     430,    1027,    1028,    1043,    1055,     926,     927,     942,     954
     431,    1026,    1027,    1055,    1054,     925,     926,     954,     953
     432,    1025,    1026,    1054,    1053,     924,     925,     953,     952
     433,    1024,    1025,    1053,    1052,     923,     924,     952,     951
     434,    1023,    1024,    1052,    1051,     922,     923,     951,     950
     435,    1022,    1023,    1051,    1050,     921,     922,     950,     949
     436,    1021,    1022,    1050,    1049,     920,     921,     949,     948
     437,    1020,    1021,    1049,    1048,     919,     920,     948,     947
     438,    1019,    1020,    1048,    1047,     918,     919,     947,     946
     439,    1018,    1019,    1047,    1046,     917,     918,     946,     945
     440,    1017,    1018,    1046,    1045,     916,     917,     945,     944
     441,    1016,    1017,    1045,    1001,     915,     916,     944,     900
     442,    1013,    1014,    1029,    1044,     912,     913,     928,     943
     443,    1012,    1013,    1044,    1043,     911,     912,     943,     942
     444,    1011,    1012,    1043,    1028,     910,     911,     942,     927
     445,     995,     990,     991,    1006,     894,     889,     890,     905
     446,     993,     994,    1042,    1041,     892,     893,     941,     940
     447,     992,     993,    1041,    1004,     891,     892,     940,     903
     448,    1015,    1016,    1001,    1000,     914,     915,     900,     899
     449,    1005,    1015,    1000,     979,     904,     914,     899,     878
     450,     797,     794,     998,    1040,     798,     795,     897,     939
     451,     800,     797,    1040,    1039,     801,     798,     939,     938
     452,     803,     800,    1039,    1038,     804,     801,     938,     937
     453,     806,     803,    1038,    1037,     807,     804,     937,     936
     454,     809,     806,    1037,    1036,     810,     807,     936,     935
     455,     812,     809,    1036,    1035,     813,     810,     935,     934
     456,     815,     812,    1035,    1034,     816,     813,     934,     933
     457,     818,     815,    1034,    1033,     819,     816,     933,     932
     458,     821,     818,    1033,    1032,     822,     819,     932,     931
     459,     824,     821,    1032,    1031,     825,     822,     931,     930
     460,     827,     824,    1031,    1030,     828,     825,     930,     929
     461,     830,     827,    1030,    1029,     831,     828,     929,     928
     462,     833,     830,    1029,    1014,     834,     831,     928,     913
     463,     678,     681,    1011,    1028,     677,     680,     910,     927
     464,     675,     678,    1028,    1027,     674,     677,     927,     926
     465,     672,     675,    1027,    1026,     671,     674,     926,     925
     466,     669,     672,    1026,    1025,     668,     671,     925,     924
     467,     666,     669,    1025,    1024,     665,     668,     924,     923
     468,     663,     666,    1024,    1023,     662,     665,     923,     922
     469,     660,     663,    1023,    1022,     659,     662,     922,     921
     470,     657,     660,    1022,    1021,     656,     659,     921,     920
     471,     654,     657,    1021,    1020,     653,     656,     920,     919
     472,     651,     654,    1020,    1019,     650,     653,     919,     918
     473,     648,     651,    1019,    1018,     647,     650,     918,     917
     474,     645,     648,    1018,    1017,     644,     647,     917,     916
     475,     642,     645,    1017,    1016,     641,     644,     916,     915
     476,     639,     642,    1016,    1015,     638,     641,     915,     914
     477,     636,     639,    1015,    1005,     635,     638,     914,     904
     478,     849,     729,     833,    1014,     848,     728,     834,     913
     479,     846,     849,    1014,    1013,     845,     848,     913,     912
     480,     843,     846,    1013,    1012,     842,     845,     912,     911
     481,     840,     843,    1012,    1011,     839,     842,     911,     910
     482,     633,     840,    1011,     681,     634,     839,     910,     680
     483,     761,     758,    1002,    1010,     762,     759,     901,     909
     484,     764,     761,    1010,    1009,     765,     762,     909,     908
     485,     767,     764,    1009,    1008,     768,     765,     908,     907
     486,     770,     767,    1008,    1007,     771,     768,     907,     906
     487,     773,     770,    1007,    1006,     774,     771,     906,     905
     488,     776,     773,    1006,     991,     777,     774,     905,     890
     489,     779,     776,     991,     986,     780,     777,     890,     885
     490,      49,      29,     636,    1005,      48,      28,     635,     904
     491,     859,     856,     992,    1004,     860,     857,     891,     903
     492,     862,     859,    1004,    1003,     863,     860,     903,     902
     493,     865,     862,    1003,    1002,     866,     863,     902,     901
     494,     725,     865,    1002,     758,     726,     866,     901,     759
     495,     997,     982,     979,    1000,     896,     881,     878,     899
     496,     997,    1000,    1001,     999,     896,     899,     900,     898
     497,     996,     997,     999,     998,     895,     896,     898,     897
     498,     791,     996,     998,     794,     792,     895,     897,     795
     499,     989,     982,     997,     996,     888,     881,     896,     895
     500,     788,     989,     996,     791,     789,     888,     895,     792
     501,     712,     709,     990,     995,     713,     710,     889,     894
     502,     715,     712,     995,     994,     716,     713,     894,     893
     503,     718,     715,     994,     993,     719,     716,     893,     892
     504,     721,     718,     993,     992,     722,     719,     892,     891
     505,     685,     721,     992,     856,     684,     722,     891,     857
     506,     988,     989,     788,     785,     887,     888,     789,     786
     507,     986,     987,     782,     779,     885,     886,     783,     780
     508,     987,     988,     785,     782,     886,     887,     786,     783
     509,     985,     986,     991,     990,     884,     885,     890,     889
     510,     706,     985,     990,     709,     707,     884,     889,     710
     511,     983,     984,     989,     988,     882,     883,     888,     887
     512,     975,     983,     988,     987,     874,     882,     887,     886
     513,     973,     975,     987,     986,     872,     874,     886,     885
     514,     972,     973,     986,     985,     871,     872,     885,     884
     515,     703,     972,     985,     706,     704,     871,     884,     707
     516,     980,     981,     984,     983,     879,     880,     883,     882
     517,     974,     980,     983,     975,     873,     879,     882,     874
     518,     978,     979,     982,     981,     877,     878,     881,     880
     519,     977,     978,     981,     980,     876,     877,     880,     879
     520,     976,     977,     980,     974,     875,     876,     879,     873
     521,      43,      46,     979,     978,      42,      45,     878,     877
     522,      40,      43,     978,     977,      39,      42,     877,     876
     523,     969,      40,     977,     976,     868,      39,     876,     875
     524,     971,     969,     976,     974,     870,     868,     875,     873
     525,     971,     974,     975,     973,     870,     873,     874,     872
     526,     970,     971,     973,     972,     869,     870,     872,     871
     527,     700,     970,     972,     703,     701,     869,     871,     704
     528,     968,     969,     971,     970,     867,     868,     870,     869
     529,     697,     968,     970,     700,     698,     867,     869,     701
     530,      37,      40,     969,     968,      36,      39,     868,     867
     531,      19,      37,     968,     697,      20,      36,     867,     698
     532,    1095,    1108,    1109,    1143,     994,    1007,    1008,    1042
     533,    1095,    1096,    1107,    1108,     994,     995,    1006,    1007
     534,    1080,      47,      50,    1106,     979,      46,      49,    1005
     535,    1085,    1082,    1083,    1090,     984,     981,     982,     989
     536,    1167,    1100,    1102,    1146,    1066,     999,    1001,    1045
     537,    1146,    1147,    1166,    1167,    1045,    1046,    1065,    1066
     538,    1165,    1166,    1147,    1148,    1064,    1065,    1046,    1047
     539,    1164,    1165,    1148,    1149,    1063,    1064,    1047,    1048
     540,    1163,    1164,    1149,    1150,    1062,    1063,    1048,    1049
     541,    1162,    1163,    1150,    1151,    1061,    1062,    1049,    1050
     542,    1161,    1162,    1151,    1152,    1060,    1061,    1050,    1051
     543,    1160,    1161,    1152,    1153,    1059,    1060,    1051,    1052
     544,    1159,    1160,    1153,    1154,    1058,    1059,    1052,    1053
     545,    1158,    1159,    1154,    1155,    1057,    1058,    1053,    1054
     546,    1157,    1158,    1155,    1156,    1056,    1057,    1054,    1055
     547,    1145,    1157,    1156,    1144,    1044,    1056,    1055,    1043
     548,    1142,    1143,    1169,    1168,    1041,    1042,    1068,    1067
     549,    1111,    1168,    1169,    1110,    1010,    1067,    1068,    1009
     550,    1109,    1110,    1169,    1143,    1008,    1009,    1068,    1042
     551,    1104,    1105,    1142,    1168,    1003,    1004,    1041,    1067
     552,    1103,    1104,    1168,    1111,    1002,    1003,    1067,    1010
     553,    1141,    1099,    1100,    1167,    1040,     998,     999,    1066
     554,    1140,    1141,    1167,    1166,    1039,    1040,    1066,    1065
     555,    1139,    1140,    1166,    1165,    1038,    1039,    1065,    1064
     556,    1138,    1139,    1165,    1164,    1037,    1038,    1064,    1063
     557,    1137,    1138,    1164,    1163,    1036,    1037,    1063,    1062
     558,    1136,    1137,    1163,    1162,    1035,    1036,    1062,    1061
     559,    1135,    1136,    1162,    1161,    1034,    1035,    1061,    1060
     560,    1134,    1135,    1161,    1160,    1033,    1034,    1060,    1059
     561,    1133,    1134,    1160,    1159,    1032,    1033,    1059,    1058
     562,    1132,    1133,    1159,    1158,    1031,    1032,    1058,    1057
     563,    1131,    1132,    1158,    1157,    1030,    1031,    1057,    1056
     564,    1130,    1131,    1157,    1145,    1029,    1030,    1056,    1044
     565,    1128,    1129,    1144,    1156,    1027,    1028,    1043,    1055
     566,    1127,    1128,    1156,    1155,    1026,    1027,    1055,    1054
     567,    1126,    1127,    1155,    1154,    1025,    1026,    1054,    1053
     568,    1125,    1126,    1154,    1153,    1024,    1025,    1053,    1052
     569,    1124,    1125,    1153,    1152,    1023,    1024,    1052,    1051
     570,    1123,    1124,    1152,    1151,    1022,    1023,    1051,    1050
     571,    1122,    1123,    1151,    1150,    1021,    1022,    1050,    1049
     572,    1121,    1122,    1150,    1149,    1020,    1021,    1049,    1048
     573,    1120,    1121,    1149,    1148,    1019,    1020,    1048,    1047
     574,    1119,    1120,    1148,    1147,    1018,    1019,    1047,    1046
     575,    1118,    1119,    1147,    1146,    1017,    1018,    1046,    1045
     576,    1117,    1118,    1146,    1102,    1016,    1017,    1045,    1001
     577,    1114,    1115,    1130,    1145,    1013,    1014,    1029,    1044
     578,    1113,    1114,    1145,    1144,    1012,    1013,    1044,    1043
     579,    1112,    1113,    1144,    1129,    1011,    1012,    1043,    1028
     580,    1096,    1091,    1092,    1107,     995,     990,     991,    1006
     581,    1094,    1095,    1143,    1142,     993,     994,    1042,    1041
     582,    1093,    1094,    1142,    1105,     992,     993,    1041,    1004
     583,    1116,    1117,    1102,    1101,    1015,    1016,    1001,    1000
     584,    1106,    1116,    1101,    1080,    1005,    1015,    1000,     979
     585,     796,     793,    1099,    1141,     797,     794,     998,    1040
     586,     799,     796,    1141,    1140,     800,     797,    1040,    1039
     587,     802,     799,    1140,    1139,     803,     800,    1039,    1038
     588,     805,     802,    1139,    1138,     806,     803,    1038,    1037
     589,     808,     805,    1138,    1137,     809,     806,    1037,    1036
     590,     811,     808,    1137,    1136,     812,     809,    1036,    1035
     591,     814,     811,    1136,    1135,     815,     812,    1035,    1034
     592,     817,     814,    1135,    1134,     818,     815,    1034,    1033
     593,     820,     817,    1134,    1133,     821,     818,    1033,    1032
     594,     823,     820,    1133,    1132,     824,     821,    1032,    1031
     595,     826,     823,    1132,    1131,     827,     824,    1031,    1030
     596,     829,     826,    1131,    1130,     830,     827,    1030,    1029
     597,     832,     829,    1130,    1115,     833,     830,    1029,    1014
     598,     679,     682,    1112,    1129,     678,     681,    1011,    1028
     599,     676,     679,    1129,    1128,     675,     678,    1028,    1027
     600,     673,     676,    1128,    1127,     672,     675,    1027,    1026
     601,     670,     673,    1127,    1126,     669,     672,    1026,    1025
     602,     667,     670,    1126,    1125,     666,     669,    1025,    1024
     603,     664,     667,    1125,    1124,     663,     666,    1024,    1023
     604,     661,     664,    1124,    1123,     660,     663,    1023,    1022
     605,     658,     661,    1123,    1122,     657,     660,    1022,    1021
     606,     655,     658,    1122,    1121,     654,     657,    1021,    1020
     607,     652,     655,    1121,    1120,     651,     654,    1020,    1019
     608,     649,     652,    1120,    1119,     648,     651,    1019,    1018
     609,     646,     649,    1119,    1118,     645,     648,    1018,    1017
     610,     643,     646,    1118,    1117,     642,     645,    1017,    1016
     611,     640,     643,    1117,    1116,     639,     642,    1016,    1015
     612,     637,     640,    1116,    1106,     636,     639,    1015,    1005
     613,     850,     730,     832,    1115,     849,     729,     833,    1014
     614,     847,     850,    1115,    1114,     846,     849,    1014,    1013
     615,     844,     847,    1114,    1113,     843,     846,    1013,    1012
     616,     841,     844,    1113,    1112,     840,     843,    1012,    1011
     617,     632,     841,    1112,     682,     633,     840,    1011,     681
     618,     760,     757,    1103,    1111,     761,     758,    1002,    1010
     619,     763,     760,    1111,    1110,     764,     761,    1010,    1009
     620,     766,     763,    1110,    1109,     767,     764,    1009,    1008
     621,     769,     766,    1109,    1108,     770,     767,    1008,    1007
     622,     772,     769,    1108,    1107,     773,     770,    1007,    1006
     623,     775,     772,    1107,    1092,     776,     773,    1006,     991
     624,     778,     775,    1092,    1087,     779,     776,     991,     986
     625,      50,      30,     637,    1106,      49,      29,     636,    1005
     626,     858,     855,    1093,    1105,     859,     856,     992,    1004
     627,     861,     858,    1105,    1104,     862,     859,    1004,    1003
     628,     864,     861,    1104,    1103,     865,     862,    1003,    1002
     629,     724,     864,    1103,     757,     725,     865,    1002,     758
     630,    1098,    1083,    1080,    1101,     997,     982,     979,    1000
     631,    1098,    1101,    1102,    1100,     997,    1000,    1001,     999
     632,    1097,    1098,    1100,    1099,     996,     997,     999,     998
     633,     790,    1097,    1099,     793,     791,     996,     998,     794
     634,    1090,    1083,    1098,    1097,     989,     982,     997,     996
     635,     787,    1090,    1097,     790,     788,     989,     996,     791
     636,     711,     708,    1091,    1096,     712,     709,     990,     995
     637,     714,     711,    1096,    1095,     715,     712,     995,     994
     638,     717,     714,    1095,    1094,     718,     715,     994,     993
     639,     720,     717,    1094,    1093,     721,     718,     993,     992
     640,     686,     720,    1093,     855,     685,     721,     992,     856
     641,    1089,    1090,     787,     784,     988,     989,     788,     785
     642,    1087,    1088,     781,     778,     986,     987,     782,     779
     643,    1088,    1089,     784,     781,     987,     988,     785,     782
     644,    1086,    1087,    1092,    1091,     985,     986,     991,     990
     645,     705,    1086,    1091,     708,     706,     985,     990,     709
     646,    1084,    1085,    1090,    1089,     983,     984,     989,     988
     647,    1076,    1084,    1089,    1088,     975,     983,     988,     987
     648,    1074,    1076,    1088,    1087,     973,     975,     987,     986
     649,    1073,    1074,    1087,    1086,     972,     973,     986,     985
     650,     702,    1073,    1086,     705,     703,     972,     985,     706
     651,    1081,    1082,    1085,    1084,     980,     981,     984,     983
     652,    1075,    1081,    1084,    1076,     974,     980,     983,     975
     653,    1079,    1080,    1083,    1082,     978,     979,     982,     981
     654,    1078,    1079,    1082,    1081,     977,     978,     981,     980
     655,    1077,    1078,    1081,    1075,     976,     977,     980,     974
     656,      44,      47,    1080,    1079,      43,      46,     979,     978
     657,      41,      44,    1079,    1078,      40,      43,     978,     977
     658,    1070,      41,    1078,    1077,     969,      40,     977,     976
     659,    1072,    1070,    1077,    1075,     971,     969,     976,     974
     660,    1072,    1075,    1076,    1074,     971,     974,     975,     973
     661,    1071,    1072,    1074,    1073,     970,     971,     973,     972
     662,     699,    1071,    1073,     702,     700,     970,     972,     703
     663,    1069,    1070,    1072,    1071,     968,     969,     971,     970
     664,     696,    1069,    1071,     699,     697,     968,     970,     700
     665,      38,      41,    1070,    1069,      37,      40,     969,     968
     666,      18,      38,    1069,     696,      19,      37,     968,     697
     667,    1196,    1209,    1210,    1244,    1095,    1108,    1109,    1143
     668,    1196,    1197,    1208,    1209,    1095,    1096,    1107,    1108
     669,    1181,      25,      26,    1207,    1080,      47,      50,    1106
     670,    1186,    1183,    1184,    1191,    1085,    1082,    1083,    1090
     671,    1268,    1201,    1203,    1247,    1167,    1100,    1102,    1146
     672,    1247,    1248,    1267,    1268,    1146,    1147,    1166,    1167
     673,    1266,    1267,    1248,    1249,    1165,    1166,    1147,    1148
     674,    1265,    1266,    1249,    1250,    1164,    1165,    1148,    1149
     675,    1264,    1265,    1250,    1251,    1163,    1164,    1149,    1150
     676,    1263,    1264,    1251,    1252,    1162,    1163,    1150,    1151
     677,    1262,    1263,    1252,    1253,    1161,    1162,    1151,    1152
     678,    1261,    1262,    1253,    1254,    1160,    1161,    1152,    1153
     679,    1260,    1261,    1254,    1255,    1159,    1160,    1153,    1154
     680,    1259,    1260,    1255,    1256,    1158,    1159,    1154,    1155
     681,    1258,    1259,    1256,    1257,    1157,    1158,    1155,    1156
     682,    1246,    1258,    1257,    1245,    1145,    1157,    1156,    1144
     683,    1243,    1244,    1270,    1269,    1142,    1143,    1169,    1168
     684,    1212,    1269,    1270,    1211,    1111,    1168,    1169,    1110
     685,    1210,    1211,    1270,    1244,    1109,    1110,    1169,    1143
     686,    1205,    1206,    1243,    1269,    1104,    1105,    1142,    1168
     687,    1204,    1205,    1269,    1212,    1103,    1104,    1168,    1111
     688,    1242,    1200,    1201,    1268,    1141,    1099,    1100,    1167
     689,    1241,    1242,    1268,    1267,    1140,    1141,    1167,    1166
     690,    1240,    1241,    1267,    1266,    1139,    1140,    1166,    1165
     691,    1239,    1240,    1266,    1265,    1138,    1139,    1165,    1164
     692,    1238,    1239,    1265,    1264,    1137,    1138,    1164,    1163
     693,    1237,    1238,    1264,    1263,    1136,    1137,    1163,    1162
     694,    1236,    1237,    1263,    1262,    1135,    1136,    1162,    1161
     695,    1235,    1236,    1262,    1261,    1134,    1135,    1161,    1160
     696,    1234,    1235,    1261,    1260,    1133,    1134,    1160,    1159
     697,    1233,    1234,    1260,    1259,    1132,    1133,    1159,    1158
     698,    1232,    1233,    1259,    1258,    1131,    1132,    1158,    1157
     699,    1231,    1232,    1258,    1246,    1130,    1131,    1157,    1145
     700,    1229,    1230,    1245,    1257,    1128,    1129,    1144,    1156
     701,    1228,    1229,    1257,    1256,    1127,    1128,    1156,    1155
     702,    1227,    1228,    1256,    1255,    1126,    1127,    1155,    1154
     703,    1226,    1227,    1255,    1254,    1125,    1126,    1154,    1153
     704,    1225,    1226,    1254,    1253,    1124,    1125,    1153,    1152
     705,    1224,    1225,    1253,    1252,    1123,    1124,    1152,    1151
     706,    1223,    1224,    1252,    1251,    1122,    1123,    1151,    1150
     707,    1222,    1223,    1251,    1250,    1121,    1122,    1150,    1149
     708,    1221,    1222,    1250,    1249,    1120,    1121,    1149,    1148
     709,    1220,    1221,    1249,    1248,    1119,    1120,    1148,    1147
     710,    1219,    1220,    1248,    1247,    1118,    1119,    1147,    1146
     711,    1218,    1219,    1247,    1203,    1117,    1118,    1146,    1102
     712,    1215,    1216,    1231,    1246,    1114,    1115,    1130,    1145
     713,    1214,    1215,    1246,    1245,    1113,    1114,    1145,    1144
     714,    1213,    1214,    1245,    1230,    1112,    1113,    1144,    1129
     715,    1197,    1192,    1193,    1208,    1096,    1091,    1092,    1107
     716,    1195,    1196,    1244,    1243,    1094,    1095,    1143,    1142
     717,    1194,    1195,    1243,    1206,    1093,    1094,    1142,    1105
     718,    1217,    1218,    1203,    1202,    1116,    1117,    1102,    1101
     719,    1207,    1217,    1202,    1181,    1106,    1116,    1101,    1080
     720,     743,     744,    1200,    1242,     796,     793,    1099,    1141
     721,     742,     743,    1242,    1241,     799,     796,    1141,    1140
     722,     741,     742,    1241,    1240,     802,     799,    1140,    1139
     723,     740,     741,    1240,    1239,     805,     802,    1139,    1138
     724,     739,     740,    1239,    1238,     808,     805,    1138,    1137
     725,     738,     739,    1238,    1237,     811,     808,    1137,    1136
     726,     737,     738,    1237,    1236,     814,     811,    1136,    1135
     727,     736,     737,    1236,    1235,     817,     814,    1135,    1134
     728,     735,     736,    1235,    1234,     820,     817,    1134,    1133
     729,     734,     735,    1234,    1233,     823,     820,    1133,    1132
     730,     733,     734,    1233,    1232,     826,     823,    1132,    1131
     731,     732,     733,    1232,    1231,     829,     826,    1131,    1130
     732,     731,     732,    1231,    1216,     832,     829,    1130,    1115
     733,     630,     631,    1213,    1230,     679,     682,    1112,    1129
     734,     629,     630,    1230,    1229,     676,     679,    1129,    1128
     735,     628,     629,    1229,    1228,     673,     676,    1128,    1127
     736,     627,     628,    1228,    1227,     670,     673,    1127,    1126
     737,     626,     627,    1227,    1226,     667,     670,    1126,    1125
     738,     625,     626,    1226,    1225,     664,     667,    1125,    1124
     739,     624,     625,    1225,    1224,     661,     664,    1124,    1123
     740,     623,     624,    1224,    1223,     658,     661,    1123,    1122
     741,     622,     623,    1223,    1222,     655,     658,    1122,    1121
     742,     621,     622,    1222,    1221,     652,     655,    1121,    1120
     743,     620,     621,    1221,    1220,     649,     652,    1120,    1119
     744,     619,     620,    1220,    1219,     646,     649,    1119,    1118
     745,     618,     619,    1219,    1218,     643,     646,    1118,    1117
     746,     617,     618,    1218,    1217,     640,     643,    1117,    1116
     747,     616,     617,    1217,    1207,     637,     640,    1116,    1106
     748,     838,     727,     731,    1216,     850,     730,     832,    1115
     749,     837,     838,    1216,    1215,     847,     850,    1115,    1114
     750,     836,     837,    1215,    1214,     844,     847,    1114,    1113
     751,     835,     836,    1214,    1213,     841,     844,    1113,    1112
     752,     615,     835,    1213,     631,     632,     841,    1112,     682
     753,     755,     756,    1204,    1212,     760,     757,    1103,    1111
     754,     754,     755,    1212,    1211,     763,     760,    1111,    1110
     755,     753,     754,    1211,    1210,     766,     763,    1110,    1109
     756,     752,     753,    1210,    1209,     769,     766,    1109,    1108
     757,     751,     752,    1209,    1208,     772,     769,    1108,    1107
     758,     750,     751,    1208,    1193,     775,     772,    1107,    1092
     759,     749,     750,    1193,    1188,     778,     775,    1092,    1087
     760,      26,      21,     616,    1207,      50,      30,     637,    1106
     761,     852,     851,    1194,    1206,     858,     855,    1093,    1105
     762,     853,     852,    1206,    1205,     861,     858,    1105,    1104
     763,     854,     853,    1205,    1204,     864,     861,    1104,    1103
     764,     723,     854,    1204,     756,     724,     864,    1103,     757
     765,    1199,    1184,    1181,    1202,    1098,    1083,    1080,    1101
     766,    1199,    1202,    1203,    1201,    1098,    1101,    1102,    1100
     767,    1198,    1199,    1201,    1200,    1097,    1098,    1100,    1099
     768,     745,    1198,    1200,     744,     790,    1097,    1099,     793
     769,    1191,    1184,    1199,    1198,    1090,    1083,    1098,    1097
     770,     746,    1191,    1198,     745,     787,    1090,    1097,     790
     771,     690,     691,    1192,    1197,     711,     708,    1091,    1096
     772,     689,     690,    1197,    1196,     714,     711,    1096,    1095
     773,     688,     689,    1196,    1195,     717,     714,    1095,    1094
     774,     687,     688,    1195,    1194,     720,     717,    1094,    1093
     775,     683,     687,    1194,     851,     686,     720,    1093,     855
     776,    1190,    1191,     746,     747,    1089,    1090,     787,     784
     777,    1188,    1189,     748,     749,    1087,    1088,     781,     778
     778,    1189,    1190,     747,     748,    1088,    1089,     784,     781
     779,    1187,    1188,    1193,    1192,    1086,    1087,    1092,    1091
     780,     692,    1187,    1192,     691,     705,    1086,    1091,     708
     781,    1185,    1186,    1191,    1190,    1084,    1085,    1090,    1089
     782,    1177,    1185,    1190,    1189,    1076,    1084,    1089,    1088
     783,    1175,    1177,    1189,    1188,    1074,    1076,    1088,    1087
     784,    1174,    1175,    1188,    1187,    1073,    1074,    1087,    1086
     785,     693,    1174,    1187,     692,     702,    1073,    1086,     705
     786,    1182,    1183,    1186,    1185,    1081,    1082,    1085,    1084
     787,    1176,    1182,    1185,    1177,    1075,    1081,    1084,    1076
     788,    1180,    1181,    1184,    1183,    1079,    1080,    1083,    1082
     789,    1179,    1180,    1183,    1182,    1078,    1079,    1082,    1081
     790,    1178,    1179,    1182,    1176,    1077,    1078,    1081,    1075
     791,      24,      25,    1181,    1180,      44,      47,    1080,    1079
     792,      23,      24,    1180,    1179,      41,      44,    1079,    1078
     793,    1171,      23,    1179,    1178,    1070,      41,    1078,    1077
     794,    1173,    1171,    1178,    1176,    1072,    1070,    1077,    1075
     795,    1173,    1176,    1177,    1175,    1072,    1075,    1076,    1074
     796,    1172,    1173,    1175,    1174,    1071,    1072,    1074,    1073
     797,     694,    1172,    1174,     693,     699,    1071,    1073,     702
     798,    1170,    1171,    1173,    1172,    1069,    1070,    1072,    1071
     799,     695,    1170,    1172,     694,     696,    1069,    1071,     699
     800,      22,      23,    1171,    1170,      38,      41,    1070,    1069
     801,      16,      22,    1170,     695,      18,      38,    1069,     696
*ELEMENT, TYPE=COH3D8, ELSET=mortar
     802,    1298,    1381,    1686,    1322,    1271,    1380,    1513,    1273
     803,    1381,    1382,    1662,    1686,    1380,    1379,    1489,    1513
     804,    1382,    1383,    1638,    1662,    1379,    1378,    1465,    1489
     805,    1383,    1384,    1614,    1638,    1378,    1377,    1441,    1465
     806,    1384,    1385,    1590,    1614,    1377,    1376,    1417,    1441
     807,    1385,    1386,    1566,    1590,    1376,    1375,    1393,    1417
     808,    1386,    1349,    1351,    1566,    1375,    1324,    1348,    1393
     809,    1322,    1686,    1685,    1321,    1273,    1513,    1514,    1274
     810,    1686,    1662,    1661,    1685,    1513,    1489,    1490,    1514
     811,    1662,    1638,    1637,    1661,    1489,    1465,    1466,    1490
     812,    1638,    1614,    1613,    1637,    1465,    1441,    1442,    1466
     813,    1614,    1590,    1589,    1613,    1441,    1417,    1418,    1442
     814,    1590,    1566,    1565,    1589,    1417,    1393,    1394,    1418
     815,    1566,    1351,    1352,    1565,    1393,    1348,    1347,    1394
     816,    1321,    1685,    1684,    1320,    1274,    1514,    1515,    1275
     817,    1685,    1661,    1660,    1684,    1514,    1490,    1491,    1515
     818,    1661,    1637,    1636,    1660,    1490,    1466,    1467,    1491
     819,    1637,    1613,    1612,    1636,    1466,    1442,    1443,    1467
     820,    1613,    1589,    1588,    1612,    1442,    1418,    1419,    1443
     821,    1589,    1565,    1564,    1588,    1418,    1394,    1395,    1419
     822,    1565,    1352,    1353,    1564,    1394,    1347,    1346,    1395
     823,    1320,    1684,    1683,    1319,    1275,    1515,    1516,    1276
     824,    1684,    1660,    1659,    1683,    1515,    1491,    1492,    1516
     825,    1660,    1636,    1635,    1659,    1491,    1467,    1468,    1492
     826,    1636,    1612,    1611,    1635,    1467,    1443,    1444,    1468
     827,    1612,    1588,    1587,    1611,    1443,    1419,    1420,    1444
     828,    1588,    1564,    1563,    1587,    1419,    1395,    1396,    1420
     829,    1564,    1353,    1354,    1563,    1395,    1346,    1345,    1396
     830,    1319,    1683,    1682,    1318,    1276,    1516,    1517,    1277
     831,    1683,    1659,    1658,    1682,    1516,    1492,    1493,    1517
     832,    1659,    1635,    1634,    1658,    1492,    1468,    1469,    1493
     833,    1635,    1611,    1610,    1634,    1468,    1444,    1445,    1469
     834,    1611,    1587,    1586,    1610,    1444,    1420,    1421,    1445
     835,    1587,    1563,    1562,    1586,    1420,    1396,    1397,    1421
     836,    1563,    1354,    1355,    1562,    1396,    1345,    1344,    1397
     837,    1318,    1682,    1681,    1317,    1277,    1517,    1518,    1278
     838,    1682,    1658,    1657,    1681,    1517,    1493,    1494,    1518
     839,    1658,    1634,    1633,    1657,    1493,    1469,    1470,    1494
     840,    1634,    1610,    1609,    1633,    1469,    1445,    1446,    1470
     841,    1610,    1586,    1585,    1609,    1445,    1421,    1422,    1446
     842,    1586,    1562,    1561,    1585,    1421,    1397,    1398,    1422
     843,    1562,    1355,    1356,    1561,    1397,    1344,    1343,    1398
     844,    1317,    1681,    1680,    1316,    1278,    1518,    1519,    1279
     845,    1681,    1657,    1656,    1680,    1518,    1494,    1495,    1519
     846,    1657,    1633,    1632,    1656,    1494,    1470,    1471,    1495
     847,    1633,    1609,    1608,    1632,    1470,    1446,    1447,    1471
     848,    1609,    1585,    1584,    1608,    1446,    1422,    1423,    1447
     849,    1585,    1561,    1560,    1584,    1422,    1398,    1399,    1423
     850,    1561,    1356,    1357,    1560,    1398,    1343,    1342,    1399
     851,    1316,    1680,    1679,    1315,    1279,    1519,    1520,    1280
     852,    1680,    1656,    1655,    1679,    1519,    1495,    1496,    1520
     853,    1656,    1632,    1631,    1655,    1495,    1471,    1472,    1496
     854,    1632,    1608,    1607,    1631,    1471,    1447,    1448,    1472
     855,    1608,    1584,    1583,    1607,    1447,    1423,    1424,    1448
     856,    1584,    1560,    1559,    1583,    1423,    1399,    1400,    1424
     857,    1560,    1357,    1358,    1559,    1399,    1342,    1341,    1400
     858,    1315,    1679,    1678,    1314,    1280,    1520,    1521,    1281
     859,    1679,    1655,    1654,    1678,    1520,    1496,    1497,    1521
     860,    1655,    1631,    1630,    1654,    1496,    1472,    1473,    1497
     861,    1631,    1607,    1606,    1630,    1472,    1448,    1449,    1473
     862,    1607,    1583,    1582,    1606,    1448,    1424,    1425,    1449
     863,    1583,    1559,    1558,    1582,    1424,    1400,    1401,    1425
     864,    1559,    1358,    1359,    1558,    1400,    1341,    1340,    1401
     865,    1314,    1678,    1677,    1313,    1281,    1521,    1522,    1282
     866,    1678,    1654,    1653,    1677,    1521,    1497,    1498,    1522
     867,    1654,    1630,    1629,    1653,    1497,    1473,    1474,    1498
     868,    1630,    1606,    1605,    1629,    1473,    1449,    1450,    1474
     869,    1606,    1582,    1581,    1605,    1449,    1425,    1426,    1450
     870,    1582,    1558,    1557,    1581,    1425,    1401,    1402,    1426
     871,    1558,    1359,    1360,    1557,    1401,    1340,    1339,    1402
     872,    1313,    1677,    1676,    1312,    1282,    1522,    1523,    1283
     873,    1677,    1653,    1652,    1676,    1522,    1498,    1499,    1523
     874,    1653,    1629,    1628,    1652,    1498,    1474,    1475,    1499
     875,    1629,    1605,    1604,    1628,    1474,    1450,    1451,    1475
     876,    1605,    1581,    1580,    1604,    1450,    1426,    1427,    1451
     877,    1581,    1557,    1556,    1580,    1426,    1402,    1403,    1427
     878,    1557,    1360,    1361,    1556,    1402,    1339,    1338,    1403
     879,    1312,    1676,    1675,    1311,    1283,    1523,    1524,    1284
     880,    1676,    1652,    1651,    1675,    1523,    1499,    1500,    1524
     881,    1652,    1628,    1627,    1651,    1499,    1475,    1476,    1500
     882,    1628,    1604,    1603,    1627,    1475,    1451,    1452,    1476
     883,    1604,    1580,    1579,    1603,    1451,    1427,    1428,    1452
     884,    1580,    1556,    1555,    1579,    1427,    1403,    1404,    1428
     885,    1556,    1361,    1362,    1555,    1403,    1338,    1337,    1404
     886,    1311,    1675,    1674,    1310,    1284,    1524,    1525,    1285
     887,    1675,    1651,    1650,    1674,    1524,    1500,    1501,    1525
     888,    1651,    1627,    1626,    1650,    1500,    1476,    1477,    1501
     889,    1627,    1603,    1602,    1626,    1476,    1452,    1453,    1477
     890,    1603,    1579,    1578,    1602,    1452,    1428,    1429,    1453
     891,    1579,    1555,    1554,    1578,    1428,    1404,    1405,    1429
     892,    1555,    1362,    1363,    1554,    1404,    1337,    1336,    1405
     893,    1310,    1674,    1673,    1309,    1285,    1525,    1526,    1286
     894,    1674,    1650,    1649,    1673,    1525,    1501,    1502,    1526
     895,    1650,    1626,    1625,    1649,    1501,    1477,    1478,    1502
     896,    1626,    1602,    1601,    1625,    1477,    1453,    1454,    1478
     897,    1602,    1578,    1577,    1601,    1453,    1429,    1430,    1454
     898,    1578,    1554,    1553,    1577,    1429,    1405,    1406,    1430
     899,    1554,    1363,    1364,    1553,    1405,    1336,    1335,    1406
     900,    1309,    1673,    1672,    1308,    1286,    1526,    1527,    1287
     901,    1673,    1649,    1648,    1672,    1526,    1502,    1503,    1527
     902,    1649,    1625,    1624,    1648,    1502,    1478,    1479,    1503
     903,    1625,    1601,    1600,    1624,    1478,    1454,    1455,    1479
     904,    1601,    1577,    1576,    1600,    1454,    1430,    1431,    1455
     905,    1577,    1553,    1552,    1576,    1430,    1406,    1407,    1431
     906,    1553,    1364,    1365,    1552,    1406,    1335,    1334,    1407
     907,    1308,    1672,    1671,    1307,    1287,    1527,    1528,    1288
     908,    1672,    1648,    1647,    1671,    1527,    1503,    1504,    1528
     909,    1648,    1624,    1623,    1647,    1503,    1479,    1480,    1504
     910,    1624,    1600,    1599,    1623,    1479,    1455,    1456,    1480
     911,    1600,    1576,    1575,    1599,    1455,    1431,    1432,    1456
     912,    1576,    1552,    1551,    1575,    1431,    1407,    1408,    1432
     913,    1552,    1365,    1366,    1551,    1407,    1334,    1333,    1408
     914,    1307,    1671,    1670,    1306,    1288,    1528,    1529,    1289
     915,    1671,    1647,    1646,    1670,    1528,    1504,    1505,    1529
     916,    1647,    1623,    1622,    1646,    1504,    1480,    1481,    1505
     917,    1623,    1599,    1598,    1622,    1480,    1456,    1457,    1481
     918,    1599,    1575,    1574,    1598,    1456,    1432,    1433,    1457
     919,    1575,    1551,    1550,    1574,    1432,    1408,    1409,    1433
     920,    1551,    1366,    1367,    1550,    1408,    1333,    1332,    1409
     921,    1306,    1670,    1669,    1305,    1289,    1529,    1530,    1290
     922,    1670,    1646,    1645,    1669,    1529,    1505,    1506,    1530
     923,    1646,    1622,    1621,    1645,    1505,    1481,    1482,    1506
     924,    1622,    1598,    1597,    1621,    1481,    1457,    1458,    1482
     925,    1598,    1574,    1573,    1597,    1457,    1433,    1434,    1458
     926,    1574,    1550,    1549,    1573,    1433,    1409,    1410,    1434
     927,    1550,    1367,    1368,    1549,    1409,    1332,    1331,    1410
     928,    1305,    1669,    1668,    1304,    1290,    1530,    1531,    1291
     929,    1669,    1645,    1644,    1668,    1530,    1506,    1507,    1531
     930,    1645,    1621,    1620,    1644,    1506,    1482,    1483,    1507
     931,    1621,    1597,    1596,    1620,    1482,    1458,    1459,    1483
     932,    1597,    1573,    1572,    1596,    1458,    1434,    1435,    1459
     933,    1573,    1549,    1548,    1572,    1434,    1410,    1411,    1435
     934,    1549,    1368,    1369,    1548,    1410,    1331,    1330,    1411
     935,    1304,    1668,    1667,    1303,    1291,    1531,    1532,    1292
     936,    1668,    1644,    1643,    1667,    1531,    1507,    1508,    1532
     937,    1644,    1620,    1619,    1643,    1507,    1483,    1484,    1508
     938,    1620,    1596,    1595,    1619,    1483,    1459,    1460,    1484
     939,    1596,    1572,    1571,    1595,    1459,    1435,    1436,    1460
     940,    1572,    1548,    1547,    1571,    1435,    1411,    1412,    1436
     941,    1548,    1369,    1370,    1547,    1411,    1330,    1329,    1412
     942,    1303,    1667,    1666,    1302,    1292,    1532,    1533,    1293
     943,    1667,    1643,    1642,    1666,    1532,    1508,    1509,    1533
     944,    1643,    1619,    1618,    1642,    1508,    1484,    1485,    1509
     945,    1619,    1595,    1594,    1618,    1484,    1460,    1461,    1485
     946,    1595,    1571,    1570,    1594,    1460,    1436,    1437,    1461
     947,    1571,    1547,    1546,    1570,    1436,    1412,    1413,    1437
     948,    1547,    1370,    1371,    1546,    1412,    1329,    1328,    1413
     949,    1302,    1666,    1665,    1301,    1293,    1533,    1534,    1294
     950,    1666,    1642,    1641,    1665,    1533,    1509,    1510,    1534
     951,    1642,    1618,    1617,    1641,    1509,    1485,    1486,    1510
     952,    1618,    1594,    1593,    1617,    1485,    1461,    1462,    1486
     953,    1594,    1570,    1569,    1593,    1461,    1437,    1438,    1462
     954,    1570,    1546,    1545,    1569,    1437,    1413,    1414,    1438
     955,    1546,    1371,    1372,    1545,    1413,    1328,    1327,    1414
     956,    1301,    1665,    1664,    1300,    1294,    1534,    1535,    1295
     957,    1665,    1641,    1640,    1664,    1534,    1510,    1511,    1535
     958,    1641,    1617,    1616,    1640,    1510,    1486,    1487,    1511
     959,    1617,    1593,    1592,    1616,    1486,    1462,    1463,    1487
     960,    1593,    1569,    1568,    1592,    1462,    1438,    1439,    1463
     961,    1569,    1545,    1544,    1568,    1438,    1414,    1415,    1439
     962,    1545,    1372,    1373,    1544,    1414,    1327,    1326,    1415
     963,    1300,    1664,    1663,    1299,    1295,    1535,    1536,    1296
     964,    1664,    1640,    1639,    1663,    1535,    1511,    1512,    1536
     965,    1640,    1616,    1615,    1639,    1511,    1487,    1488,    1512
     966,    1616,    1592,    1591,    1615,    1487,    1463,    1464,    1488
     967,    1592,    1568,    1567,    1591,    1463,    1439,    1440,    1464
     968,    1568,    1544,    1543,    1567,    1439,    1415,    1416,    1440
     969,    1544,    1373,    1374,    1543,    1415,    1326,    1325,    1416
     970,    1299,    1663,    1542,    1297,    1296,    1536,    1387,    1272
     971,    1663,    1639,    1541,    1542,    1536,    1512,    1388,    1387
     972,    1639,    1615,    1540,    1541,    1512,    1488,    1389,    1388
     973,    1615,    1591,    1539,    1540,    1488,    1464,    1390,    1389
     974,    1591,    1567,    1538,    1539,    1464,    1440,    1391,    1390
     975,    1567,    1543,    1537,    1538,    1440,    1416,    1392,    1391
     976,    1543,    1374,    1350,    1537,    1416,    1325,    1323,    1392
********************************** N O D E S E T S **********************************
*NSET, NSET=shear_loading
     451,     483,     510,     511,     512,     513,
     683,     684,     685,     686,     723,     724,
     725,     726,     851,     852,     853,     854,
     855,     856,     857,     858,     859,     860,
     861,     862,     863,     864,     865,     866,
*NSET, NSET=plate_back
     461,     478,     479,     480,     481,     482,
     615,     632,     633,     634,     727,     728,
     729,     730,     835,     836,     837,     838,
     839,     840,     841,     842,     843,     844,
     845,     846,     847,     848,     849,     850,
*NSET, NSET=z_symm
       1,       3,       4,       5,      19,      21,
      27,      29,      60,      89,      99,     100,
     101,     102,     103,     104,     105,     106,
     107,     108,     109,     110,     111,     112,
     113,     114,     115,     116,     117,     118,
     119,     120,     121,     122,     123,     124,
     125,     126,     127,     128,     129,     130,
     131,     132,     133,     134,     135,     136,
     137,     138,     139,     140,     141,     142,
     143,     144,     145,     146,     147,     148,
     149,     150,     151,     152,     153,     154,
     155,     156,     157,     158,     159,     160,
     161,     162,     163,     164,     165,     166,
     167,     168,     169,     170,     171,     172,
     173,     174,     175,     176,     177,     178,
     179,     180,     181,     182,     183,     184,
     185,     451,     452,     453,     454,     455,
     456,     457,     458,     459,     460,     461,
     462,     463,     464,     465,     466,     467,
     468,     469,     470,     471,     472,     473,
     474,     475,     476,     477,     615,     616,
     617,     618,     619,     620,     621,     622,
     623,     624,     625,     626,     627,     628,
     629,     630,     631,     632,     633,     634,
     635,     636,     637,     638,     639,     640,
     641,     642,     643,     644,     645,     646,
     647,     648,     649,     650,     651,     652,
     653,     654,     655,     656,     657,     658,
     659,     660,     661,     662,     663,     664,
     665,     666,     667,     668,     669,     670,
     671,     672,     673,     674,     675,     676,
     677,     678,     679,     680,     681,     682,
     683,     684,     685,     686,     687,     688,
     689,     690,     691,     692,     693,     694,
     695,     696,     697,     698,     699,     700,
     701,     702,     703,     704,     705,     706,
     707,     708,     709,     710,     711,     712,
     713,     714,     715,     716,     717,     718,
     719,     720,     721,     722,    1271,    1272,
    1297,    1298,
********************************** S I D E S E T S **********************************
*ELSET, ELSET=plate_bottom_S2
     262,     263,     264,     265,     266,     267,     268,     269,     270,     271,
     272,     273,     274,     275,     276,     277,     278,     279,     280,     281,
     282,     283,     284,     285,     286,     287,     288,     289,     290,     291,
     292,     293,     294,     295,     296,     297,     298,     299,     300,     301,
     302,     303,     304,     305,     306,     307,     308,     309,     310,     311,
     312,     313,     314,     315,     316,     317,     318,     319,     320,     321,
     322,     323,     324,     325,     326,     327,     328,     329,     330,     331,
     332,     333,     334,     335,     336,     337,     338,     339,     340,     341,
     342,     343,     344,     345,     346,     347,     348,     349,     350,     351,
     352,     353,     354,     355,     356,     357,     358,     359,     360,     361,
     362,     363,     364,     365,     366,     367,     368,     369,     370,     371,
     372,     373,     374,     375,     376,     377,     378,     379,     380,     381,
     382,     383,     384,     385,     386,     387,     388,     389,     390,     391,
     392,     393,     394,     395,     396
*SURFACE, NAME=plate_bottom
plate_bottom_S2, S2
*ELSET, ELSET=mortar_to_anchor_S1
     802,     803,     804,     805,     806,     807,     808,     809,     810,     811,
     812,     813,     814,     815,     816,     817,     818,     819,     820,     821,
     822,     823,     824,     825,     826,     827,     828,     829,     830,     831,
     832,     833,     834,     835,     836,     837,     838,     839,     840,     841,
     842,     843,     844,     845,     846,     847,     848,     849,     850,     851,
     852,     853,     854,     855,     856,     857,     858,     859,     860,     861,
     862,     863,     864,     865,     866,     867,     868,     869,     870,     871,
     872,     873,     874,     875,     876,     877,     878,     879,     880,     881,
     882,     883,     884,     885,     886,     887,     888,     889,     890,     891,
     892,     893,     894,     895,     896,     897,     898,     899,     900,     901,
     902,     903,     904,     905,     906,     907,     908,     909,     910,     911,
     912,     913,     914,     915,     916,     917,     918,     919,     920,     921,
     922,     923,     924,     925,     926,     927,     928,     929,     930,     931,
     932,     933,     934,     935,     936,     937,     938,     939,     940,     941,
     942,     943,     944,     945,     946,     947,     948,     949,     950,     951,
     952,     953,     954,     955,     956,     957,     958,     959,     960,     961,
     962,     963,     964,     965,     966,     967,     968,     969,     970,     971,
     972,     973,     974,     975,     976
*SURFACE, NAME=mortar_to_anchor
mortar_to_anchor_S1, S1
*ELSET, ELSET=anchor_to_mortar_S3
       2,       3,       6,      11,      12,      15,      20,      21,      24,      29,
      30,      33,      38,      39,      42,      47,      48,      51,      56,      57,
      60,      65,      66,      69,      74,      75,      78,      83,      84,      87,
      92,      93,      96,     101,     102,     105,     110,     111,     114,     119,
     120,     123,     128,     129,     132,     137,     138,     141,     146,     147,
     150,     155,     156,     159,     164,     165,     168,     173,     174,     177,
     182,     183,     186,     191,     192,     195,     200,     201,     204,     209,
     210,     213,     218,     219,     222,     355,     386,     387,     395,     396,
     490,     521,     522,     530,     531,     625,     656,     657,     665,     666,
     760,     791,     792,     800,     801
*ELSET, ELSET=anchor_to_mortar_S4
       7,      16,      25,      34,      43,      52,      61,      70,      79,      88,
      97,     106,     115,     124,     133,     142,     151,     160,     169,     178,
     187,     196,     205,     214,     223,     264,     399,     534,     669
*ELSET, ELSET=anchor_to_mortar_S6
       4,       5,      13,      14,      22,      23,      31,      32,      40,      41,
      49,      50,      58,      59,      67,      68,      76,      77,      85,      86,
      94,      95,     103,     104,     112,     113,     121,     122,     130,     131,
     139,     140,     148,     149,     157,     158,     166,     167,     175,     176,
     184,     185,     193,     194,     202,     203,     211,     212,     220,     221
*SURFACE, NAME=anchor_to_mortar
anchor_to_mortar_S3, S3
anchor_to_mortar_S4, S4
anchor_to_mortar_S6, S6
*ELSET, ELSET=mortar_to_concrete_S2
     802,     803,     804,     805,     806,     807,     808,     809,     810,     811,
     812,     813,     814,     815,     816,     817,     818,     819,     820,     821,
     822,     823,     824,     825,     826,     827,     828,     829,     830,     831,
     832,     833,     834,     835,     836,     837,     838,     839,     840,     841,
     842,     843,     844,     845,     846,     847,     848,     849,     850,     851,
     852,     853,     854,     855,     856,     857,     858,     859,     860,     861,
     862,     863,     864,     865,     866,     867,     868,     869,     870,     871,
     872,     873,     874,     875,     876,     877,     878,     879,     880,     881,
     882,     883,     884,     885,     886,     887,     888,     889,     890,     891,
     892,     893,     894,     895,     896,     897,     898,     899,     900,     901,
     902,     903,     904,     905,     906,     907,     908,     909,     910,     911,
     912,     913,     914,     915,     916,     917,     918,     919,     920,     921,
     922,     923,     924,     925,     926,     927,     928,     929,     930,     931,
     932,     933,     934,     935,     936,     937,     938,     939,     940,     941,
     942,     943,     944,     945,     946,     947,     948,     949,     950,     951,
     952,     953,     954,     955,     956,     957,     958,     959,     960,     961,
     962,     963,     964,     965,     966,     967,     968,     969,     970,     971,
     972,     973,     974,     975,     976
*SURFACE, NAME=mortar_to_concrete
mortar_to_concrete_S2, S2
