********************************** N O D E S **********************************
*NODE, NSET=ALLNODES
    1897,    0.000000e+00,    1.600000e+01,   -8.000000e+00
    1898,    0.000000e+00,    1.600000e+01,    0.000000e+00
    1899,    0.000000e+00,    1.600000e+01,   -4.000000e+00
    1900,    8.000000e+00,    1.600000e+01,   -2.020667e-15
    1901,    5.333333e+00,    1.600000e+01,    0.000000e+00
    1902,    2.666667e+00,    1.600000e+01,    0.000000e+00
    1903,    6.928203e+00,    1.600000e+01,   -4.000000e+00
    1904,    4.000000e+00,    1.600000e+01,   -6.928203e+00
    1905,    5.026854e+00,    1.600000e+01,   -2.413361e+00
    1906,    2.829203e+00,    1.600000e+01,   -3.243589e+00
    1907,    0.000000e+00,    5.333333e+00,   -8.000000e+00
    1908,    0.000000e+00,    1.244444e+01,   -8.000000e+00
    1909,    0.000000e+00,    8.888889e+00,   -8.000000e+00
    1910,    8.000000e+00,    5.333333e+00,    0.000000e+00
    1911,    6.928203e+00,    5.333333e+00,   -4.000000e+00
    1912,    4.000000e+00,    5.333333e+00,   -6.928203e+00
    1913,    8.000000e+00,    1.244444e+01,   -2.721437e-16
    1914,    8.000000e+00,    8.888889e+00,   -5.442875e-17
    1915,    4.000000e+00,    1.244444e+01,   -6.928203e+00
    1916,    4.000000e+00,    8.888889e+00,   -6.928203e+00
    1917,    6.928203e+00,    1.244444e+01,   -4.000000e+00
    1918,    6.928203e+00,    8.888889e+00,   -4.000000e+00
    1919,    0.000000e+00,    0.000000e+00,   -8.000000e+00
    1920,    8.000000e+00,    0.000000e+00,    4.898587e-16
    1921,    6.928203e+00,    0.000000e+00,   -4.000000e+00
    1922,    4.000000e+00,    0.000000e+00,   -6.928203e+00
    1923,    0.000000e+00,   -5.000000e+01,    0.000000e+00
    1924,    0.000000e+00,    1.211765e+01,    0.000000e+00
    1925,    0.000000e+00,    8.235294e+00,    0.000000e+00
    1926,    0.000000e+00,    4.352941e+00,    0.000000e+00
    1927,    0.000000e+00,    4.705882e-01,    0.000000e+00
    1928,    0.000000e+00,   -3.411765e+00,    0.000000e+00
    1929,    0.000000e+00,   -7.294118e+00,    0.000000e+00
    1930,    0.000000e+00,   -1.117647e+01,    0.000000e+00
    1931,    0.000000e+00,   -1.505882e+01,    0.000000e+00
    1932,    0.000000e+00,   -1.894118e+01,    0.000000e+00
    1933,    0.000000e+00,   -2.282353e+01,    0.000000e+00
    1934,    0.000000e+00,   -2.670588e+01,    0.000000e+00
    1935,    0.000000e+00,   -3.058824e+01,    0.000000e+00
    1936,    0.000000e+00,   -3.447059e+01,    0.000000e+00
    1937,    0.000000e+00,   -3.835294e+01,    0.000000e+00
    1938,    0.000000e+00,   -4.223529e+01,    0.000000e+00
    1939,    0.000000e+00,   -4.611765e+01,    0.000000e+00
    1940,    0.000000e+00,   -5.000000e+01,   -8.000000e+00
    1941,    0.000000e+00,   -4.615385e+01,   -8.000000e+00
    1942,    0.000000e+00,   -4.230769e+01,   -8.000000e+00
    1943,    0.000000e+00,   -3.846154e+01,   -8.000000e+00
    1944,    0.000000e+00,   -3.461538e+01,   -8.000000e+00
    1945,    0.000000e+00,   -3.076923e+01,   -8.000000e+00
    1946,    0.000000e+00,   -2.692308e+01,   -8.000000e+00
    1947,    0.000000e+00,   -2.307692e+01,   -8.000000e+00
    1948,    0.000000e+00,   -1.923077e+01,   -8.000000e+00
    1949,    0.000000e+00,   -1.538462e+01,   -8.000000e+00
    1950,    0.000000e+00,   -1.153846e+01,   -8.000000e+00
    1951,    0.000000e+00,   -7.692308e+00,   -8.000000e+00
    1952,    0.000000e+00,   -3.846154e+00,   -8.000000e+00
    1953,    0.000000e+00,   -5.000000e+01,   -4.000000e+00
    1954,    0.000000e+00,   -4.613575e+01,   -4.000000e+00
    1955,    0.000000e+00,   -4.227149e+01,   -4.000000e+00
    1956,    0.000000e+00,   -3.840724e+01,   -4.000000e+00
    1957,    0.000000e+00,   -3.454299e+01,   -4.000000e+00
    1958,    0.000000e+00,   -3.067873e+01,   -4.000000e+00
    1959,    0.000000e+00,   -2.681448e+01,   -4.000000e+00
    1960,    0.000000e+00,   -2.295023e+01,   -4.000000e+00
    1961,    0.000000e+00,   -1.908597e+01,   -4.000000e+00
    1962,    0.000000e+00,   -1.522172e+01,   -4.000000e+00
    1963,    0.000000e+00,   -1.135747e+01,   -4.000000e+00
    1964,    0.000000e+00,   -7.493213e+00,   -4.000000e+00
    1965,    0.000000e+00,   -3.628959e+00,   -4.000000e+00
    1966,    0.000000e+00,    2.352941e-01,   -4.000000e+00
    1967,    0.000000e+00,    4.843137e+00,   -4.000000e+00
    1968,    0.000000e+00,    8.562092e+00,   -4.000000e+00
    1969,    0.000000e+00,    1.228105e+01,   -4.000000e+00
    1970,    8.000000e+00,   -5.000000e+01,    2.020667e-15
    1971,    8.000000e+00,   -4.615385e+01,    1.785158e-15
    1972,    8.000000e+00,   -4.230769e+01,    1.549649e-15
    1973,    8.000000e+00,   -3.846154e+01,    1.314140e-15
    1974,    8.000000e+00,   -3.461538e+01,    1.078631e-15
    1975,    8.000000e+00,   -3.076923e+01,    8.431222e-16
    1976,    8.000000e+00,   -2.692308e+01,    6.076132e-16
    1977,    8.000000e+00,   -2.307692e+01,    3.721042e-16
    1978,    8.000000e+00,   -1.923077e+01,    1.365952e-16
    1979,    8.000000e+00,   -1.538462e+01,   -9.891378e-17
    1980,    8.000000e+00,   -1.153846e+01,   -3.344228e-16
    1981,    8.000000e+00,   -7.692308e+00,   -5.699318e-16
    1982,    8.000000e+00,   -3.846154e+00,   -8.054408e-16
    1983,    4.000000e+00,   -5.000000e+01,   -6.928203e+00
    1984,    6.928203e+00,   -5.000000e+01,   -4.000000e+00
    1985,    4.000000e+00,   -3.846154e+00,   -6.928203e+00
    1986,    6.928203e+00,   -3.846154e+00,   -4.000000e+00
    1987,    4.000000e+00,   -7.692308e+00,   -6.928203e+00
    1988,    6.928203e+00,   -7.692308e+00,   -4.000000e+00
    1989,    4.000000e+00,   -1.153846e+01,   -6.928203e+00
    1990,    6.928203e+00,   -1.153846e+01,   -4.000000e+00
    1991,    4.000000e+00,   -1.538462e+01,   -6.928203e+00
    1992,    6.928203e+00,   -1.538462e+01,   -4.000000e+00
    1993,    4.000000e+00,   -1.923077e+01,   -6.928203e+00
    1994,    6.928203e+00,   -1.923077e+01,   -4.000000e+00
    1995,    4.000000e+00,   -2.307692e+01,   -6.928203e+00
    1996,    6.928203e+00,   -2.307692e+01,   -4.000000e+00
    1997,    4.000000e+00,   -2.692308e+01,   -6.928203e+00
    1998,    6.928203e+00,   -2.692308e+01,   -4.000000e+00
    1999,    4.000000e+00,   -3.076923e+01,   -6.928203e+00
    2000,    6.928203e+00,   -3.076923e+01,   -4.000000e+00
    2001,    4.000000e+00,   -3.461538e+01,   -6.928203e+00
    2002,    6.928203e+00,   -3.461538e+01,   -4.000000e+00
    2003,    4.000000e+00,   -3.846154e+01,   -6.928203e+00
    2004,    6.928203e+00,   -3.846154e+01,   -4.000000e+00
    2005,    4.000000e+00,   -4.230769e+01,   -6.928203e+00
    2006,    6.928203e+00,   -4.230769e+01,   -4.000000e+00
    2007,    4.000000e+00,   -4.615385e+01,   -6.928203e+00
    2008,    6.928203e+00,   -4.615385e+01,   -4.000000e+00
    2009,    2.666667e+00,   -5.000000e+01,    0.000000e+00
    2010,    5.333333e+00,   -5.000000e+01,    0.000000e+00
    2011,    2.666667e+00,    1.222658e+01,    0.000000e+00
    2012,    2.666667e+00,    8.453159e+00,    0.000000e+00
    2013,    2.666667e+00,    4.679739e+00,    0.000000e+00
    2014,    2.666667e+00,    3.137255e-01,    0.000000e+00
    2015,    2.666667e+00,   -3.556561e+00,    0.000000e+00
    2016,    2.666667e+00,   -7.426848e+00,    0.000000e+00
    2017,    2.666667e+00,   -1.129713e+01,    0.000000e+00
    2018,    2.666667e+00,   -1.516742e+01,    0.000000e+00
    2019,    2.666667e+00,   -1.903771e+01,    0.000000e+00
    2020,    2.666667e+00,   -2.290799e+01,    0.000000e+00
    2021,    2.666667e+00,   -2.677828e+01,    0.000000e+00
    2022,    2.666667e+00,   -3.064857e+01,    0.000000e+00
    2023,    2.666667e+00,   -3.451885e+01,    0.000000e+00
    2024,    2.666667e+00,   -3.838914e+01,    0.000000e+00
    2025,    2.666667e+00,   -4.225943e+01,    0.000000e+00
    2026,    2.666667e+00,   -4.612971e+01,    0.000000e+00
    2027,    5.333333e+00,    1.233551e+01,    0.000000e+00
    2028,    5.333333e+00,    8.671024e+00,    0.000000e+00
    2029,    5.333333e+00,    5.006536e+00,    0.000000e+00
    2030,    5.333333e+00,    1.568627e-01,    0.000000e+00
    2031,    5.333333e+00,   -3.701357e+00,    0.000000e+00
    2032,    5.333333e+00,   -7.559578e+00,    0.000000e+00
    2033,    5.333333e+00,   -1.141780e+01,    0.000000e+00
    2034,    5.333333e+00,   -1.527602e+01,    0.000000e+00
    2035,    5.333333e+00,   -1.913424e+01,    0.000000e+00
    2036,    5.333333e+00,   -2.299246e+01,    0.000000e+00
    2037,    5.333333e+00,   -2.685068e+01,    0.000000e+00
    2038,    5.333333e+00,   -3.070890e+01,    0.000000e+00
    2039,    5.333333e+00,   -3.456712e+01,    0.000000e+00
    2040,    5.333333e+00,   -3.842534e+01,    0.000000e+00
    2041,    5.333333e+00,   -4.228356e+01,    0.000000e+00
    2042,    5.333333e+00,   -4.614178e+01,    0.000000e+00
    2043,    2.829203e+00,    1.233717e+01,   -3.243589e+00
    2044,    5.026854e+00,    1.237978e+01,   -2.413361e+00
    2045,    2.829203e+00,    8.663715e+00,   -3.243589e+00
    2046,    5.026854e+00,    8.750145e+00,   -2.413361e+00
    2047,    2.829203e+00,    4.995572e+00,   -3.243589e+00
    2048,    5.026854e+00,    5.125218e+00,   -2.413361e+00
    2049,    2.829203e+00,    1.621253e-01,   -3.243589e+00
    2050,    5.026854e+00,    9.989524e-02,   -2.413361e+00
    2051,    2.829203e+00,   -3.703567e+00,   -3.243589e+00
    2052,    5.026854e+00,   -3.760201e+00,   -2.413361e+00
    2053,    2.829203e+00,   -7.561603e+00,   -3.243589e+00
    2054,    5.026854e+00,   -7.613518e+00,   -2.413361e+00
    2055,    2.829203e+00,   -1.141964e+01,   -3.243589e+00
    2056,    5.026854e+00,   -1.146683e+01,   -2.413361e+00
    2057,    2.829203e+00,   -1.527768e+01,   -3.243589e+00
    2058,    5.026854e+00,   -1.532015e+01,   -2.413361e+00
    2059,    2.829203e+00,   -1.913571e+01,   -3.243589e+00
    2060,    5.026854e+00,   -1.917347e+01,   -2.413361e+00
    2061,    2.829203e+00,   -2.299375e+01,   -3.243589e+00
    2062,    5.026854e+00,   -2.302678e+01,   -2.413361e+00
    2063,    2.829203e+00,   -2.685178e+01,   -3.243589e+00
    2064,    5.026854e+00,   -2.688010e+01,   -2.413361e+00
    2065,    2.829203e+00,   -3.070982e+01,   -3.243589e+00
    2066,    5.026854e+00,   -3.073342e+01,   -2.413361e+00
    2067,    2.829203e+00,   -3.456786e+01,   -3.243589e+00
    2068,    5.026854e+00,   -3.458673e+01,   -2.413361e+00
    2069,    2.829203e+00,   -3.842589e+01,   -3.243589e+00
    2070,    5.026854e+00,   -3.844005e+01,   -2.413361e+00
    2071,    2.829203e+00,   -4.228393e+01,   -3.243589e+00
    2072,    5.026854e+00,   -4.229337e+01,   -2.413361e+00
    2073,    2.829203e+00,   -4.614196e+01,   -3.243589e+00
    2074,    5.026854e+00,   -4.614668e+01,   -2.413361e+00
    2075,    2.829203e+00,   -5.000000e+01,   -3.243589e+00
    2076,    5.026854e+00,   -5.000000e+01,   -2.413361e+00
    2077,    0.000000e+00,    5.333333e+00,   -3.200000e+01
    2078,    0.000000e+00,    5.333333e+00,   -2.800000e+01
    2079,    0.000000e+00,    5.333333e+00,   -2.400000e+01
    2080,    0.000000e+00,    5.333333e+00,   -2.000000e+01
    2081,    0.000000e+00,    5.333333e+00,   -1.600000e+01
    2082,    0.000000e+00,    5.333333e+00,   -1.200000e+01
    2083,    3.200000e+01,    5.333333e+00,    0.000000e+00
    2084,    2.800000e+01,    5.333333e+00,    0.000000e+00
    2085,    2.400000e+01,    5.333333e+00,    0.000000e+00
    2086,    2.000000e+01,    5.333333e+00,    0.000000e+00
    2087,    1.600000e+01,    5.333333e+00,    0.000000e+00
    2088,    1.200000e+01,    5.333333e+00,    0.000000e+00
    2089,    3.200000e+01,    5.333333e+00,   -3.200000e+01
    2090,    3.200000e+01,    5.333333e+00,   -2.844444e+01
    2091,    3.200000e+01,    5.333333e+00,   -2.488889e+01
    2092,    3.200000e+01,    5.333333e+00,   -2.133333e+01
    2093,    3.200000e+01,    5.333333e+00,   -1.777778e+01
    2094,    3.200000e+01,    5.333333e+00,   -1.422222e+01
    2095,    3.200000e+01,    5.333333e+00,   -1.066667e+01
    2096,    3.200000e+01,    5.333333e+00,   -7.111111e+00
    2097,    3.200000e+01,    5.333333e+00,   -3.555556e+00
    2098,    4.000000e+00,    5.333333e+00,   -3.200000e+01
    2099,    8.000000e+00,    5.333333e+00,   -3.200000e+01
    2100,    1.200000e+01,    5.333333e+00,   -3.200000e+01
    2101,    1.600000e+01,    5.333333e+00,   -3.200000e+01
    2102,    2.000000e+01,    5.333333e+00,   -3.200000e+01
    2103,    2.400000e+01,    5.333333e+00,   -3.200000e+01
    2104,    2.800000e+01,    5.333333e+00,   -3.200000e+01
    2105,    2.812003e+01,    5.333333e+00,   -3.414845e+00
    2106,    2.797864e+01,    5.333333e+00,   -6.754863e+00
    2107,    2.762910e+01,    5.333333e+00,   -1.020751e+01
    2108,    2.731317e+01,    5.333333e+00,   -1.384184e+01
    2109,    2.762424e+01,    5.333333e+00,   -1.759450e+01
    2110,    2.791641e+01,    5.333333e+00,   -2.121915e+01
    2111,    2.802649e+01,    5.333333e+00,   -2.481971e+01
    2112,    2.803102e+01,    5.333333e+00,   -2.841462e+01
    2113,    4.074691e+00,    5.333333e+00,   -2.807655e+01
    2114,    4.204790e+00,    5.333333e+00,   -2.411931e+01
    2115,    4.494764e+00,    5.333333e+00,   -2.007880e+01
    2116,    5.258743e+00,    5.333333e+00,   -1.591285e+01
    2117,    6.604932e+00,    5.333333e+00,   -1.086153e+01
    2118,    1.187342e+01,    5.333333e+00,   -5.738712e+00
    2119,    1.720166e+01,    5.333333e+00,   -4.149378e+00
    2120,    2.083400e+01,    5.333333e+00,   -3.187386e+00
    2121,    2.430850e+01,    5.333333e+00,   -3.213687e+00
    2122,    2.406667e+01,    5.333333e+00,   -2.843076e+01
    2123,    2.008566e+01,    5.333333e+00,   -2.850775e+01
    2124,    1.610483e+01,    5.333333e+00,   -2.851623e+01
    2125,    1.212834e+01,    5.333333e+00,   -2.838958e+01
    2126,    8.124210e+00,    5.333333e+00,   -2.821898e+01
    2127,    2.425294e+01,    5.333333e+00,   -6.270300e+00
    2128,    2.318170e+01,    5.333333e+00,   -9.374250e+00
    2129,    2.130020e+01,    5.333333e+00,   -1.325280e+01
    2130,    2.296177e+01,    5.333333e+00,   -1.759617e+01
    2131,    2.367202e+01,    5.333333e+00,   -2.133115e+01
    2132,    2.400709e+01,    5.333333e+00,   -2.490508e+01
    2133,    1.998169e+01,    5.333333e+00,   -2.506174e+01
    2134,    1.615924e+01,    5.333333e+00,   -2.512063e+01
    2135,    1.232558e+01,    5.333333e+00,   -2.481764e+01
    2136,    8.342438e+00,    5.333333e+00,   -2.443121e+01
    2137,    8.974009e+00,    5.333333e+00,   -2.067915e+01
    2138,    1.010391e+01,    5.333333e+00,   -1.687424e+01
    2139,    1.250144e+01,    5.333333e+00,   -1.314404e+01
    2140,    1.629642e+01,    5.333333e+00,   -9.961566e+00
    2141,    2.157232e+01,    5.333333e+00,   -5.658829e+00
    2142,    1.957326e+01,    5.333333e+00,   -7.453734e+00
    2143,    1.969011e+01,    5.333333e+00,   -2.169171e+01
    2144,    1.291311e+01,    5.333333e+00,   -2.142747e+01
    2145,    1.397717e+01,    5.333333e+00,   -1.825778e+01
    2146,    1.660092e+01,    5.333333e+00,   -1.559855e+01
    2147,    1.892839e+01,    5.333333e+00,   -1.842924e+01
    2148,    1.622813e+01,    5.333333e+00,   -2.198711e+01
    2149,    1.637790e+01,    5.333333e+00,   -1.955804e+01
    2150,    0.000000e+00,    1.600000e+01,   -3.200000e+01
    2151,    0.000000e+00,    1.600000e+01,   -2.800000e+01
    2152,    0.000000e+00,    1.600000e+01,   -2.400000e+01
    2153,    0.000000e+00,    1.600000e+01,   -2.000000e+01
    2154,    0.000000e+00,    1.600000e+01,   -1.600000e+01
    2155,    0.000000e+00,    1.600000e+01,   -1.200000e+01
    2156,    0.000000e+00,    8.888889e+00,   -3.200000e+01
    2157,    0.000000e+00,    1.244444e+01,   -3.200000e+01
    2158,    0.000000e+00,    8.888889e+00,   -1.200000e+01
    2159,    0.000000e+00,    1.244444e+01,   -1.200000e+01
    2160,    0.000000e+00,    8.888889e+00,   -1.600000e+01
    2161,    0.000000e+00,    1.244444e+01,   -1.600000e+01
    2162,    0.000000e+00,    8.888889e+00,   -2.000000e+01
    2163,    0.000000e+00,    1.244444e+01,   -2.000000e+01
    2164,    0.000000e+00,    8.888889e+00,   -2.400000e+01
    2165,    0.000000e+00,    1.244444e+01,   -2.400000e+01
    2166,    0.000000e+00,    8.888889e+00,   -2.800000e+01
    2167,    0.000000e+00,    1.244444e+01,   -2.800000e+01
    2168,    3.200000e+01,    1.600000e+01,   -3.200000e+01
    2169,    4.000000e+00,    1.600000e+01,   -3.200000e+01
    2170,    8.000000e+00,    1.600000e+01,   -3.200000e+01
    2171,    1.200000e+01,    1.600000e+01,   -3.200000e+01
    2172,    1.600000e+01,    1.600000e+01,   -3.200000e+01
    2173,    2.000000e+01,    1.600000e+01,   -3.200000e+01
    2174,    2.400000e+01,    1.600000e+01,   -3.200000e+01
    2175,    2.800000e+01,    1.600000e+01,   -3.200000e+01
    2176,    3.200000e+01,    1.244444e+01,   -3.200000e+01
    2177,    3.200000e+01,    8.888889e+00,   -3.200000e+01
    2178,    4.000000e+00,    8.888889e+00,   -3.200000e+01
    2179,    4.000000e+00,    1.244444e+01,   -3.200000e+01
    2180,    8.000000e+00,    8.888889e+00,   -3.200000e+01
    2181,    8.000000e+00,    1.244444e+01,   -3.200000e+01
    2182,    1.200000e+01,    8.888889e+00,   -3.200000e+01
    2183,    1.200000e+01,    1.244444e+01,   -3.200000e+01
    2184,    1.600000e+01,    8.888889e+00,   -3.200000e+01
    2185,    1.600000e+01,    1.244444e+01,   -3.200000e+01
    2186,    2.000000e+01,    8.888889e+00,   -3.200000e+01
    2187,    2.000000e+01,    1.244444e+01,   -3.200000e+01
    2188,    2.400000e+01,    8.888889e+00,   -3.200000e+01
    2189,    2.400000e+01,    1.244444e+01,   -3.200000e+01
    2190,    2.800000e+01,    8.888889e+00,   -3.200000e+01
    2191,    2.800000e+01,    1.244444e+01,   -3.200000e+01
    2192,    3.200000e+01,    1.600000e+01,    0.000000e+00
    2193,    3.200000e+01,    8.888889e+00,    0.000000e+00
    2194,    3.200000e+01,    1.244444e+01,    0.000000e+00
    2195,    2.800000e+01,    1.600000e+01,    0.000000e+00
    2196,    2.400000e+01,    1.600000e+01,    0.000000e+00
    2197,    2.000000e+01,    1.600000e+01,    0.000000e+00
    2198,    1.600000e+01,    1.600000e+01,    0.000000e+00
    2199,    1.200000e+01,    1.600000e+01,    0.000000e+00
    2200,    1.200000e+01,    8.888889e+00,    0.000000e+00
    2201,    1.600000e+01,    8.888889e+00,    0.000000e+00
    2202,    2.000000e+01,    8.888889e+00,    0.000000e+00
    2203,    2.400000e+01,    8.888889e+00,    0.000000e+00
    2204,    2.800000e+01,    8.888889e+00,    0.000000e+00
    2205,    1.200000e+01,    1.244444e+01,    0.000000e+00
    2206,    1.600000e+01,    1.244444e+01,    0.000000e+00
    2207,    2.000000e+01,    1.244444e+01,    0.000000e+00
    2208,    2.400000e+01,    1.244444e+01,    0.000000e+00
    2209,    2.800000e+01,    1.244444e+01,    0.000000e+00
    2210,    3.200000e+01,    1.600000e+01,   -3.555556e+00
    2211,    3.200000e+01,    1.600000e+01,   -7.111111e+00
    2212,    3.200000e+01,    1.600000e+01,   -1.066667e+01
    2213,    3.200000e+01,    1.600000e+01,   -1.422222e+01
    2214,    3.200000e+01,    1.600000e+01,   -1.777778e+01
    2215,    3.200000e+01,    1.600000e+01,   -2.133333e+01
    2216,    3.200000e+01,    1.600000e+01,   -2.488889e+01
    2217,    3.200000e+01,    1.600000e+01,   -2.844444e+01
    2218,    3.200000e+01,    1.244444e+01,   -3.555556e+00
    2219,    3.200000e+01,    8.888889e+00,   -3.555556e+00
    2220,    3.200000e+01,    1.244444e+01,   -7.111111e+00
    2221,    3.200000e+01,    8.888889e+00,   -7.111111e+00
    2222,    3.200000e+01,    1.244444e+01,   -1.066667e+01
    2223,    3.200000e+01,    8.888889e+00,   -1.066667e+01
    2224,    3.200000e+01,    1.244444e+01,   -1.422222e+01
    2225,    3.200000e+01,    8.888889e+00,   -1.422222e+01
    2226,    3.200000e+01,    1.244444e+01,   -1.777778e+01
    2227,    3.200000e+01,    8.888889e+00,   -1.777778e+01
    2228,    3.200000e+01,    1.244444e+01,   -2.133333e+01
    2229,    3.200000e+01,    8.888889e+00,   -2.133333e+01
    2230,    3.200000e+01,    1.244444e+01,   -2.488889e+01
    2231,    3.200000e+01,    8.888889e+00,   -2.488889e+01
    2232,    3.200000e+01,    1.244444e+01,   -2.844444e+01
    2233,    3.200000e+01,    8.888889e+00,   -2.844444e+01
    2234,    2.812003e+01,    8.888889e+00,   -3.414845e+00
    2235,    2.797864e+01,    8.888889e+00,   -6.754863e+00
    2236,    2.762910e+01,    8.888889e+00,   -1.020751e+01
    2237,    2.731317e+01,    8.888889e+00,   -1.384184e+01
    2238,    2.762424e+01,    8.888889e+00,   -1.759450e+01
    2239,    2.791641e+01,    8.888889e+00,   -2.121915e+01
    2240,    2.802649e+01,    8.888889e+00,   -2.481971e+01
    2241,    2.803102e+01,    8.888889e+00,   -2.841462e+01
    2242,    4.074691e+00,    8.888889e+00,   -2.807655e+01
    2243,    4.204790e+00,    8.888889e+00,   -2.411931e+01
    2244,    4.494764e+00,    8.888889e+00,   -2.007880e+01
    2245,    5.258743e+00,    8.888889e+00,   -1.591285e+01
    2246,    6.604932e+00,    8.888889e+00,   -1.086153e+01
    2247,    1.187342e+01,    8.888889e+00,   -5.738712e+00
    2248,    1.720166e+01,    8.888889e+00,   -4.149378e+00
    2249,    2.083400e+01,    8.888889e+00,   -3.187386e+00
    2250,    2.430850e+01,    8.888889e+00,   -3.213687e+00
    2251,    2.406667e+01,    8.888889e+00,   -2.843076e+01
    2252,    2.008566e+01,    8.888889e+00,   -2.850775e+01
    2253,    1.610483e+01,    8.888889e+00,   -2.851623e+01
    2254,    1.212834e+01,    8.888889e+00,   -2.838958e+01
    2255,    8.124210e+00,    8.888889e+00,   -2.821898e+01
    2256,    2.425294e+01,    8.888889e+00,   -6.270300e+00
    2257,    2.318170e+01,    8.888889e+00,   -9.374250e+00
    2258,    2.130020e+01,    8.888889e+00,   -1.325280e+01
    2259,    2.296177e+01,    8.888889e+00,   -1.759617e+01
    2260,    2.367202e+01,    8.888889e+00,   -2.133115e+01
    2261,    2.400709e+01,    8.888889e+00,   -2.490508e+01
    2262,    1.998169e+01,    8.888889e+00,   -2.506174e+01
    2263,    1.615924e+01,    8.888889e+00,   -2.512063e+01
    2264,    1.232558e+01,    8.888889e+00,   -2.481764e+01
    2265,    8.342438e+00,    8.888889e+00,   -2.443121e+01
    2266,    8.974009e+00,    8.888889e+00,   -2.067915e+01
    2267,    1.010391e+01,    8.888889e+00,   -1.687424e+01
    2268,    1.250144e+01,    8.888889e+00,   -1.314404e+01
    2269,    1.629642e+01,    8.888889e+00,   -9.961566e+00
    2270,    1.957326e+01,    8.888889e+00,   -7.453734e+00
    2271,    2.157232e+01,    8.888889e+00,   -5.658829e+00
    2272,    1.892839e+01,    8.888889e+00,   -1.842924e+01
    2273,    1.969011e+01,    8.888889e+00,   -2.169171e+01
    2274,    1.291311e+01,    8.888889e+00,   -2.142747e+01
    2275,    1.397717e+01,    8.888889e+00,   -1.825778e+01
    2276,    1.660092e+01,    8.888889e+00,   -1.559855e+01
    2277,    1.622813e+01,    8.888889e+00,   -2.198711e+01
    2278,    1.637790e+01,    8.888889e+00,   -1.955804e+01
    2279,    2.812003e+01,    1.244444e+01,   -3.414845e+00
    2280,    2.797864e+01,    1.244444e+01,   -6.754863e+00
    2281,    2.762910e+01,    1.244444e+01,   -1.020751e+01
    2282,    2.731317e+01,    1.244444e+01,   -1.384184e+01
    2283,    2.762424e+01,    1.244444e+01,   -1.759450e+01
    2284,    2.791641e+01,    1.244444e+01,   -2.121915e+01
    2285,    2.802649e+01,    1.244444e+01,   -2.481971e+01
    2286,    2.803102e+01,    1.244444e+01,   -2.841462e+01
    2287,    4.074691e+00,    1.244444e+01,   -2.807655e+01
    2288,    4.204790e+00,    1.244444e+01,   -2.411931e+01
    2289,    4.494764e+00,    1.244444e+01,   -2.007880e+01
    2290,    5.258743e+00,    1.244444e+01,   -1.591285e+01
    2291,    6.604932e+00,    1.244444e+01,   -1.086153e+01
    2292,    1.187342e+01,    1.244444e+01,   -5.738712e+00
    2293,    1.720166e+01,    1.244444e+01,   -4.149378e+00
    2294,    2.083400e+01,    1.244444e+01,   -3.187386e+00
    2295,    2.430850e+01,    1.244444e+01,   -3.213687e+00
    2296,    2.406667e+01,    1.244444e+01,   -2.843076e+01
    2297,    2.008566e+01,    1.244444e+01,   -2.850775e+01
    2298,    1.610483e+01,    1.244444e+01,   -2.851623e+01
    2299,    1.212834e+01,    1.244444e+01,   -2.838958e+01
    2300,    8.124210e+00,    1.244444e+01,   -2.821898e+01
    2301,    2.425294e+01,    1.244444e+01,   -6.270300e+00
    2302,    2.318170e+01,    1.244444e+01,   -9.374250e+00
    2303,    2.130020e+01,    1.244444e+01,   -1.325280e+01
    2304,    2.296177e+01,    1.244444e+01,   -1.759617e+01
    2305,    2.367202e+01,    1.244444e+01,   -2.133115e+01
    2306,    2.400709e+01,    1.244444e+01,   -2.490508e+01
    2307,    1.998169e+01,    1.244444e+01,   -2.506174e+01
    2308,    1.615924e+01,    1.244444e+01,   -2.512063e+01
    2309,    1.232558e+01,    1.244444e+01,   -2.481764e+01
    2310,    8.342438e+00,    1.244444e+01,   -2.443121e+01
    2311,    8.974009e+00,    1.244444e+01,   -2.067915e+01
    2312,    1.010391e+01,    1.244444e+01,   -1.687424e+01
    2313,    1.250144e+01,    1.244444e+01,   -1.314404e+01
    2314,    1.629642e+01,    1.244444e+01,   -9.961566e+00
    2315,    1.957326e+01,    1.244444e+01,   -7.453734e+00
    2316,    2.157232e+01,    1.244444e+01,   -5.658829e+00
    2317,    1.892839e+01,    1.244444e+01,   -1.842924e+01
    2318,    1.969011e+01,    1.244444e+01,   -2.169171e+01
    2319,    1.291311e+01,    1.244444e+01,   -2.142747e+01
    2320,    1.397717e+01,    1.244444e+01,   -1.825778e+01
    2321,    1.660092e+01,    1.244444e+01,   -1.559855e+01
    2322,    1.622813e+01,    1.244444e+01,   -2.198711e+01
    2323,    1.637790e+01,    1.244444e+01,   -1.955804e+01
    2324,    2.812003e+01,    1.600000e+01,   -3.414845e+00
    2325,    2.797864e+01,    1.600000e+01,   -6.754863e+00
    2326,    2.762910e+01,    1.600000e+01,   -1.020751e+01
    2327,    2.731317e+01,    1.600000e+01,   -1.384184e+01
    2328,    2.762424e+01,    1.600000e+01,   -1.759450e+01
    2329,    2.791641e+01,    1.600000e+01,   -2.121915e+01
    2330,    2.802649e+01,    1.600000e+01,   -2.481971e+01
    2331,    2.803102e+01,    1.600000e+01,   -2.841462e+01
    2332,    4.074691e+00,    1.600000e+01,   -2.807655e+01
    2333,    4.204790e+00,    1.600000e+01,   -2.411931e+01
    2334,    4.494764e+00,    1.600000e+01,   -2.007880e+01
    2335,    5.258743e+00,    1.600000e+01,   -1.591285e+01
    2336,    6.604932e+00,    1.600000e+01,   -1.086153e+01
    2337,    1.187342e+01,    1.600000e+01,   -5.738712e+00
    2338,    1.720166e+01,    1.600000e+01,   -4.149378e+00
    2339,    2.083400e+01,    1.600000e+01,   -3.187386e+00
    2340,    2.430850e+01,    1.600000e+01,   -3.213687e+00
    2341,    2.406667e+01,    1.600000e+01,   -2.843076e+01
    2342,    2.008566e+01,    1.600000e+01,   -2.850775e+01
    2343,    1.610483e+01,    1.600000e+01,   -2.851623e+01
    2344,    1.212834e+01,    1.600000e+01,   -2.838958e+01
    2345,    8.124210e+00,    1.600000e+01,   -2.821898e+01
    2346,    2.425294e+01,    1.600000e+01,   -6.270300e+00
    2347,    2.318170e+01,    1.600000e+01,   -9.374250e+00
    2348,    2.130020e+01,    1.600000e+01,   -1.325280e+01
    2349,    2.296177e+01,    1.600000e+01,   -1.759617e+01
    2350,    2.367202e+01,    1.600000e+01,   -2.133115e+01
    2351,    2.400709e+01,    1.600000e+01,   -2.490508e+01
    2352,    1.998169e+01,    1.600000e+01,   -2.506174e+01
    2353,    1.615924e+01,    1.600000e+01,   -2.512063e+01
    2354,    1.232558e+01,    1.600000e+01,   -2.481764e+01
    2355,    8.342438e+00,    1.600000e+01,   -2.443121e+01
    2356,    8.974009e+00,    1.600000e+01,   -2.067915e+01
    2357,    1.010391e+01,    1.600000e+01,   -1.687424e+01
    2358,    1.250144e+01,    1.600000e+01,   -1.314404e+01
    2359,    1.629642e+01,    1.600000e+01,   -9.961566e+00
    2360,    1.957326e+01,    1.600000e+01,   -7.453734e+00
    2361,    2.157232e+01,    1.600000e+01,   -5.658829e+00
    2362,    1.892839e+01,    1.600000e+01,   -1.842924e+01
    2363,    1.969011e+01,    1.600000e+01,   -2.169171e+01
    2364,    1.291311e+01,    1.600000e+01,   -2.142747e+01
    2365,    1.397717e+01,    1.600000e+01,   -1.825778e+01
    2366,    1.660092e+01,    1.600000e+01,   -1.559855e+01
    2367,    1.622813e+01,    1.600000e+01,   -2.198711e+01
    2368,    1.637790e+01,    1.600000e+01,   -1.955804e+01
    2369,    0.000000e+00,    0.000000e+00,   -3.200000e+01
    2370,    0.000000e+00,    0.000000e+00,   -1.200000e+01
    2371,    0.000000e+00,    0.000000e+00,   -1.600000e+01
    2372,    0.000000e+00,    0.000000e+00,   -2.000000e+01
    2373,    0.000000e+00,    0.000000e+00,   -2.400000e+01
    2374,    0.000000e+00,    0.000000e+00,   -2.800000e+01
    2375,    3.200000e+01,    0.000000e+00,   -3.200000e+01
    2376,    2.800000e+01,    0.000000e+00,   -3.200000e+01
    2377,    2.400000e+01,    0.000000e+00,   -3.200000e+01
    2378,    2.000000e+01,    0.000000e+00,   -3.200000e+01
    2379,    1.600000e+01,    0.000000e+00,   -3.200000e+01
    2380,    1.200000e+01,    0.000000e+00,   -3.200000e+01
    2381,    8.000000e+00,    0.000000e+00,   -3.200000e+01
    2382,    4.000000e+00,    0.000000e+00,   -3.200000e+01
    2383,    3.200000e+01,    0.000000e+00,    0.000000e+00
    2384,    1.200000e+01,    0.000000e+00,    0.000000e+00
    2385,    1.600000e+01,    0.000000e+00,    0.000000e+00
    2386,    2.000000e+01,    0.000000e+00,    0.000000e+00
    2387,    2.400000e+01,    0.000000e+00,    0.000000e+00
    2388,    2.800000e+01,    0.000000e+00,    0.000000e+00
    2389,    3.200000e+01,    0.000000e+00,   -3.555556e+00
    2390,    3.200000e+01,    0.000000e+00,   -7.111111e+00
    2391,    3.200000e+01,    0.000000e+00,   -1.066667e+01
    2392,    3.200000e+01,    0.000000e+00,   -1.422222e+01
    2393,    3.200000e+01,    0.000000e+00,   -1.777778e+01
    2394,    3.200000e+01,    0.000000e+00,   -2.133333e+01
    2395,    3.200000e+01,    0.000000e+00,   -2.488889e+01
    2396,    3.200000e+01,    0.000000e+00,   -2.844444e+01
    2397,    2.812003e+01,    0.000000e+00,   -3.414845e+00
    2398,    2.797864e+01,    0.000000e+00,   -6.754863e+00
    2399,    2.762910e+01,    0.000000e+00,   -1.020751e+01
    2400,    2.731317e+01,    0.000000e+00,   -1.384184e+01
    2401,    2.762424e+01,    0.000000e+00,   -1.759450e+01
    2402,    2.791641e+01,    0.000000e+00,   -2.121915e+01
    2403,    2.802649e+01,    0.000000e+00,   -2.481971e+01
    2404,    2.803102e+01,    0.000000e+00,   -2.841462e+01
    2405,    4.074691e+00,    0.000000e+00,   -2.807655e+01
    2406,    4.204790e+00,    0.000000e+00,   -2.411931e+01
    2407,    4.494764e+00,    0.000000e+00,   -2.007880e+01
    2408,    5.258743e+00,    0.000000e+00,   -1.591285e+01
    2409,    6.604932e+00,    0.000000e+00,   -1.086153e+01
    2410,    1.187342e+01,    0.000000e+00,   -5.738712e+00
    2411,    1.720166e+01,    0.000000e+00,   -4.149378e+00
    2412,    2.083400e+01,    0.000000e+00,   -3.187386e+00
    2413,    2.430850e+01,    0.000000e+00,   -3.213687e+00
    2414,    2.406667e+01,    0.000000e+00,   -2.843076e+01
    2415,    2.008566e+01,    0.000000e+00,   -2.850775e+01
    2416,    1.610483e+01,    0.000000e+00,   -2.851623e+01
    2417,    1.212834e+01,    0.000000e+00,   -2.838958e+01
    2418,    8.124210e+00,    0.000000e+00,   -2.821898e+01
    2419,    2.425294e+01,    0.000000e+00,   -6.270300e+00
    2420,    2.318170e+01,    0.000000e+00,   -9.374250e+00
    2421,    2.130020e+01,    0.000000e+00,   -1.325280e+01
    2422,    2.296177e+01,    0.000000e+00,   -1.759617e+01
    2423,    2.367202e+01,    0.000000e+00,   -2.133115e+01
    2424,    2.400709e+01,    0.000000e+00,   -2.490508e+01
    2425,    1.998169e+01,    0.000000e+00,   -2.506174e+01
    2426,    1.615924e+01,    0.000000e+00,   -2.512063e+01
    2427,    1.232558e+01,    0.000000e+00,   -2.481764e+01
    2428,    8.342438e+00,    0.000000e+00,   -2.443121e+01
    2429,    8.974009e+00,    0.000000e+00,   -2.067915e+01
    2430,    1.010391e+01,    0.000000e+00,   -1.687424e+01
    2431,    1.250144e+01,    0.000000e+00,   -1.314404e+01
    2432,    1.629642e+01,    0.000000e+00,   -9.961566e+00
    2433,    1.957326e+01,    0.000000e+00,   -7.453734e+00
    2434,    2.157232e+01,    0.000000e+00,   -5.658829e+00
    2435,    1.969011e+01,    0.000000e+00,   -2.169171e+01
    2436,    1.892839e+01,    0.000000e+00,   -1.842924e+01
    2437,    1.291311e+01,    0.000000e+00,   -2.142747e+01
    2438,    1.397717e+01,    0.000000e+00,   -1.825778e+01
    2439,    1.660092e+01,    0.000000e+00,   -1.559855e+01
    2440,    1.622813e+01,    0.000000e+00,   -2.198711e+01
    2441,    1.637790e+01,    0.000000e+00,   -1.955804e+01
    4432,   -8.000000e+00,   -5.000000e+01,    0.000000e+00
    4433,   -5.333333e+00,   -5.000000e+01,    0.000000e+00
    4434,   -2.666667e+00,   -5.000000e+01,    0.000000e+00
    4435,   -6.928203e+00,   -5.000000e+01,   -4.000000e+00
    4436,   -4.000000e+00,   -5.000000e+01,   -6.928203e+00
    4437,   -5.026854e+00,   -5.000000e+01,   -2.413361e+00
    4438,   -2.829203e+00,   -5.000000e+01,   -3.243589e+00
    4439,   -8.000000e+00,    1.600000e+01,    0.000000e+00
    4440,   -4.000000e+00,    1.600000e+01,   -6.928203e+00
    4441,   -6.928203e+00,    1.600000e+01,   -4.000000e+00
    4442,   -8.000000e+00,    5.333333e+00,    1.143004e-15
    4443,   -8.000000e+00,    8.888889e+00,   -5.442875e-17
    4444,   -8.000000e+00,    1.244444e+01,   -2.721437e-16
    4445,   -4.000000e+00,    5.333333e+00,   -6.928203e+00
    4446,   -6.928203e+00,    5.333333e+00,   -4.000000e+00
    4447,   -4.000000e+00,    8.888889e+00,   -6.928203e+00
    4448,   -4.000000e+00,    1.244444e+01,   -6.928203e+00
    4449,   -6.928203e+00,    8.888889e+00,   -4.000000e+00
    4450,   -6.928203e+00,    1.244444e+01,   -4.000000e+00
    4451,   -8.000000e+00,    0.000000e+00,    0.000000e+00
    4452,   -4.000000e+00,    0.000000e+00,   -6.928203e+00
    4453,   -6.928203e+00,    0.000000e+00,   -4.000000e+00
    4454,   -2.666667e+00,    1.600000e+01,    0.000000e+00
    4455,   -5.333333e+00,    1.600000e+01,    0.000000e+00
    4456,   -8.000000e+00,   -3.846154e+00,   -8.054408e-16
    4457,   -8.000000e+00,   -7.692308e+00,   -5.699318e-16
    4458,   -8.000000e+00,   -1.153846e+01,   -3.344228e-16
    4459,   -8.000000e+00,   -1.538462e+01,   -9.891378e-17
    4460,   -8.000000e+00,   -1.923077e+01,    1.365952e-16
    4461,   -8.000000e+00,   -2.307692e+01,    3.721042e-16
    4462,   -8.000000e+00,   -2.692308e+01,    6.076132e-16
    4463,   -8.000000e+00,   -3.076923e+01,    8.431222e-16
    4464,   -8.000000e+00,   -3.461538e+01,    1.078631e-15
    4465,   -8.000000e+00,   -3.846154e+01,    1.314140e-15
    4466,   -8.000000e+00,   -4.230769e+01,    1.549649e-15
    4467,   -8.000000e+00,   -4.615385e+01,    1.785158e-15
    4468,   -2.666667e+00,   -4.612971e+01,    0.000000e+00
    4469,   -2.666667e+00,   -4.225943e+01,    0.000000e+00
    4470,   -2.666667e+00,   -3.838914e+01,    0.000000e+00
    4471,   -2.666667e+00,   -3.451885e+01,    0.000000e+00
    4472,   -2.666667e+00,   -3.064857e+01,    0.000000e+00
    4473,   -2.666667e+00,   -2.677828e+01,    0.000000e+00
    4474,   -2.666667e+00,   -2.290799e+01,    0.000000e+00
    4475,   -2.666667e+00,   -1.903771e+01,    0.000000e+00
    4476,   -2.666667e+00,   -1.516742e+01,    0.000000e+00
    4477,   -2.666667e+00,   -1.129713e+01,    0.000000e+00
    4478,   -2.666667e+00,   -7.426848e+00,    0.000000e+00
    4479,   -2.666667e+00,   -3.556561e+00,    0.000000e+00
    4480,   -2.666667e+00,    3.137255e-01,    0.000000e+00
    4481,   -2.666667e+00,    4.679739e+00,    0.000000e+00
    4482,   -2.666667e+00,    8.453159e+00,    0.000000e+00
    4483,   -2.666667e+00,    1.222658e+01,    0.000000e+00
    4484,   -5.333333e+00,   -4.614178e+01,    0.000000e+00
    4485,   -5.333333e+00,   -4.228356e+01,    0.000000e+00
    4486,   -5.333333e+00,   -3.842534e+01,    0.000000e+00
    4487,   -5.333333e+00,   -3.456712e+01,    0.000000e+00
    4488,   -5.333333e+00,   -3.070890e+01,    0.000000e+00
    4489,   -5.333333e+00,   -2.685068e+01,    0.000000e+00
    4490,   -5.333333e+00,   -2.299246e+01,    0.000000e+00
    4491,   -5.333333e+00,   -1.913424e+01,    0.000000e+00
    4492,   -5.333333e+00,   -1.527602e+01,    0.000000e+00
    4493,   -5.333333e+00,   -1.141780e+01,    0.000000e+00
    4494,   -5.333333e+00,   -7.559578e+00,    0.000000e+00
    4495,   -5.333333e+00,   -3.701357e+00,    0.000000e+00
    4496,   -5.333333e+00,    1.568627e-01,    0.000000e+00
    4497,   -5.333333e+00,    5.006536e+00,    0.000000e+00
    4498,   -5.333333e+00,    8.671024e+00,    0.000000e+00
    4499,   -5.333333e+00,    1.233551e+01,    0.000000e+00
    4500,   -6.928203e+00,   -3.846154e+00,   -4.000000e+00
    4501,   -4.000000e+00,   -3.846154e+00,   -6.928203e+00
    4502,   -6.928203e+00,   -7.692308e+00,   -4.000000e+00
    4503,   -4.000000e+00,   -7.692308e+00,   -6.928203e+00
    4504,   -6.928203e+00,   -1.153846e+01,   -4.000000e+00
    4505,   -4.000000e+00,   -1.153846e+01,   -6.928203e+00
    4506,   -6.928203e+00,   -1.538462e+01,   -4.000000e+00
    4507,   -4.000000e+00,   -1.538462e+01,   -6.928203e+00
    4508,   -6.928203e+00,   -1.923077e+01,   -4.000000e+00
    4509,   -4.000000e+00,   -1.923077e+01,   -6.928203e+00
    4510,   -6.928203e+00,   -2.307692e+01,   -4.000000e+00
    4511,   -4.000000e+00,   -2.307692e+01,   -6.928203e+00
    4512,   -6.928203e+00,   -2.692308e+01,   -4.000000e+00
    4513,   -4.000000e+00,   -2.692308e+01,   -6.928203e+00
    4514,   -6.928203e+00,   -3.076923e+01,   -4.000000e+00
    4515,   -4.000000e+00,   -3.076923e+01,   -6.928203e+00
    4516,   -6.928203e+00,   -3.461538e+01,   -4.000000e+00
    4517,   -4.000000e+00,   -3.461538e+01,   -6.928203e+00
    4518,   -6.928203e+00,   -3.846154e+01,   -4.000000e+00
    4519,   -4.000000e+00,   -3.846154e+01,   -6.928203e+00
    4520,   -6.928203e+00,   -4.230769e+01,   -4.000000e+00
    4521,   -4.000000e+00,   -4.230769e+01,   -6.928203e+00
    4522,   -6.928203e+00,   -4.615385e+01,   -4.000000e+00
    4523,   -4.000000e+00,   -4.615385e+01,   -6.928203e+00
    4524,   -2.829203e+00,   -4.614196e+01,   -3.243589e+00
    4525,   -5.026854e+00,   -4.614668e+01,   -2.413361e+00
    4526,   -2.829203e+00,   -4.228393e+01,   -3.243589e+00
    4527,   -5.026854e+00,   -4.229337e+01,   -2.413361e+00
    4528,   -2.829203e+00,   -3.842589e+01,   -3.243589e+00
    4529,   -5.026854e+00,   -3.844005e+01,   -2.413361e+00
    4530,   -2.829203e+00,   -3.456786e+01,   -3.243589e+00
    4531,   -5.026854e+00,   -3.458673e+01,   -2.413361e+00
    4532,   -2.829203e+00,   -3.070982e+01,   -3.243589e+00
    4533,   -5.026854e+00,   -3.073342e+01,   -2.413361e+00
    4534,   -2.829203e+00,   -2.685178e+01,   -3.243589e+00
    4535,   -5.026854e+00,   -2.688010e+01,   -2.413361e+00
    4536,   -2.829203e+00,   -2.299375e+01,   -3.243589e+00
    4537,   -5.026854e+00,   -2.302678e+01,   -2.413361e+00
    4538,   -2.829203e+00,   -1.913571e+01,   -3.243589e+00
    4539,   -5.026854e+00,   -1.917347e+01,   -2.413361e+00
    4540,   -2.829203e+00,   -1.527768e+01,   -3.243589e+00
    4541,   -5.026854e+00,   -1.532015e+01,   -2.413361e+00
    4542,   -2.829203e+00,   -1.141964e+01,   -3.243589e+00
    4543,   -5.026854e+00,   -1.146683e+01,   -2.413361e+00
    4544,   -2.829203e+00,   -7.561603e+00,   -3.243589e+00
    4545,   -5.026854e+00,   -7.613518e+00,   -2.413361e+00
    4546,   -2.829203e+00,   -3.703567e+00,   -3.243589e+00
    4547,   -5.026854e+00,   -3.760201e+00,   -2.413361e+00
    4548,   -2.829203e+00,    1.621253e-01,   -3.243589e+00
    4549,   -5.026854e+00,    9.989524e-02,   -2.413361e+00
    4550,   -2.829203e+00,    4.995572e+00,   -3.243589e+00
    4551,   -5.026854e+00,    5.125218e+00,   -2.413361e+00
    4552,   -2.829203e+00,    8.663715e+00,   -3.243589e+00
    4553,   -5.026854e+00,    8.750145e+00,   -2.413361e+00
    4554,   -2.829203e+00,    1.233717e+01,   -3.243589e+00
    4555,   -5.026854e+00,    1.237978e+01,   -2.413361e+00
    4556,   -2.829203e+00,    1.600000e+01,   -3.243589e+00
    4557,   -5.026854e+00,    1.600000e+01,   -2.413361e+00
    4558,   -3.200000e+01,    5.333333e+00,   -3.200000e+01
    4559,   -2.800000e+01,    5.333333e+00,   -3.200000e+01
    4560,   -2.400000e+01,    5.333333e+00,   -3.200000e+01
    4561,   -2.000000e+01,    5.333333e+00,   -3.200000e+01
    4562,   -1.600000e+01,    5.333333e+00,   -3.200000e+01
    4563,   -1.200000e+01,    5.333333e+00,   -3.200000e+01
    4564,   -8.000000e+00,    5.333333e+00,   -3.200000e+01
    4565,   -4.000000e+00,    5.333333e+00,   -3.200000e+01
    4566,   -3.200000e+01,    5.333333e+00,    0.000000e+00
    4567,   -3.200000e+01,    5.333333e+00,   -3.555556e+00
    4568,   -3.200000e+01,    5.333333e+00,   -7.111111e+00
    4569,   -3.200000e+01,    5.333333e+00,   -1.066667e+01
    4570,   -3.200000e+01,    5.333333e+00,   -1.422222e+01
    4571,   -3.200000e+01,    5.333333e+00,   -1.777778e+01
    4572,   -3.200000e+01,    5.333333e+00,   -2.133333e+01
    4573,   -3.200000e+01,    5.333333e+00,   -2.488889e+01
    4574,   -3.200000e+01,    5.333333e+00,   -2.844444e+01
    4575,   -1.200000e+01,    5.333333e+00,    0.000000e+00
    4576,   -1.600000e+01,    5.333333e+00,    0.000000e+00
    4577,   -2.000000e+01,    5.333333e+00,    0.000000e+00
    4578,   -2.400000e+01,    5.333333e+00,    0.000000e+00
    4579,   -2.800000e+01,    5.333333e+00,    0.000000e+00
    4580,   -2.810168e+01,    5.333333e+00,   -2.842024e+01
    4581,   -2.817692e+01,    5.333333e+00,   -2.486734e+01
    4582,   -2.824521e+01,    5.333333e+00,   -2.133006e+01
    4583,   -2.832324e+01,    5.333333e+00,   -1.779648e+01
    4584,   -2.837608e+01,    5.333333e+00,   -1.427497e+01
    4585,   -2.835621e+01,    5.333333e+00,   -1.075696e+01
    4586,   -2.824476e+01,    5.333333e+00,   -7.218385e+00
    4587,   -2.809699e+01,    5.333333e+00,   -3.623012e+00
    4588,   -6.115298e+00,    5.333333e+00,   -1.074548e+01
    4589,   -4.971915e+00,    5.333333e+00,   -1.583653e+01
    4590,   -4.445702e+00,    5.333333e+00,   -2.009730e+01
    4591,   -4.191903e+00,    5.333333e+00,   -2.410085e+01
    4592,   -4.077926e+00,    5.333333e+00,   -2.806510e+01
    4593,   -2.415753e+01,    5.333333e+00,   -3.702511e+00
    4594,   -2.025184e+01,    5.333333e+00,   -3.836006e+00
    4595,   -1.611513e+01,    5.333333e+00,   -4.193864e+00
    4596,   -1.111514e+01,    5.333333e+00,   -5.459440e+00
    4597,   -8.141415e+00,    5.333333e+00,   -2.816118e+01
    4598,   -1.219346e+01,    5.333333e+00,   -2.827351e+01
    4599,   -1.623036e+01,    5.333333e+00,   -2.834176e+01
    4600,   -2.023601e+01,    5.333333e+00,   -2.836744e+01
    4601,   -2.417631e+01,    5.333333e+00,   -2.840096e+01
    4602,   -2.432790e+01,    5.333333e+00,   -2.483605e+01
    4603,   -2.448652e+01,    5.333333e+00,   -2.130537e+01
    4604,   -2.465907e+01,    5.333333e+00,   -1.780334e+01
    4605,   -2.478686e+01,    5.333333e+00,   -1.432356e+01
    4606,   -2.473746e+01,    5.333333e+00,   -1.084324e+01
    4607,   -2.445805e+01,    5.333333e+00,   -7.311066e+00
    4608,   -8.329470e+00,    5.333333e+00,   -2.432318e+01
    4609,   -1.242700e+01,    5.333333e+00,   -2.457638e+01
    4610,   -1.648244e+01,    5.333333e+00,   -2.471661e+01
    4611,   -2.044109e+01,    5.333333e+00,   -2.479215e+01
    4612,   -2.073794e+01,    5.333333e+00,   -7.472816e+00
    4613,   -1.701334e+01,    5.333333e+00,   -7.988912e+00
    4614,   -1.347176e+01,    5.333333e+00,   -9.289633e+00
    4615,   -1.091751e+01,    5.333333e+00,   -1.253857e+01
    4616,   -9.455376e+00,    5.333333e+00,   -1.650098e+01
    4617,   -8.771335e+00,    5.333333e+00,   -2.044300e+01
    4618,   -2.068547e+01,    5.333333e+00,   -2.126486e+01
    4619,   -2.098036e+01,    5.333333e+00,   -1.778614e+01
    4620,   -2.112516e+01,    5.333333e+00,   -1.432703e+01
    4621,   -2.112485e+01,    5.333333e+00,   -1.093143e+01
    4622,   -1.776305e+01,    5.333333e+00,   -1.107779e+01
    4623,   -1.516459e+01,    5.333333e+00,   -1.143430e+01
    4624,   -1.425895e+01,    5.333333e+00,   -1.393548e+01
    4625,   -1.345700e+01,    5.333333e+00,   -1.724809e+01
    4626,   -1.287449e+01,    5.333333e+00,   -2.085451e+01
    4627,   -1.680595e+01,    5.333333e+00,   -2.114977e+01
    4628,   -1.761916e+01,    5.333333e+00,   -1.425846e+01
    4629,   -1.722000e+01,    5.333333e+00,   -1.761839e+01
    4630,   -3.200000e+01,    1.600000e+01,    0.000000e+00
    4631,   -1.200000e+01,    1.600000e+01,    0.000000e+00
    4632,   -1.600000e+01,    1.600000e+01,    0.000000e+00
    4633,   -2.000000e+01,    1.600000e+01,    0.000000e+00
    4634,   -2.400000e+01,    1.600000e+01,    0.000000e+00
    4635,   -2.800000e+01,    1.600000e+01,    0.000000e+00
    4636,   -3.200000e+01,    1.244444e+01,    0.000000e+00
    4637,   -3.200000e+01,    8.888889e+00,    0.000000e+00
    4638,   -2.800000e+01,    8.888889e+00,    0.000000e+00
    4639,   -2.400000e+01,    8.888889e+00,    0.000000e+00
    4640,   -2.000000e+01,    8.888889e+00,    0.000000e+00
    4641,   -1.600000e+01,    8.888889e+00,    0.000000e+00
    4642,   -1.200000e+01,    8.888889e+00,    0.000000e+00
    4643,   -2.800000e+01,    1.244444e+01,    0.000000e+00
    4644,   -2.400000e+01,    1.244444e+01,    0.000000e+00
    4645,   -2.000000e+01,    1.244444e+01,    0.000000e+00
    4646,   -1.600000e+01,    1.244444e+01,    0.000000e+00
    4647,   -1.200000e+01,    1.244444e+01,    0.000000e+00
    4648,   -3.200000e+01,    1.600000e+01,   -3.200000e+01
    4649,   -3.200000e+01,    8.888889e+00,   -3.200000e+01
    4650,   -3.200000e+01,    1.244444e+01,   -3.200000e+01
    4651,   -2.800000e+01,    1.600000e+01,   -3.200000e+01
    4652,   -2.400000e+01,    1.600000e+01,   -3.200000e+01
    4653,   -2.000000e+01,    1.600000e+01,   -3.200000e+01
    4654,   -1.600000e+01,    1.600000e+01,   -3.200000e+01
    4655,   -1.200000e+01,    1.600000e+01,   -3.200000e+01
    4656,   -8.000000e+00,    1.600000e+01,   -3.200000e+01
    4657,   -4.000000e+00,    1.600000e+01,   -3.200000e+01
    4658,   -4.000000e+00,    1.244444e+01,   -3.200000e+01
    4659,   -4.000000e+00,    8.888889e+00,   -3.200000e+01
    4660,   -8.000000e+00,    1.244444e+01,   -3.200000e+01
    4661,   -8.000000e+00,    8.888889e+00,   -3.200000e+01
    4662,   -1.200000e+01,    1.244444e+01,   -3.200000e+01
    4663,   -1.200000e+01,    8.888889e+00,   -3.200000e+01
    4664,   -1.600000e+01,    1.244444e+01,   -3.200000e+01
    4665,   -1.600000e+01,    8.888889e+00,   -3.200000e+01
    4666,   -2.000000e+01,    1.244444e+01,   -3.200000e+01
    4667,   -2.000000e+01,    8.888889e+00,   -3.200000e+01
    4668,   -2.400000e+01,    1.244444e+01,   -3.200000e+01
    4669,   -2.400000e+01,    8.888889e+00,   -3.200000e+01
    4670,   -2.800000e+01,    1.244444e+01,   -3.200000e+01
    4671,   -2.800000e+01,    8.888889e+00,   -3.200000e+01
    4672,   -3.200000e+01,    1.600000e+01,   -3.555556e+00
    4673,   -3.200000e+01,    1.600000e+01,   -7.111111e+00
    4674,   -3.200000e+01,    1.600000e+01,   -1.066667e+01
    4675,   -3.200000e+01,    1.600000e+01,   -1.422222e+01
    4676,   -3.200000e+01,    1.600000e+01,   -1.777778e+01
    4677,   -3.200000e+01,    1.600000e+01,   -2.133333e+01
    4678,   -3.200000e+01,    1.600000e+01,   -2.488889e+01
    4679,   -3.200000e+01,    1.600000e+01,   -2.844444e+01
    4680,   -3.200000e+01,    8.888889e+00,   -3.555556e+00
    4681,   -3.200000e+01,    1.244444e+01,   -3.555556e+00
    4682,   -3.200000e+01,    8.888889e+00,   -7.111111e+00
    4683,   -3.200000e+01,    1.244444e+01,   -7.111111e+00
    4684,   -3.200000e+01,    8.888889e+00,   -1.066667e+01
    4685,   -3.200000e+01,    1.244444e+01,   -1.066667e+01
    4686,   -3.200000e+01,    8.888889e+00,   -1.422222e+01
    4687,   -3.200000e+01,    1.244444e+01,   -1.422222e+01
    4688,   -3.200000e+01,    8.888889e+00,   -1.777778e+01
    4689,   -3.200000e+01,    1.244444e+01,   -1.777778e+01
    4690,   -3.200000e+01,    8.888889e+00,   -2.133333e+01
    4691,   -3.200000e+01,    1.244444e+01,   -2.133333e+01
    4692,   -3.200000e+01,    8.888889e+00,   -2.488889e+01
    4693,   -3.200000e+01,    1.244444e+01,   -2.488889e+01
    4694,   -3.200000e+01,    8.888889e+00,   -2.844444e+01
    4695,   -3.200000e+01,    1.244444e+01,   -2.844444e+01
    4696,   -2.810168e+01,    8.888889e+00,   -2.842024e+01
    4697,   -2.817692e+01,    8.888889e+00,   -2.486734e+01
    4698,   -2.824521e+01,    8.888889e+00,   -2.133006e+01
    4699,   -2.832324e+01,    8.888889e+00,   -1.779648e+01
    4700,   -2.837608e+01,    8.888889e+00,   -1.427497e+01
    4701,   -2.835621e+01,    8.888889e+00,   -1.075696e+01
    4702,   -2.824476e+01,    8.888889e+00,   -7.218385e+00
    4703,   -2.809699e+01,    8.888889e+00,   -3.623012e+00
    4704,   -6.115298e+00,    8.888889e+00,   -1.074548e+01
    4705,   -4.971915e+00,    8.888889e+00,   -1.583653e+01
    4706,   -4.445702e+00,    8.888889e+00,   -2.009730e+01
    4707,   -4.191903e+00,    8.888889e+00,   -2.410085e+01
    4708,   -4.077926e+00,    8.888889e+00,   -2.806510e+01
    4709,   -2.415753e+01,    8.888889e+00,   -3.702511e+00
    4710,   -2.025184e+01,    8.888889e+00,   -3.836006e+00
    4711,   -1.611513e+01,    8.888889e+00,   -4.193864e+00
    4712,   -1.111514e+01,    8.888889e+00,   -5.459440e+00
    4713,   -8.141415e+00,    8.888889e+00,   -2.816118e+01
    4714,   -1.219346e+01,    8.888889e+00,   -2.827351e+01
    4715,   -1.623036e+01,    8.888889e+00,   -2.834176e+01
    4716,   -2.023601e+01,    8.888889e+00,   -2.836744e+01
    4717,   -2.417631e+01,    8.888889e+00,   -2.840096e+01
    4718,   -2.432790e+01,    8.888889e+00,   -2.483605e+01
    4719,   -2.448652e+01,    8.888889e+00,   -2.130537e+01
    4720,   -2.465907e+01,    8.888889e+00,   -1.780334e+01
    4721,   -2.478686e+01,    8.888889e+00,   -1.432356e+01
    4722,   -2.473746e+01,    8.888889e+00,   -1.084324e+01
    4723,   -2.445805e+01,    8.888889e+00,   -7.311066e+00
    4724,   -8.329470e+00,    8.888889e+00,   -2.432318e+01
    4725,   -1.242700e+01,    8.888889e+00,   -2.457638e+01
    4726,   -1.648244e+01,    8.888889e+00,   -2.471661e+01
    4727,   -2.044109e+01,    8.888889e+00,   -2.479215e+01
    4728,   -2.073794e+01,    8.888889e+00,   -7.472816e+00
    4729,   -1.701334e+01,    8.888889e+00,   -7.988912e+00
    4730,   -1.347176e+01,    8.888889e+00,   -9.289633e+00
    4731,   -1.091751e+01,    8.888889e+00,   -1.253857e+01
    4732,   -9.455376e+00,    8.888889e+00,   -1.650098e+01
    4733,   -8.771335e+00,    8.888889e+00,   -2.044300e+01
    4734,   -2.068547e+01,    8.888889e+00,   -2.126486e+01
    4735,   -2.098036e+01,    8.888889e+00,   -1.778614e+01
    4736,   -2.112516e+01,    8.888889e+00,   -1.432703e+01
    4737,   -2.112485e+01,    8.888889e+00,   -1.093143e+01
    4738,   -1.776305e+01,    8.888889e+00,   -1.107779e+01
    4739,   -1.516459e+01,    8.888889e+00,   -1.143430e+01
    4740,   -1.425895e+01,    8.888889e+00,   -1.393548e+01
    4741,   -1.345700e+01,    8.888889e+00,   -1.724809e+01
    4742,   -1.287449e+01,    8.888889e+00,   -2.085451e+01
    4743,   -1.680595e+01,    8.888889e+00,   -2.114977e+01
    4744,   -1.761916e+01,    8.888889e+00,   -1.425846e+01
    4745,   -1.722000e+01,    8.888889e+00,   -1.761839e+01
    4746,   -2.810168e+01,    1.244444e+01,   -2.842024e+01
    4747,   -2.817692e+01,    1.244444e+01,   -2.486734e+01
    4748,   -2.824521e+01,    1.244444e+01,   -2.133006e+01
    4749,   -2.832324e+01,    1.244444e+01,   -1.779648e+01
    4750,   -2.837608e+01,    1.244444e+01,   -1.427497e+01
    4751,   -2.835621e+01,    1.244444e+01,   -1.075696e+01
    4752,   -2.824476e+01,    1.244444e+01,   -7.218385e+00
    4753,   -2.809699e+01,    1.244444e+01,   -3.623012e+00
    4754,   -6.115298e+00,    1.244444e+01,   -1.074548e+01
    4755,   -4.971915e+00,    1.244444e+01,   -1.583653e+01
    4756,   -4.445702e+00,    1.244444e+01,   -2.009730e+01
    4757,   -4.191903e+00,    1.244444e+01,   -2.410085e+01
    4758,   -4.077926e+00,    1.244444e+01,   -2.806510e+01
    4759,   -2.415753e+01,    1.244444e+01,   -3.702511e+00
    4760,   -2.025184e+01,    1.244444e+01,   -3.836006e+00
    4761,   -1.611513e+01,    1.244444e+01,   -4.193864e+00
    4762,   -1.111514e+01,    1.244444e+01,   -5.459440e+00
    4763,   -8.141415e+00,    1.244444e+01,   -2.816118e+01
    4764,   -1.219346e+01,    1.244444e+01,   -2.827351e+01
    4765,   -1.623036e+01,    1.244444e+01,   -2.834176e+01
    4766,   -2.023601e+01,    1.244444e+01,   -2.836744e+01
    4767,   -2.417631e+01,    1.244444e+01,   -2.840096e+01
    4768,   -2.432790e+01,    1.244444e+01,   -2.483605e+01
    4769,   -2.448652e+01,    1.244444e+01,   -2.130537e+01
    4770,   -2.465907e+01,    1.244444e+01,   -1.780334e+01
    4771,   -2.478686e+01,    1.244444e+01,   -1.432356e+01
    4772,   -2.473746e+01,    1.244444e+01,   -1.084324e+01
    4773,   -2.445805e+01,    1.244444e+01,   -7.311066e+00
    4774,   -8.329470e+00,    1.244444e+01,   -2.432318e+01
    4775,   -1.242700e+01,    1.244444e+01,   -2.457638e+01
    4776,   -1.648244e+01,    1.244444e+01,   -2.471661e+01
    4777,   -2.044109e+01,    1.244444e+01,   -2.479215e+01
    4778,   -2.073794e+01,    1.244444e+01,   -7.472816e+00
    4779,   -1.701334e+01,    1.244444e+01,   -7.988912e+00
    4780,   -1.347176e+01,    1.244444e+01,   -9.289633e+00
    4781,   -1.091751e+01,    1.244444e+01,   -1.253857e+01
    4782,   -9.455376e+00,    1.244444e+01,   -1.650098e+01
    4783,   -8.771335e+00,    1.244444e+01,   -2.044300e+01
    4784,   -2.068547e+01,    1.244444e+01,   -2.126486e+01
    4785,   -2.098036e+01,    1.244444e+01,   -1.778614e+01
    4786,   -2.112516e+01,    1.244444e+01,   -1.432703e+01
    4787,   -2.112485e+01,    1.244444e+01,   -1.093143e+01
    4788,   -1.776305e+01,    1.244444e+01,   -1.107779e+01
    4789,   -1.516459e+01,    1.244444e+01,   -1.143430e+01
    4790,   -1.425895e+01,    1.244444e+01,   -1.393548e+01
    4791,   -1.345700e+01,    1.244444e+01,   -1.724809e+01
    4792,   -1.287449e+01,    1.244444e+01,   -2.085451e+01
    4793,   -1.680595e+01,    1.244444e+01,   -2.114977e+01
    4794,   -1.761916e+01,    1.244444e+01,   -1.425846e+01
    4795,   -1.722000e+01,    1.244444e+01,   -1.761839e+01
    4796,   -2.810168e+01,    1.600000e+01,   -2.842024e+01
    4797,   -2.817692e+01,    1.600000e+01,   -2.486734e+01
    4798,   -2.824521e+01,    1.600000e+01,   -2.133006e+01
    4799,   -2.832324e+01,    1.600000e+01,   -1.779648e+01
    4800,   -2.837608e+01,    1.600000e+01,   -1.427497e+01
    4801,   -2.835621e+01,    1.600000e+01,   -1.075696e+01
    4802,   -2.824476e+01,    1.600000e+01,   -7.218385e+00
    4803,   -2.809699e+01,    1.600000e+01,   -3.623012e+00
    4804,   -6.115298e+00,    1.600000e+01,   -1.074548e+01
    4805,   -4.971915e+00,    1.600000e+01,   -1.583653e+01
    4806,   -4.445702e+00,    1.600000e+01,   -2.009730e+01
    4807,   -4.191903e+00,    1.600000e+01,   -2.410085e+01
    4808,   -4.077926e+00,    1.600000e+01,   -2.806510e+01
    4809,   -2.415753e+01,    1.600000e+01,   -3.702511e+00
    4810,   -2.025184e+01,    1.600000e+01,   -3.836006e+00
    4811,   -1.611513e+01,    1.600000e+01,   -4.193864e+00
    4812,   -1.111514e+01,    1.600000e+01,   -5.459440e+00
    4813,   -8.141415e+00,    1.600000e+01,   -2.816118e+01
    4814,   -1.219346e+01,    1.600000e+01,   -2.827351e+01
    4815,   -1.623036e+01,    1.600000e+01,   -2.834176e+01
    4816,   -2.023601e+01,    1.600000e+01,   -2.836744e+01
    4817,   -2.417631e+01,    1.600000e+01,   -2.840096e+01
    4818,   -2.432790e+01,    1.600000e+01,   -2.483605e+01
    4819,   -2.448652e+01,    1.600000e+01,   -2.130537e+01
    4820,   -2.465907e+01,    1.600000e+01,   -1.780334e+01
    4821,   -2.478686e+01,    1.600000e+01,   -1.432356e+01
    4822,   -2.473746e+01,    1.600000e+01,   -1.084324e+01
    4823,   -2.445805e+01,    1.600000e+01,   -7.311066e+00
    4824,   -8.329470e+00,    1.600000e+01,   -2.432318e+01
    4825,   -1.242700e+01,    1.600000e+01,   -2.457638e+01
    4826,   -1.648244e+01,    1.600000e+01,   -2.471661e+01
    4827,   -2.044109e+01,    1.600000e+01,   -2.479215e+01
    4828,   -2.073794e+01,    1.600000e+01,   -7.472816e+00
    4829,   -1.701334e+01,    1.600000e+01,   -7.988912e+00
    4830,   -1.347176e+01,    1.600000e+01,   -9.289633e+00
    4831,   -1.091751e+01,    1.600000e+01,   -1.253857e+01
    4832,   -9.455376e+00,    1.600000e+01,   -1.650098e+01
    4833,   -8.771335e+00,    1.600000e+01,   -2.044300e+01
    4834,   -2.068547e+01,    1.600000e+01,   -2.126486e+01
    4835,   -2.098036e+01,    1.600000e+01,   -1.778614e+01
    4836,   -2.112516e+01,    1.600000e+01,   -1.432703e+01
    4837,   -2.112485e+01,    1.600000e+01,   -1.093143e+01
    4838,   -1.776305e+01,    1.600000e+01,   -1.107779e+01
    4839,   -1.516459e+01,    1.600000e+01,   -1.143430e+01
    4840,   -1.425895e+01,    1.600000e+01,   -1.393548e+01
    4841,   -1.345700e+01,    1.600000e+01,   -1.724809e+01
    4842,   -1.287449e+01,    1.600000e+01,   -2.085451e+01
    4843,   -1.680595e+01,    1.600000e+01,   -2.114977e+01
    4844,   -1.761916e+01,    1.600000e+01,   -1.425846e+01
    4845,   -1.722000e+01,    1.600000e+01,   -1.761839e+01
    4846,   -3.200000e+01,    0.000000e+00,    0.000000e+00
    4847,   -2.800000e+01,    0.000000e+00,    0.000000e+00
    4848,   -2.400000e+01,    0.000000e+00,    0.000000e+00
    4849,   -2.000000e+01,    0.000000e+00,    0.000000e+00
    4850,   -1.600000e+01,    0.000000e+00,    0.000000e+00
    4851,   -1.200000e+01,    0.000000e+00,    0.000000e+00
    4852,   -3.200000e+01,    0.000000e+00,   -3.200000e+01
    4853,   -3.200000e+01,    0.000000e+00,   -3.555556e+00
    4854,   -3.200000e+01,    0.000000e+00,   -7.111111e+00
    4855,   -3.200000e+01,    0.000000e+00,   -1.066667e+01
    4856,   -3.200000e+01,    0.000000e+00,   -1.422222e+01
    4857,   -3.200000e+01,    0.000000e+00,   -1.777778e+01
    4858,   -3.200000e+01,    0.000000e+00,   -2.133333e+01
    4859,   -3.200000e+01,    0.000000e+00,   -2.488889e+01
    4860,   -3.200000e+01,    0.000000e+00,   -2.844444e+01
    4861,   -4.000000e+00,    0.000000e+00,   -3.200000e+01
    4862,   -8.000000e+00,    0.000000e+00,   -3.200000e+01
    4863,   -1.200000e+01,    0.000000e+00,   -3.200000e+01
    4864,   -1.600000e+01,    0.000000e+00,   -3.200000e+01
    4865,   -2.000000e+01,    0.000000e+00,   -3.200000e+01
    4866,   -2.400000e+01,    0.000000e+00,   -3.200000e+01
    4867,   -2.800000e+01,    0.000000e+00,   -3.200000e+01
    4868,   -2.810168e+01,    0.000000e+00,   -2.842024e+01
    4869,   -2.817692e+01,    0.000000e+00,   -2.486734e+01
    4870,   -2.824521e+01,    0.000000e+00,   -2.133006e+01
    4871,   -2.832324e+01,    0.000000e+00,   -1.779648e+01
    4872,   -2.837608e+01,    0.000000e+00,   -1.427497e+01
    4873,   -2.835621e+01,    0.000000e+00,   -1.075696e+01
    4874,   -2.824476e+01,    0.000000e+00,   -7.218385e+00
    4875,   -2.809699e+01,    0.000000e+00,   -3.623012e+00
    4876,   -6.115298e+00,    0.000000e+00,   -1.074548e+01
    4877,   -4.971915e+00,    0.000000e+00,   -1.583653e+01
    4878,   -4.445702e+00,    0.000000e+00,   -2.009730e+01
    4879,   -4.191903e+00,    0.000000e+00,   -2.410085e+01
    4880,   -4.077926e+00,    0.000000e+00,   -2.806510e+01
    4881,   -2.415753e+01,    0.000000e+00,   -3.702511e+00
    4882,   -2.025184e+01,    0.000000e+00,   -3.836006e+00
    4883,   -1.611513e+01,    0.000000e+00,   -4.193864e+00
    4884,   -1.111514e+01,    0.000000e+00,   -5.459440e+00
    4885,   -8.141415e+00,    0.000000e+00,   -2.816118e+01
    4886,   -1.219346e+01,    0.000000e+00,   -2.827351e+01
    4887,   -1.623036e+01,    0.000000e+00,   -2.834176e+01
    4888,   -2.023601e+01,    0.000000e+00,   -2.836744e+01
    4889,   -2.417631e+01,    0.000000e+00,   -2.840096e+01
    4890,   -2.432790e+01,    0.000000e+00,   -2.483605e+01
    4891,   -2.448652e+01,    0.000000e+00,   -2.130537e+01
    4892,   -2.465907e+01,    0.000000e+00,   -1.780334e+01
    4893,   -2.478686e+01,    0.000000e+00,   -1.432356e+01
    4894,   -2.473746e+01,    0.000000e+00,   -1.084324e+01
    4895,   -2.445805e+01,    0.000000e+00,   -7.311066e+00
    4896,   -8.329470e+00,    0.000000e+00,   -2.432318e+01
    4897,   -1.242700e+01,    0.000000e+00,   -2.457638e+01
    4898,   -1.648244e+01,    0.000000e+00,   -2.471661e+01
    4899,   -2.044109e+01,    0.000000e+00,   -2.479215e+01
    4900,   -2.073794e+01,    0.000000e+00,   -7.472816e+00
    4901,   -1.701334e+01,    0.000000e+00,   -7.988912e+00
    4902,   -1.347176e+01,    0.000000e+00,   -9.289633e+00
    4903,   -1.091751e+01,    0.000000e+00,   -1.253857e+01
    4904,   -9.455376e+00,    0.000000e+00,   -1.650098e+01
    4905,   -8.771335e+00,    0.000000e+00,   -2.044300e+01
    4906,   -2.068547e+01,    0.000000e+00,   -2.126486e+01
    4907,   -2.098036e+01,    0.000000e+00,   -1.778614e+01
    4908,   -2.112516e+01,    0.000000e+00,   -1.432703e+01
    4909,   -2.112485e+01,    0.000000e+00,   -1.093143e+01
    4910,   -1.776305e+01,    0.000000e+00,   -1.107779e+01
    4911,   -1.516459e+01,    0.000000e+00,   -1.143430e+01
    4912,   -1.425895e+01,    0.000000e+00,   -1.393548e+01
    4913,   -1.345700e+01,    0.000000e+00,   -1.724809e+01
    4914,   -1.287449e+01,    0.000000e+00,   -2.085451e+01
    4915,   -1.680595e+01,    0.000000e+00,   -2.114977e+01
    4916,   -1.761916e+01,    0.000000e+00,   -1.425846e+01
    4917,   -1.722000e+01,    0.000000e+00,   -1.761839e+01
    5088,    0.000000e+00,   -5.510911e-16,   -9.000000e+00
    5089,    0.000000e+00,   -4.898587e-16,   -8.000000e+00
    5090,    0.000000e+00,   -5.000000e+01,   -9.000000e+00
    5091,    0.000000e+00,   -4.615385e+01,   -9.000000e+00
    5092,    0.000000e+00,   -4.230769e+01,   -9.000000e+00
    5093,    0.000000e+00,   -3.846154e+01,   -9.000000e+00
    5094,    0.000000e+00,   -3.461538e+01,   -9.000000e+00
    5095,    0.000000e+00,   -3.076923e+01,   -9.000000e+00
    5096,    0.000000e+00,   -2.692308e+01,   -9.000000e+00
    5097,    0.000000e+00,   -2.307692e+01,   -9.000000e+00
    5098,    0.000000e+00,   -1.923077e+01,   -9.000000e+00
    5099,    0.000000e+00,   -1.538462e+01,   -9.000000e+00
    5100,    0.000000e+00,   -1.153846e+01,   -9.000000e+00
    5101,    0.000000e+00,   -7.692308e+00,   -9.000000e+00
    5102,    0.000000e+00,   -3.846154e+00,   -9.000000e+00
    5103,    0.000000e+00,   -5.000000e+01,   -8.000000e+00
    5104,    0.000000e+00,   -3.846154e+00,   -8.000000e+00
    5105,    0.000000e+00,   -7.692308e+00,   -8.000000e+00
    5106,    0.000000e+00,   -1.153846e+01,   -8.000000e+00
    5107,    0.000000e+00,   -1.538462e+01,   -8.000000e+00
    5108,    0.000000e+00,   -1.923077e+01,   -8.000000e+00
    5109,    0.000000e+00,   -2.307692e+01,   -8.000000e+00
    5110,    0.000000e+00,   -2.692308e+01,   -8.000000e+00
    5111,    0.000000e+00,   -3.076923e+01,   -8.000000e+00
    5112,    0.000000e+00,   -3.461538e+01,   -8.000000e+00
    5113,    0.000000e+00,   -3.846154e+01,   -8.000000e+00
    5114,    0.000000e+00,   -4.230769e+01,   -8.000000e+00
    5115,    0.000000e+00,   -4.615385e+01,   -8.000000e+00
    5116,    9.000000e+00,   -5.000000e+01,    1.530808e-15
    5117,    4.500000e+00,   -5.000000e+01,   -7.794229e+00
    5118,    7.794229e+00,   -5.000000e+01,   -4.500000e+00
    5119,    8.000000e+00,   -5.000000e+01,    1.530808e-15
    5120,    6.928203e+00,   -5.000000e+01,   -4.000000e+00
    5121,    4.000000e+00,   -5.000000e+01,   -6.928203e+00
    5122,    9.000000e+00,    0.000000e+00,   -1.530808e-15
    5123,    7.794229e+00,   -2.755455e-16,   -4.500000e+00
    5124,    4.500000e+00,   -4.772589e-16,   -7.794229e+00
    5125,    9.000000e+00,   -4.615385e+01,    1.295299e-15
    5126,    9.000000e+00,   -4.230769e+01,    1.059790e-15
    5127,    9.000000e+00,   -3.846154e+01,    8.242815e-16
    5128,    9.000000e+00,   -3.461538e+01,    5.887725e-16
    5129,    9.000000e+00,   -3.076923e+01,    3.532635e-16
    5130,    9.000000e+00,   -2.692308e+01,    1.177545e-16
    5131,    9.000000e+00,   -2.307692e+01,   -1.177545e-16
    5132,    9.000000e+00,   -1.923077e+01,   -3.532635e-16
    5133,    9.000000e+00,   -1.538462e+01,   -5.887725e-16
    5134,    9.000000e+00,   -1.153846e+01,   -8.242815e-16
    5135,    9.000000e+00,   -7.692308e+00,   -1.059790e-15
    5136,    9.000000e+00,   -3.846154e+00,   -1.295299e-15
    5137,    4.500000e+00,   -4.615385e+01,   -7.794229e+00
    5138,    4.500000e+00,   -4.230769e+01,   -7.794229e+00
    5139,    4.500000e+00,   -3.846154e+01,   -7.794229e+00
    5140,    4.500000e+00,   -3.461538e+01,   -7.794229e+00
    5141,    4.500000e+00,   -3.076923e+01,   -7.794229e+00
    5142,    4.500000e+00,   -2.692308e+01,   -7.794229e+00
    5143,    4.500000e+00,   -2.307692e+01,   -7.794229e+00
    5144,    4.500000e+00,   -1.923077e+01,   -7.794229e+00
    5145,    4.500000e+00,   -1.538462e+01,   -7.794229e+00
    5146,    4.500000e+00,   -1.153846e+01,   -7.794229e+00
    5147,    4.500000e+00,   -7.692308e+00,   -7.794229e+00
    5148,    4.500000e+00,   -3.846154e+00,   -7.794229e+00
    5149,    7.794229e+00,   -4.615385e+01,   -4.500000e+00
    5150,    7.794229e+00,   -4.230769e+01,   -4.500000e+00
    5151,    7.794229e+00,   -3.846154e+01,   -4.500000e+00
    5152,    7.794229e+00,   -3.461538e+01,   -4.500000e+00
    5153,    7.794229e+00,   -3.076923e+01,   -4.500000e+00
    5154,    7.794229e+00,   -2.692308e+01,   -4.500000e+00
    5155,    7.794229e+00,   -2.307692e+01,   -4.500000e+00
    5156,    7.794229e+00,   -1.923077e+01,   -4.500000e+00
    5157,    7.794229e+00,   -1.538462e+01,   -4.500000e+00
    5158,    7.794229e+00,   -1.153846e+01,   -4.500000e+00
    5159,    7.794229e+00,   -7.692308e+00,   -4.500000e+00
    5160,    7.794229e+00,   -3.846154e+00,   -4.500000e+00
    5161,    8.000000e+00,    0.000000e+00,   -1.530808e-15
    5162,    8.000000e+00,   -3.846154e+00,   -1.295299e-15
    5163,    8.000000e+00,   -7.692308e+00,   -1.059790e-15
    5164,    8.000000e+00,   -1.153846e+01,   -8.242815e-16
    5165,    8.000000e+00,   -1.538462e+01,   -5.887725e-16
    5166,    8.000000e+00,   -1.923077e+01,   -3.532635e-16
    5167,    8.000000e+00,   -2.307692e+01,   -1.177545e-16
    5168,    8.000000e+00,   -2.692308e+01,    1.177545e-16
    5169,    8.000000e+00,   -3.076923e+01,    3.532635e-16
    5170,    8.000000e+00,   -3.461538e+01,    5.887725e-16
    5171,    8.000000e+00,   -3.846154e+01,    8.242815e-16
    5172,    8.000000e+00,   -4.230769e+01,    1.059790e-15
    5173,    8.000000e+00,   -4.615385e+01,    1.295299e-15
    5174,    4.000000e+00,   -4.242301e-16,   -6.928203e+00
    5175,    6.928203e+00,   -2.449294e-16,   -4.000000e+00
    5176,    4.000000e+00,   -3.846154e+00,   -6.928203e+00
    5177,    4.000000e+00,   -7.692308e+00,   -6.928203e+00
    5178,    4.000000e+00,   -1.153846e+01,   -6.928203e+00
    5179,    4.000000e+00,   -1.538462e+01,   -6.928203e+00
    5180,    4.000000e+00,   -1.923077e+01,   -6.928203e+00
    5181,    4.000000e+00,   -2.307692e+01,   -6.928203e+00
    5182,    4.000000e+00,   -2.692308e+01,   -6.928203e+00
    5183,    4.000000e+00,   -3.076923e+01,   -6.928203e+00
    5184,    4.000000e+00,   -3.461538e+01,   -6.928203e+00
    5185,    4.000000e+00,   -3.846154e+01,   -6.928203e+00
    5186,    4.000000e+00,   -4.230769e+01,   -6.928203e+00
    5187,    4.000000e+00,   -4.615385e+01,   -6.928203e+00
    5188,    6.928203e+00,   -3.846154e+00,   -4.000000e+00
    5189,    6.928203e+00,   -7.692308e+00,   -4.000000e+00
    5190,    6.928203e+00,   -1.153846e+01,   -4.000000e+00
    5191,    6.928203e+00,   -1.538462e+01,   -4.000000e+00
    5192,    6.928203e+00,   -1.923077e+01,   -4.000000e+00
    5193,    6.928203e+00,   -2.307692e+01,   -4.000000e+00
    5194,    6.928203e+00,   -2.692308e+01,   -4.000000e+00
    5195,    6.928203e+00,   -3.076923e+01,   -4.000000e+00
    5196,    6.928203e+00,   -3.461538e+01,   -4.000000e+00
    5197,    6.928203e+00,   -3.846154e+01,   -4.000000e+00
    5198,    6.928203e+00,   -4.230769e+01,   -4.000000e+00
    5199,    6.928203e+00,   -4.615385e+01,   -4.000000e+00
    6795,   -8.000000e+00,    9.373499e-32,    0.000000e+00
    6796,   -6.928203e+00,   -2.449294e-16,   -4.000000e+00
    6797,   -4.000000e+00,   -4.242301e-16,   -6.928203e+00
    6798,   -8.000000e+00,   -5.000000e+01,    0.000000e+00
    6799,   -8.000000e+00,   -4.615385e+01,    1.295299e-15
    6800,   -8.000000e+00,   -4.230769e+01,    1.059790e-15
    6801,   -8.000000e+00,   -3.846154e+01,    8.242815e-16
    6802,   -8.000000e+00,   -3.461538e+01,    5.887725e-16
    6803,   -8.000000e+00,   -3.076923e+01,    3.532635e-16
    6804,   -8.000000e+00,   -2.692308e+01,    1.177545e-16
    6805,   -8.000000e+00,   -2.307692e+01,   -1.177545e-16
    6806,   -8.000000e+00,   -1.923077e+01,   -3.532635e-16
    6807,   -8.000000e+00,   -1.538462e+01,   -5.887725e-16
    6808,   -8.000000e+00,   -1.153846e+01,   -8.242815e-16
    6809,   -8.000000e+00,   -7.692308e+00,   -1.059790e-15
    6810,   -8.000000e+00,   -3.846154e+00,   -1.295299e-15
    6811,   -4.000000e+00,   -5.000000e+01,   -6.928203e+00
    6812,   -6.928203e+00,   -5.000000e+01,   -4.000000e+00
    6813,   -4.000000e+00,   -4.615385e+01,   -6.928203e+00
    6814,   -4.000000e+00,   -4.230769e+01,   -6.928203e+00
    6815,   -4.000000e+00,   -3.846154e+01,   -6.928203e+00
    6816,   -4.000000e+00,   -3.461538e+01,   -6.928203e+00
    6817,   -4.000000e+00,   -3.076923e+01,   -6.928203e+00
    6818,   -4.000000e+00,   -2.692308e+01,   -6.928203e+00
    6819,   -4.000000e+00,   -2.307692e+01,   -6.928203e+00
    6820,   -4.000000e+00,   -1.923077e+01,   -6.928203e+00
    6821,   -4.000000e+00,   -1.538462e+01,   -6.928203e+00
    6822,   -4.000000e+00,   -1.153846e+01,   -6.928203e+00
    6823,   -4.000000e+00,   -7.692308e+00,   -6.928203e+00
    6824,   -4.000000e+00,   -3.846154e+00,   -6.928203e+00
    6825,   -6.928203e+00,   -4.615385e+01,   -4.000000e+00
    6826,   -6.928203e+00,   -4.230769e+01,   -4.000000e+00
    6827,   -6.928203e+00,   -3.846154e+01,   -4.000000e+00
    6828,   -6.928203e+00,   -3.461538e+01,   -4.000000e+00
    6829,   -6.928203e+00,   -3.076923e+01,   -4.000000e+00
    6830,   -6.928203e+00,   -2.692308e+01,   -4.000000e+00
    6831,   -6.928203e+00,   -2.307692e+01,   -4.000000e+00
    6832,   -6.928203e+00,   -1.923077e+01,   -4.000000e+00
    6833,   -6.928203e+00,   -1.538462e+01,   -4.000000e+00
    6834,   -6.928203e+00,   -1.153846e+01,   -4.000000e+00
    6835,   -6.928203e+00,   -7.692308e+00,   -4.000000e+00
    6836,   -6.928203e+00,   -3.846154e+00,   -4.000000e+00
    6837,   -9.000000e+00,    9.373499e-32,    0.000000e+00
    6838,   -4.500000e+00,   -4.772589e-16,   -7.794229e+00
    6839,   -7.794229e+00,   -2.755455e-16,   -4.500000e+00
    6840,   -9.000000e+00,   -5.000000e+01,    0.000000e+00
    6841,   -9.000000e+00,   -3.846154e+00,   -1.295299e-15
    6842,   -9.000000e+00,   -7.692308e+00,   -1.059790e-15
    6843,   -9.000000e+00,   -1.153846e+01,   -8.242815e-16
    6844,   -9.000000e+00,   -1.538462e+01,   -5.887725e-16
    6845,   -9.000000e+00,   -1.923077e+01,   -3.532635e-16
    6846,   -9.000000e+00,   -2.307692e+01,   -1.177545e-16
    6847,   -9.000000e+00,   -2.692308e+01,    1.177545e-16
    6848,   -9.000000e+00,   -3.076923e+01,    3.532635e-16
    6849,   -9.000000e+00,   -3.461538e+01,    5.887725e-16
    6850,   -9.000000e+00,   -3.846154e+01,    8.242815e-16
    6851,   -9.000000e+00,   -4.230769e+01,    1.059790e-15
    6852,   -9.000000e+00,   -4.615385e+01,    1.295299e-15
    6853,   -7.794229e+00,   -5.000000e+01,   -4.500000e+00
    6854,   -4.500000e+00,   -5.000000e+01,   -7.794229e+00
    6855,   -4.500000e+00,   -3.846154e+00,   -7.794229e+00
    6856,   -4.500000e+00,   -7.692308e+00,   -7.794229e+00
    6857,   -4.500000e+00,   -1.153846e+01,   -7.794229e+00
    6858,   -4.500000e+00,   -1.538462e+01,   -7.794229e+00
    6859,   -4.500000e+00,   -1.923077e+01,   -7.794229e+00
    6860,   -4.500000e+00,   -2.307692e+01,   -7.794229e+00
    6861,   -4.500000e+00,   -2.692308e+01,   -7.794229e+00
    6862,   -4.500000e+00,   -3.076923e+01,   -7.794229e+00
    6863,   -4.500000e+00,   -3.461538e+01,   -7.794229e+00
    6864,   -4.500000e+00,   -3.846154e+01,   -7.794229e+00
    6865,   -4.500000e+00,   -4.230769e+01,   -7.794229e+00
    6866,   -4.500000e+00,   -4.615385e+01,   -7.794229e+00
    6867,   -7.794229e+00,   -3.846154e+00,   -4.500000e+00
    6868,   -7.794229e+00,   -7.692308e+00,   -4.500000e+00
    6869,   -7.794229e+00,   -1.153846e+01,   -4.500000e+00
    6870,   -7.794229e+00,   -1.538462e+01,   -4.500000e+00
    6871,   -7.794229e+00,   -1.923077e+01,   -4.500000e+00
    6872,   -7.794229e+00,   -2.307692e+01,   -4.500000e+00
    6873,   -7.794229e+00,   -2.692308e+01,   -4.500000e+00
    6874,   -7.794229e+00,   -3.076923e+01,   -4.500000e+00
    6875,   -7.794229e+00,   -3.461538e+01,   -4.500000e+00
    6876,   -7.794229e+00,   -3.846154e+01,   -4.500000e+00
    6877,   -7.794229e+00,   -4.230769e+01,   -4.500000e+00
    6878,   -7.794229e+00,   -4.615385e+01,   -4.500000e+00
********************************** E L E M E N T S ****************************
*ELEMENT, TYPE=C3D8I, ELSET=steel
       1,    2027,    1913,    1917,    2044,    1901,    1900,    1903,    1905
       2,    2043,    2011,    2027,    2044,    1906,    1902,    1901,    1905
       3,    1969,    1924,    2011,    2043,    1899,    1898,    1902,    1906
       4,    1915,    1908,    1969,    2043,    1904,    1897,    1899,    1906
       5,    1917,    1915,    2043,    2044,    1903,    1904,    1906,    1905
       6,    2028,    1914,    1918,    2046,    2027,    1913,    1917,    2044
       7,    2045,    2012,    2028,    2046,    2043,    2011,    2027,    2044
       8,    1968,    1925,    2012,    2045,    1969,    1924,    2011,    2043
       9,    1916,    1909,    1968,    2045,    1915,    1908,    1969,    2043
      10,    1918,    1916,    2045,    2046,    1917,    1915,    2043,    2044
      11,    2029,    1910,    1911,    2048,    2028,    1914,    1918,    2046
      12,    2047,    2013,    2029,    2048,    2045,    2012,    2028,    2046
      13,    1967,    1926,    2013,    2047,    1968,    1925,    2012,    2045
      14,    1912,    1907,    1967,    2047,    1916,    1909,    1968,    2045
      15,    1911,    1912,    2047,    2048,    1918,    1916,    2045,    2046
      16,    2030,    1920,    1921,    2050,    2029,    1910,    1911,    2048
      17,    2049,    2014,    2030,    2050,    2047,    2013,    2029,    2048
      18,    1966,    1927,    2014,    2049,    1967,    1926,    2013,    2047
      19,    1922,    1919,    1966,    2049,    1912,    1907,    1967,    2047
      20,    1921,    1922,    2049,    2050,    1911,    1912,    2047,    2048
      21,    2031,    1982,    1986,    2052,    2030,    1920,    1921,    2050
      22,    2051,    2015,    2031,    2052,    2049,    2014,    2030,    2050
      23,    1965,    1928,    2015,    2051,    1966,    1927,    2014,    2049
      24,    1985,    1952,    1965,    2051,    1922,    1919,    1966,    2049
      25,    1986,    1985,    2051,    2052,    1921,    1922,    2049,    2050
      26,    2032,    1981,    1988,    2054,    2031,    1982,    1986,    2052
      27,    2053,    2016,    2032,    2054,    2051,    2015,    2031,    2052
      28,    1964,    1929,    2016,    2053,    1965,    1928,    2015,    2051
      29,    1987,    1951,    1964,    2053,    1985,    1952,    1965,    2051
      30,    1988,    1987,    2053,    2054,    1986,    1985,    2051,    2052
      31,    2033,    1980,    1990,    2056,    2032,    1981,    1988,    2054
      32,    2055,    2017,    2033,    2056,    2053,    2016,    2032,    2054
      33,    1963,    1930,    2017,    2055,    1964,    1929,    2016,    2053
      34,    1989,    1950,    1963,    2055,    1987,    1951,    1964,    2053
      35,    1990,    1989,    2055,    2056,    1988,    1987,    2053,    2054
      36,    2034,    1979,    1992,    2058,    2033,    1980,    1990,    2056
      37,    2057,    2018,    2034,    2058,    2055,    2017,    2033,    2056
      38,    1962,    1931,    2018,    2057,    1963,    1930,    2017,    2055
      39,    1991,    1949,    1962,    2057,    1989,    1950,    1963,    2055
      40,    1992,    1991,    2057,    2058,    1990,    1989,    2055,    2056
      41,    2035,    1978,    1994,    2060,    2034,    1979,    1992,    2058
      42,    2059,    2019,    2035,    2060,    2057,    2018,    2034,    2058
      43,    1961,    1932,    2019,    2059,    1962,    1931,    2018,    2057
      44,    1993,    1948,    1961,    2059,    1991,    1949,    1962,    2057
      45,    1994,    1993,    2059,    2060,    1992,    1991,    2057,    2058
      46,    2036,    1977,    1996,    2062,    2035,    1978,    1994,    2060
      47,    2061,    2020,    2036,    2062,    2059,    2019,    2035,    2060
      48,    1960,    1933,    2020,    2061,    1961,    1932,    2019,    2059
      49,    1995,    1947,    1960,    2061,    1993,    1948,    1961,    2059
      50,    1996,    1995,    2061,    2062,    1994,    1993,    2059,    2060
      51,    2037,    1976,    1998,    2064,    2036,    1977,    1996,    2062
      52,    2063,    2021,    2037,    2064,    2061,    2020,    2036,    2062
      53,    1959,    1934,    2021,    2063,    1960,    1933,    2020,    2061
      54,    1997,    1946,    1959,    2063,    1995,    1947,    1960,    2061
      55,    1998,    1997,    2063,    2064,    1996,    1995,    2061,    2062
      56,    2038,    1975,    2000,    2066,    2037,    1976,    1998,    2064
      57,    2065,    2022,    2038,    2066,    2063,    2021,    2037,    2064
      58,    1958,    1935,    2022,    2065,    1959,    1934,    2021,    2063
      59,    1999,    1945,    1958,    2065,    1997,    1946,    1959,    2063
      60,    2000,    1999,    2065,    2066,    1998,    1997,    2063,    2064
      61,    2039,    1974,    2002,    2068,    2038,    1975,    2000,    2066
      62,    2067,    2023,    2039,    2068,    2065,    2022,    2038,    2066
      63,    1957,    1936,    2023,    2067,    1958,    1935,    2022,    2065
      64,    2001,    1944,    1957,    2067,    1999,    1945,    1958,    2065
      65,    2002,    2001,    2067,    2068,    2000,    1999,    2065,    2066
      66,    2040,    1973,    2004,    2070,    2039,    1974,    2002,    2068
      67,    2069,    2024,    2040,    2070,    2067,    2023,    2039,    2068
      68,    1956,    1937,    2024,    2069,    1957,    1936,    2023,    2067
      69,    2003,    1943,    1956,    2069,    2001,    1944,    1957,    2067
      70,    2004,    2003,    2069,    2070,    2002,    2001,    2067,    2068
      71,    2041,    1972,    2006,    2072,    2040,    1973,    2004,    2070
      72,    2071,    2025,    2041,    2072,    2069,    2024,    2040,    2070
      73,    1955,    1938,    2025,    2071,    1956,    1937,    2024,    2069
      74,    2005,    1942,    1955,    2071,    2003,    1943,    1956,    2069
      75,    2006,    2005,    2071,    2072,    2004,    2003,    2069,    2070
      76,    2042,    1971,    2008,    2074,    2041,    1972,    2006,    2072
      77,    2073,    2026,    2042,    2074,    2071,    2025,    2041,    2072
      78,    1954,    1939,    2026,    2073,    1955,    1938,    2025,    2071
      79,    2007,    1941,    1954,    2073,    2005,    1942,    1955,    2071
      80,    2008,    2007,    2073,    2074,    2006,    2005,    2071,    2072
      81,    2010,    1970,    1984,    2076,    2042,    1971,    2008,    2074
      82,    2075,    2009,    2010,    2076,    2073,    2026,    2042,    2074
      83,    1953,    1923,    2009,    2075,    1954,    1939,    2026,    2073
      84,    1983,    1940,    1953,    2075,    2007,    1941,    1954,    2073
      85,    1984,    1983,    2075,    2076,    2008,    2007,    2073,    2074
      86,    2421,    2439,    2431,    2432,    2129,    2146,    2139,    2140
      87,    2421,    2422,    2436,    2439,    2129,    2130,    2147,    2146
      88,    2439,    2436,    2441,    2438,    2146,    2147,    2149,    2145
      89,    2437,    2438,    2441,    2440,    2144,    2145,    2149,    2148
      90,    2435,    2440,    2441,    2436,    2143,    2148,    2149,    2147
      91,    2426,    2427,    2437,    2440,    2134,    2135,    2144,    2148
      92,    2425,    2426,    2440,    2435,    2133,    2134,    2148,    2143
      93,    2430,    2431,    2439,    2438,    2138,    2139,    2146,    2145
      94,    2429,    2430,    2438,    2437,    2137,    2138,    2145,    2144
      95,    2428,    2429,    2437,    2427,    2136,    2137,    2144,    2135
      96,    2423,    2424,    2425,    2435,    2131,    2132,    2133,    2143
      97,    2422,    2423,    2435,    2436,    2130,    2131,    2143,    2147
      98,    2420,    2421,    2432,    2433,    2128,    2129,    2140,    2142
      99,    2419,    2420,    2433,    2434,    2127,    2128,    2142,    2141
     100,    2412,    2413,    2419,    2434,    2120,    2121,    2127,    2141
     101,    2411,    2412,    2434,    2433,    2119,    2120,    2141,    2142
     102,    2410,    2411,    2433,    2432,    2118,    2119,    2142,    2140
     103,    2409,    2410,    2432,    2431,    2117,    2118,    2140,    2139
     104,    2408,    2409,    2431,    2430,    2116,    2117,    2139,    2138
     105,    2407,    2408,    2430,    2429,    2115,    2116,    2138,    2137
     106,    2406,    2407,    2429,    2428,    2114,    2115,    2137,    2136
     107,    2418,    2405,    2406,    2428,    2126,    2113,    2114,    2136
     108,    2417,    2418,    2428,    2427,    2125,    2126,    2136,    2135
     109,    2416,    2417,    2427,    2426,    2124,    2125,    2135,    2134
     110,    2415,    2416,    2426,    2425,    2123,    2124,    2134,    2133
     111,    2414,    2415,    2425,    2424,    2122,    2123,    2133,    2132
     112,    2403,    2404,    2414,    2424,    2111,    2112,    2122,    2132
     113,    2402,    2403,    2424,    2423,    2110,    2111,    2132,    2131
     114,    2401,    2402,    2423,    2422,    2109,    2110,    2131,    2130
     115,    2400,    2401,    2422,    2421,    2108,    2109,    2130,    2129
     116,    2399,    2400,    2421,    2420,    2107,    2108,    2129,    2128
     117,    2398,    2399,    2420,    2419,    2106,    2107,    2128,    2127
     118,    2397,    2398,    2419,    2413,    2105,    2106,    2127,    2121
     119,    1922,    1921,    2410,    2409,    1912,    1911,    2118,    2117
     120,    2381,    2382,    2405,    2418,    2099,    2098,    2113,    2126
     121,    2380,    2381,    2418,    2417,    2100,    2099,    2126,    2125
     122,    2379,    2380,    2417,    2416,    2101,    2100,    2125,    2124
     123,    2378,    2379,    2416,    2415,    2102,    2101,    2124,    2123
     124,    2377,    2378,    2415,    2414,    2103,    2102,    2123,    2122
     125,    2376,    2377,    2414,    2404,    2104,    2103,    2122,    2112
     126,    2387,    2388,    2397,    2413,    2085,    2084,    2105,    2121
     127,    2386,    2387,    2413,    2412,    2086,    2085,    2121,    2120
     128,    2385,    2386,    2412,    2411,    2087,    2086,    2120,    2119
     129,    2384,    2385,    2411,    2410,    2088,    2087,    2119,    2118
     130,    1920,    2384,    2410,    1921,    1910,    2088,    2118,    1911
     131,    2370,    1919,    1922,    2409,    2082,    1907,    1912,    2117
     132,    2371,    2370,    2409,    2408,    2081,    2082,    2117,    2116
     133,    2372,    2371,    2408,    2407,    2080,    2081,    2116,    2115
     134,    2373,    2372,    2407,    2406,    2079,    2080,    2115,    2114
     135,    2374,    2373,    2406,    2405,    2078,    2079,    2114,    2113
     136,    2369,    2374,    2405,    2382,    2077,    2078,    2113,    2098
     137,    2396,    2375,    2376,    2404,    2090,    2089,    2104,    2112
     138,    2395,    2396,    2404,    2403,    2091,    2090,    2112,    2111
     139,    2394,    2395,    2403,    2402,    2092,    2091,    2111,    2110
     140,    2393,    2394,    2402,    2401,    2093,    2092,    2110,    2109
     141,    2392,    2393,    2401,    2400,    2094,    2093,    2109,    2108
     142,    2391,    2392,    2400,    2399,    2095,    2094,    2108,    2107
     143,    2390,    2391,    2399,    2398,    2096,    2095,    2107,    2106
     144,    2389,    2390,    2398,    2397,    2097,    2096,    2106,    2105
     145,    2383,    2389,    2397,    2388,    2083,    2097,    2105,    2084
     146,    2129,    2146,    2139,    2140,    2258,    2276,    2268,    2269
     147,    2129,    2130,    2147,    2146,    2258,    2259,    2272,    2276
     148,    2146,    2147,    2149,    2145,    2276,    2272,    2278,    2275
     149,    2144,    2145,    2149,    2148,    2274,    2275,    2278,    2277
     150,    2143,    2148,    2149,    2147,    2273,    2277,    2278,    2272
     151,    2134,    2135,    2144,    2148,    2263,    2264,    2274,    2277
     152,    2133,    2134,    2148,    2143,    2262,    2263,    2277,    2273
     153,    2138,    2139,    2146,    2145,    2267,    2268,    2276,    2275
     154,    2137,    2138,    2145,    2144,    2266,    2267,    2275,    2274
     155,    2136,    2137,    2144,    2135,    2265,    2266,    2274,    2264
     156,    2131,    2132,    2133,    2143,    2260,    2261,    2262,    2273
     157,    2130,    2131,    2143,    2147,    2259,    2260,    2273,    2272
     158,    2128,    2129,    2140,    2142,    2257,    2258,    2269,    2270
     159,    2127,    2128,    2142,    2141,    2256,    2257,    2270,    2271
     160,    2120,    2121,    2127,    2141,    2249,    2250,    2256,    2271
     161,    2119,    2120,    2141,    2142,    2248,    2249,    2271,    2270
     162,    2118,    2119,    2142,    2140,    2247,    2248,    2270,    2269
     163,    2117,    2118,    2140,    2139,    2246,    2247,    2269,    2268
     164,    2116,    2117,    2139,    2138,    2245,    2246,    2268,    2267
     165,    2115,    2116,    2138,    2137,    2244,    2245,    2267,    2266
     166,    2114,    2115,    2137,    2136,    2243,    2244,    2266,    2265
     167,    2126,    2113,    2114,    2136,    2255,    2242,    2243,    2265
     168,    2125,    2126,    2136,    2135,    2254,    2255,    2265,    2264
     169,    2124,    2125,    2135,    2134,    2253,    2254,    2264,    2263
     170,    2123,    2124,    2134,    2133,    2252,    2253,    2263,    2262
     171,    2122,    2123,    2133,    2132,    2251,    2252,    2262,    2261
     172,    2111,    2112,    2122,    2132,    2240,    2241,    2251,    2261
     173,    2110,    2111,    2132,    2131,    2239,    2240,    2261,    2260
     174,    2109,    2110,    2131,    2130,    2238,    2239,    2260,    2259
     175,    2108,    2109,    2130,    2129,    2237,    2238,    2259,    2258
     176,    2107,    2108,    2129,    2128,    2236,    2237,    2258,    2257
     177,    2106,    2107,    2128,    2127,    2235,    2236,    2257,    2256
     178,    2105,    2106,    2127,    2121,    2234,    2235,    2256,    2250
     179,    1912,    1911,    2118,    2117,    1916,    1918,    2247,    2246
     180,    2099,    2098,    2113,    2126,    2180,    2178,    2242,    2255
     181,    2100,    2099,    2126,    2125,    2182,    2180,    2255,    2254
     182,    2101,    2100,    2125,    2124,    2184,    2182,    2254,    2253
     183,    2102,    2101,    2124,    2123,    2186,    2184,    2253,    2252
     184,    2103,    2102,    2123,    2122,    2188,    2186,    2252,    2251
     185,    2104,    2103,    2122,    2112,    2190,    2188,    2251,    2241
     186,    2085,    2084,    2105,    2121,    2203,    2204,    2234,    2250
     187,    2086,    2085,    2121,    2120,    2202,    2203,    2250,    2249
     188,    2087,    2086,    2120,    2119,    2201,    2202,    2249,    2248
     189,    2088,    2087,    2119,    2118,    2200,    2201,    2248,    2247
     190,    1910,    2088,    2118,    1911,    1914,    2200,    2247,    1918
     191,    2082,    1907,    1912,    2117,    2158,    1909,    1916,    2246
     192,    2081,    2082,    2117,    2116,    2160,    2158,    2246,    2245
     193,    2080,    2081,    2116,    2115,    2162,    2160,    2245,    2244
     194,    2079,    2080,    2115,    2114,    2164,    2162,    2244,    2243
     195,    2078,    2079,    2114,    2113,    2166,    2164,    2243,    2242
     196,    2077,    2078,    2113,    2098,    2156,    2166,    2242,    2178
     197,    2090,    2089,    2104,    2112,    2233,    2177,    2190,    2241
     198,    2091,    2090,    2112,    2111,    2231,    2233,    2241,    2240
     199,    2092,    2091,    2111,    2110,    2229,    2231,    2240,    2239
     200,    2093,    2092,    2110,    2109,    2227,    2229,    2239,    2238
     201,    2094,    2093,    2109,    2108,    2225,    2227,    2238,    2237
     202,    2095,    2094,    2108,    2107,    2223,    2225,    2237,    2236
     203,    2096,    2095,    2107,    2106,    2221,    2223,    2236,    2235
     204,    2097,    2096,    2106,    2105,    2219,    2221,    2235,    2234
     205,    2083,    2097,    2105,    2084,    2193,    2219,    2234,    2204
     206,    2258,    2276,    2268,    2269,    2303,    2321,    2313,    2314
     207,    2258,    2259,    2272,    2276,    2303,    2304,    2317,    2321
     208,    2276,    2272,    2278,    2275,    2321,    2317,    2323,    2320
     209,    2274,    2275,    2278,    2277,    2319,    2320,    2323,    2322
     210,    2273,    2277,    2278,    2272,    2318,    2322,    2323,    2317
     211,    2263,    2264,    2274,    2277,    2308,    2309,    2319,    2322
     212,    2262,    2263,    2277,    2273,    2307,    2308,    2322,    2318
     213,    2267,    2268,    2276,    2275,    2312,    2313,    2321,    2320
     214,    2266,    2267,    2275,    2274,    2311,    2312,    2320,    2319
     215,    2265,    2266,    2274,    2264,    2310,    2311,    2319,    2309
     216,    2260,    2261,    2262,    2273,    2305,    2306,    2307,    2318
     217,    2259,    2260,    2273,    2272,    2304,    2305,    2318,    2317
     218,    2257,    2258,    2269,    2270,    2302,    2303,    2314,    2315
     219,    2256,    2257,    2270,    2271,    2301,    2302,    2315,    2316
     220,    2249,    2250,    2256,    2271,    2294,    2295,    2301,    2316
     221,    2248,    2249,    2271,    2270,    2293,    2294,    2316,    2315
     222,    2247,    2248,    2270,    2269,    2292,    2293,    2315,    2314
     223,    2246,    2247,    2269,    2268,    2291,    2292,    2314,    2313
     224,    2245,    2246,    2268,    2267,    2290,    2291,    2313,    2312
     225,    2244,    2245,    2267,    2266,    2289,    2290,    2312,    2311
     226,    2243,    2244,    2266,    2265,    2288,    2289,    2311,    2310
     227,    2255,    2242,    2243,    2265,    2300,    2287,    2288,    2310
     228,    2254,    2255,    2265,    2264,    2299,    2300,    2310,    2309
     229,    2253,    2254,    2264,    2263,    2298,    2299,    2309,    2308
     230,    2252,    2253,    2263,    2262,    2297,    2298,    2308,    2307
     231,    2251,    2252,    2262,    2261,    2296,    2297,    2307,    2306
     232,    2240,    2241,    2251,    2261,    2285,    2286,    2296,    2306
     233,    2239,    2240,    2261,    2260,    2284,    2285,    2306,    2305
     234,    2238,    2239,    2260,    2259,    2283,    2284,    2305,    2304
     235,    2237,    2238,    2259,    2258,    2282,    2283,    2304,    2303
     236,    2236,    2237,    2258,    2257,    2281,    2282,    2303,    2302
     237,    2235,    2236,    2257,    2256,    2280,    2281,    2302,    2301
     238,    2234,    2235,    2256,    2250,    2279,    2280,    2301,    2295
     239,    1916,    1918,    2247,    2246,    1915,    1917,    2292,    2291
     240,    2180,    2178,    2242,    2255,    2181,    2179,    2287,    2300
     241,    2182,    2180,    2255,    2254,    2183,    2181,    2300,    2299
     242,    2184,    2182,    2254,    2253,    2185,    2183,    2299,    2298
     243,    2186,    2184,    2253,    2252,    2187,    2185,    2298,    2297
     244,    2188,    2186,    2252,    2251,    2189,    2187,    2297,    2296
     245,    2190,    2188,    2251,    2241,    2191,    2189,    2296,    2286
     246,    2203,    2204,    2234,    2250,    2208,    2209,    2279,    2295
     247,    2202,    2203,    2250,    2249,    2207,    2208,    2295,    2294
     248,    2201,    2202,    2249,    2248,    2206,    2207,    2294,    2293
     249,    2200,    2201,    2248,    2247,    2205,    2206,    2293,    2292
     250,    1914,    2200,    2247,    1918,    1913,    2205,    2292,    1917
     251,    2158,    1909,    1916,    2246,    2159,    1908,    1915,    2291
     252,    2160,    2158,    2246,    2245,    2161,    2159,    2291,    2290
     253,    2162,    2160,    2245,    2244,    2163,    2161,    2290,    2289
     254,    2164,    2162,    2244,    2243,    2165,    2163,    2289,    2288
     255,    2166,    2164,    2243,    2242,    2167,    2165,    2288,    2287
     256,    2156,    2166,    2242,    2178,    2157,    2167,    2287,    2179
     257,    2233,    2177,    2190,    2241,    2232,    2176,    2191,    2286
     258,    2231,    2233,    2241,    2240,    2230,    2232,    2286,    2285
     259,    2229,    2231,    2240,    2239,    2228,    2230,    2285,    2284
     260,    2227,    2229,    2239,    2238,    2226,    2228,    2284,    2283
     261,    2225,    2227,    2238,    2237,    2224,    2226,    2283,    2282
     262,    2223,    2225,    2237,    2236,    2222,    2224,    2282,    2281
     263,    2221,    2223,    2236,    2235,    2220,    2222,    2281,    2280
     264,    2219,    2221,    2235,    2234,    2218,    2220,    2280,    2279
     265,    2193,    2219,    2234,    2204,    2194,    2218,    2279,    2209
     266,    2303,    2321,    2313,    2314,    2348,    2366,    2358,    2359
     267,    2303,    2304,    2317,    2321,    2348,    2349,    2362,    2366
     268,    2321,    2317,    2323,    2320,    2366,    2362,    2368,    2365
     269,    2319,    2320,    2323,    2322,    2364,    2365,    2368,    2367
     270,    2318,    2322,    2323,    2317,    2363,    2367,    2368,    2362
     271,    2308,    2309,    2319,    2322,    2353,    2354,    2364,    2367
     272,    2307,    2308,    2322,    2318,    2352,    2353,    2367,    2363
     273,    2312,    2313,    2321,    2320,    2357,    2358,    2366,    2365
     274,    2311,    2312,    2320,    2319,    2356,    2357,    2365,    2364
     275,    2310,    2311,    2319,    2309,    2355,    2356,    2364,    2354
     276,    2305,    2306,    2307,    2318,    2350,    2351,    2352,    2363
     277,    2304,    2305,    2318,    2317,    2349,    2350,    2363,    2362
     278,    2302,    2303,    2314,    2315,    2347,    2348,    2359,    2360
     279,    2301,    2302,    2315,    2316,    2346,    2347,    2360,    2361
     280,    2294,    2295,    2301,    2316,    2339,    2340,    2346,    2361
     281,    2293,    2294,    2316,    2315,    2338,    2339,    2361,    2360
     282,    2292,    2293,    2315,    2314,    2337,    2338,    2360,    2359
     283,    2291,    2292,    2314,    2313,    2336,    2337,    2359,    2358
     284,    2290,    2291,    2313,    2312,    2335,    2336,    2358,    2357
     285,    2289,    2290,    2312,    2311,    2334,    2335,    2357,    2356
     286,    2288,    2289,    2311,    2310,    2333,    2334,    2356,    2355
     287,    2300,    2287,    2288,    2310,    2345,    2332,    2333,    2355
     288,    2299,    2300,    2310,    2309,    2344,    2345,    2355,    2354
     289,    2298,    2299,    2309,    2308,    2343,    2344,    2354,    2353
     290,    2297,    2298,    2308,    2307,    2342,    2343,    2353,    2352
     291,    2296,    2297,    2307,    2306,    2341,    2342,    2352,    2351
     292,    2285,    2286,    2296,    2306,    2330,    2331,    2341,    2351
     293,    2284,    2285,    2306,    2305,    2329,    2330,    2351,    2350
     294,    2283,    2284,    2305,    2304,    2328,    2329,    2350,    2349
     295,    2282,    2283,    2304,    2303,    2327,    2328,    2349,    2348
     296,    2281,    2282,    2303,    2302,    2326,    2327,    2348,    2347
     297,    2280,    2281,    2302,    2301,    2325,    2326,    2347,    2346
     298,    2279,    2280,    2301,    2295,    2324,    2325,    2346,    2340
     299,    1915,    1917,    2292,    2291,    1904,    1903,    2337,    2336
     300,    2181,    2179,    2287,    2300,    2170,    2169,    2332,    2345
     301,    2183,    2181,    2300,    2299,    2171,    2170,    2345,    2344
     302,    2185,    2183,    2299,    2298,    2172,    2171,    2344,    2343
     303,    2187,    2185,    2298,    2297,    2173,    2172,    2343,    2342
     304,    2189,    2187,    2297,    2296,    2174,    2173,    2342,    2341
     305,    2191,    2189,    2296,    2286,    2175,    2174,    2341,    2331
     306,    2208,    2209,    2279,    2295,    2196,    2195,    2324,    2340
     307,    2207,    2208,    2295,    2294,    2197,    2196,    2340,    2339
     308,    2206,    2207,    2294,    2293,    2198,    2197,    2339,    2338
     309,    2205,    2206,    2293,    2292,    2199,    2198,    2338,    2337
     310,    1913,    2205,    2292,    1917,    1900,    2199,    2337,    1903
     311,    2159,    1908,    1915,    2291,    2155,    1897,    1904,    2336
     312,    2161,    2159,    2291,    2290,    2154,    2155,    2336,    2335
     313,    2163,    2161,    2290,    2289,    2153,    2154,    2335,    2334
     314,    2165,    2163,    2289,    2288,    2152,    2153,    2334,    2333
     315,    2167,    2165,    2288,    2287,    2151,    2152,    2333,    2332
     316,    2157,    2167,    2287,    2179,    2150,    2151,    2332,    2169
     317,    2232,    2176,    2191,    2286,    2217,    2168,    2175,    2331
     318,    2230,    2232,    2286,    2285,    2216,    2217,    2331,    2330
     319,    2228,    2230,    2285,    2284,    2215,    2216,    2330,    2329
     320,    2226,    2228,    2284,    2283,    2214,    2215,    2329,    2328
     321,    2224,    2226,    2283,    2282,    2213,    2214,    2328,    2327
     322,    2222,    2224,    2282,    2281,    2212,    2213,    2327,    2326
     323,    2220,    2222,    2281,    2280,    2211,    2212,    2326,    2325
     324,    2218,    2220,    2280,    2279,    2210,    2211,    2325,    2324
     325,    2194,    2218,    2279,    2209,    2192,    2210,    2324,    2195
     326,    4484,    4467,    4522,    4525,    4433,    4432,    4435,    4437
     327,    4524,    4468,    4484,    4525,    4438,    4434,    4433,    4437
     328,    1954,    1939,    4468,    4524,    1953,    1923,    4434,    4438
     329,    4523,    1941,    1954,    4524,    4436,    1940,    1953,    4438
     330,    4522,    4523,    4524,    4525,    4435,    4436,    4438,    4437
     331,    4485,    4466,    4520,    4527,    4484,    4467,    4522,    4525
     332,    4526,    4469,    4485,    4527,    4524,    4468,    4484,    4525
     333,    1955,    1938,    4469,    4526,    1954,    1939,    4468,    4524
     334,    4521,    1942,    1955,    4526,    4523,    1941,    1954,    4524
     335,    4520,    4521,    4526,    4527,    4522,    4523,    4524,    4525
     336,    4486,    4465,    4518,    4529,    4485,    4466,    4520,    4527
     337,    4528,    4470,    4486,    4529,    4526,    4469,    4485,    4527
     338,    1956,    1937,    4470,    4528,    1955,    1938,    4469,    4526
     339,    4519,    1943,    1956,    4528,    4521,    1942,    1955,    4526
     340,    4518,    4519,    4528,    4529,    4520,    4521,    4526,    4527
     341,    4487,    4464,    4516,    4531,    4486,    4465,    4518,    4529
     342,    4530,    4471,    4487,    4531,    4528,    4470,    4486,    4529
     343,    1957,    1936,    4471,    4530,    1956,    1937,    4470,    4528
     344,    4517,    1944,    1957,    4530,    4519,    1943,    1956,    4528
     345,    4516,    4517,    4530,    4531,    4518,    4519,    4528,    4529
     346,    4488,    4463,    4514,    4533,    4487,    4464,    4516,    4531
     347,    4532,    4472,    4488,    4533,    4530,    4471,    4487,    4531
     348,    1958,    1935,    4472,    4532,    1957,    1936,    4471,    4530
     349,    4515,    1945,    1958,    4532,    4517,    1944,    1957,    4530
     350,    4514,    4515,    4532,    4533,    4516,    4517,    4530,    4531
     351,    4489,    4462,    4512,    4535,    4488,    4463,    4514,    4533
     352,    4534,    4473,    4489,    4535,    4532,    4472,    4488,    4533
     353,    1959,    1934,    4473,    4534,    1958,    1935,    4472,    4532
     354,    4513,    1946,    1959,    4534,    4515,    1945,    1958,    4532
     355,    4512,    4513,    4534,    4535,    4514,    4515,    4532,    4533
     356,    4490,    4461,    4510,    4537,    4489,    4462,    4512,    4535
     357,    4536,    4474,    4490,    4537,    4534,    4473,    4489,    4535
     358,    1960,    1933,    4474,    4536,    1959,    1934,    4473,    4534
     359,    4511,    1947,    1960,    4536,    4513,    1946,    1959,    4534
     360,    4510,    4511,    4536,    4537,    4512,    4513,    4534,    4535
     361,    4491,    4460,    4508,    4539,    4490,    4461,    4510,    4537
     362,    4538,    4475,    4491,    4539,    4536,    4474,    4490,    4537
     363,    1961,    1932,    4475,    4538,    1960,    1933,    4474,    4536
     364,    4509,    1948,    1961,    4538,    4511,    1947,    1960,    4536
     365,    4508,    4509,    4538,    4539,    4510,    4511,    4536,    4537
     366,    4492,    4459,    4506,    4541,    4491,    4460,    4508,    4539
     367,    4540,    4476,    4492,    4541,    4538,    4475,    4491,    4539
     368,    1962,    1931,    4476,    4540,    1961,    1932,    4475,    4538
     369,    4507,    1949,    1962,    4540,    4509,    1948,    1961,    4538
     370,    4506,    4507,    4540,    4541,    4508,    4509,    4538,    4539
     371,    4493,    4458,    4504,    4543,    4492,    4459,    4506,    4541
     372,    4542,    4477,    4493,    4543,    4540,    4476,    4492,    4541
     373,    1963,    1930,    4477,    4542,    1962,    1931,    4476,    4540
     374,    4505,    1950,    1963,    4542,    4507,    1949,    1962,    4540
     375,    4504,    4505,    4542,    4543,    4506,    4507,    4540,    4541
     376,    4494,    4457,    4502,    4545,    4493,    4458,    4504,    4543
     377,    4544,    4478,    4494,    4545,    4542,    4477,    4493,    4543
     378,    1964,    1929,    4478,    4544,    1963,    1930,    4477,    4542
     379,    4503,    1951,    1964,    4544,    4505,    1950,    1963,    4542
     380,    4502,    4503,    4544,    4545,    4504,    4505,    4542,    4543
     381,    4495,    4456,    4500,    4547,    4494,    4457,    4502,    4545
     382,    4546,    4479,    4495,    4547,    4544,    4478,    4494,    4545
     383,    1965,    1928,    4479,    4546,    1964,    1929,    4478,    4544
     384,    4501,    1952,    1965,    4546,    4503,    1951,    1964,    4544
     385,    4500,    4501,    4546,    4547,    4502,    4503,    4544,    4545
     386,    4496,    4451,    4453,    4549,    4495,    4456,    4500,    4547
     387,    4548,    4480,    4496,    4549,    4546,    4479,    4495,    4547
     388,    1966,    1927,    4480,    4548,    1965,    1928,    4479,    4546
     389,    4452,    1919,    1966,    4548,    4501,    1952,    1965,    4546
     390,    4453,    4452,    4548,    4549,    4500,    4501,    4546,    4547
     391,    4497,    4442,    4446,    4551,    4496,    4451,    4453,    4549
     392,    4550,    4481,    4497,    4551,    4548,    4480,    4496,    4549
     393,    1967,    1926,    4481,    4550,    1966,    1927,    4480,    4548
     394,    4445,    1907,    1967,    4550,    4452,    1919,    1966,    4548
     395,    4446,    4445,    4550,    4551,    4453,    4452,    4548,    4549
     396,    4498,    4443,    4449,    4553,    4497,    4442,    4446,    4551
     397,    4552,    4482,    4498,    4553,    4550,    4481,    4497,    4551
     398,    1968,    1925,    4482,    4552,    1967,    1926,    4481,    4550
     399,    4447,    1909,    1968,    4552,    4445,    1907,    1967,    4550
     400,    4449,    4447,    4552,    4553,    4446,    4445,    4550,    4551
     401,    4499,    4444,    4450,    4555,    4498,    4443,    4449,    4553
     402,    4554,    4483,    4499,    4555,    4552,    4482,    4498,    4553
     403,    1969,    1924,    4483,    4554,    1968,    1925,    4482,    4552
     404,    4448,    1908,    1969,    4554,    4447,    1909,    1968,    4552
     405,    4450,    4448,    4554,    4555,    4449,    4447,    4552,    4553
     406,    4455,    4439,    4441,    4557,    4499,    4444,    4450,    4555
     407,    4556,    4454,    4455,    4557,    4554,    4483,    4499,    4555
     408,    1899,    1898,    4454,    4556,    1969,    1924,    4483,    4554
     409,    4440,    1897,    1899,    4556,    4448,    1908,    1969,    4554
     410,    4441,    4440,    4556,    4557,    4450,    4448,    4554,    4555
     411,    4915,    4917,    4913,    4914,    4627,    4629,    4625,    4626
     412,    4917,    4916,    4912,    4913,    4629,    4628,    4624,    4625
     413,    4907,    4908,    4916,    4917,    4619,    4620,    4628,    4629
     414,    4906,    4907,    4917,    4915,    4618,    4619,    4629,    4627
     415,    4910,    4911,    4912,    4916,    4622,    4623,    4624,    4628
     416,    4909,    4910,    4916,    4908,    4621,    4622,    4628,    4620
     417,    4898,    4899,    4906,    4915,    4610,    4611,    4618,    4627
     418,    4897,    4898,    4915,    4914,    4609,    4610,    4627,    4626
     419,    4905,    4896,    4897,    4914,    4617,    4608,    4609,    4626
     420,    4904,    4905,    4914,    4913,    4616,    4617,    4626,    4625
     421,    4903,    4904,    4913,    4912,    4615,    4616,    4625,    4624
     422,    4902,    4903,    4912,    4911,    4614,    4615,    4624,    4623
     423,    4901,    4902,    4911,    4910,    4613,    4614,    4623,    4622
     424,    4900,    4901,    4910,    4909,    4612,    4613,    4622,    4621
     425,    4894,    4895,    4900,    4909,    4606,    4607,    4612,    4621
     426,    4893,    4894,    4909,    4908,    4605,    4606,    4621,    4620
     427,    4892,    4893,    4908,    4907,    4604,    4605,    4620,    4619
     428,    4891,    4892,    4907,    4906,    4603,    4604,    4619,    4618
     429,    4890,    4891,    4906,    4899,    4602,    4603,    4618,    4611
     430,    4878,    4879,    4896,    4905,    4590,    4591,    4608,    4617
     431,    4877,    4878,    4905,    4904,    4589,    4590,    4617,    4616
     432,    4876,    4877,    4904,    4903,    4588,    4589,    4616,    4615
     433,    4884,    4876,    4903,    4902,    4596,    4588,    4615,    4614
     434,    4883,    4884,    4902,    4901,    4595,    4596,    4614,    4613
     435,    4882,    4883,    4901,    4900,    4594,    4595,    4613,    4612
     436,    4881,    4882,    4900,    4895,    4593,    4594,    4612,    4607
     437,    4888,    4889,    4890,    4899,    4600,    4601,    4602,    4611
     438,    4887,    4888,    4899,    4898,    4599,    4600,    4611,    4610
     439,    4886,    4887,    4898,    4897,    4598,    4599,    4610,    4609
     440,    4885,    4886,    4897,    4896,    4597,    4598,    4609,    4608
     441,    4880,    4885,    4896,    4879,    4592,    4597,    4608,    4591
     442,    4874,    4875,    4881,    4895,    4586,    4587,    4593,    4607
     443,    4873,    4874,    4895,    4894,    4585,    4586,    4607,    4606
     444,    4872,    4873,    4894,    4893,    4584,    4585,    4606,    4605
     445,    4871,    4872,    4893,    4892,    4583,    4584,    4605,    4604
     446,    4870,    4871,    4892,    4891,    4582,    4583,    4604,    4603
     447,    4869,    4870,    4891,    4890,    4581,    4582,    4603,    4602
     448,    4868,    4869,    4890,    4889,    4580,    4581,    4602,    4601
     449,    4453,    4452,    4876,    4884,    4446,    4445,    4588,    4596
     450,    4866,    4867,    4868,    4889,    4560,    4559,    4580,    4601
     451,    4865,    4866,    4889,    4888,    4561,    4560,    4601,    4600
     452,    4864,    4865,    4888,    4887,    4562,    4561,    4600,    4599
     453,    4863,    4864,    4887,    4886,    4563,    4562,    4599,    4598
     454,    4862,    4863,    4886,    4885,    4564,    4563,    4598,    4597
     455,    4861,    4862,    4885,    4880,    4565,    4564,    4597,    4592
     456,    4851,    4451,    4453,    4884,    4575,    4442,    4446,    4596
     457,    4850,    4851,    4884,    4883,    4576,    4575,    4596,    4595
     458,    4849,    4850,    4883,    4882,    4577,    4576,    4595,    4594
     459,    4848,    4849,    4882,    4881,    4578,    4577,    4594,    4593
     460,    4847,    4848,    4881,    4875,    4579,    4578,    4593,    4587
     461,    2374,    2369,    4861,    4880,    2078,    2077,    4565,    4592
     462,    2373,    2374,    4880,    4879,    2079,    2078,    4592,    4591
     463,    2372,    2373,    4879,    4878,    2080,    2079,    4591,    4590
     464,    2371,    2372,    4878,    4877,    2081,    2080,    4590,    4589
     465,    2370,    2371,    4877,    4876,    2082,    2081,    4589,    4588
     466,    1919,    2370,    4876,    4452,    1907,    2082,    4588,    4445
     467,    4853,    4846,    4847,    4875,    4567,    4566,    4579,    4587
     468,    4854,    4853,    4875,    4874,    4568,    4567,    4587,    4586
     469,    4855,    4854,    4874,    4873,    4569,    4568,    4586,    4585
     470,    4856,    4855,    4873,    4872,    4570,    4569,    4585,    4584
     471,    4857,    4856,    4872,    4871,    4571,    4570,    4584,    4583
     472,    4858,    4857,    4871,    4870,    4572,    4571,    4583,    4582
     473,    4859,    4858,    4870,    4869,    4573,    4572,    4582,    4581
     474,    4860,    4859,    4869,    4868,    4574,    4573,    4581,    4580
     475,    4852,    4860,    4868,    4867,    4558,    4574,    4580,    4559
     476,    4627,    4629,    4625,    4626,    4743,    4745,    4741,    4742
     477,    4629,    4628,    4624,    4625,    4745,    4744,    4740,    4741
     478,    4619,    4620,    4628,    4629,    4735,    4736,    4744,    4745
     479,    4618,    4619,    4629,    4627,    4734,    4735,    4745,    4743
     480,    4622,    4623,    4624,    4628,    4738,    4739,    4740,    4744
     481,    4621,    4622,    4628,    4620,    4737,    4738,    4744,    4736
     482,    4610,    4611,    4618,    4627,    4726,    4727,    4734,    4743
     483,    4609,    4610,    4627,    4626,    4725,    4726,    4743,    4742
     484,    4617,    4608,    4609,    4626,    4733,    4724,    4725,    4742
     485,    4616,    4617,    4626,    4625,    4732,    4733,    4742,    4741
     486,    4615,    4616,    4625,    4624,    4731,    4732,    4741,    4740
     487,    4614,    4615,    4624,    4623,    4730,    4731,    4740,    4739
     488,    4613,    4614,    4623,    4622,    4729,    4730,    4739,    4738
     489,    4612,    4613,    4622,    4621,    4728,    4729,    4738,    4737
     490,    4606,    4607,    4612,    4621,    4722,    4723,    4728,    4737
     491,    4605,    4606,    4621,    4620,    4721,    4722,    4737,    4736
     492,    4604,    4605,    4620,    4619,    4720,    4721,    4736,    4735
     493,    4603,    4604,    4619,    4618,    4719,    4720,    4735,    4734
     494,    4602,    4603,    4618,    4611,    4718,    4719,    4734,    4727
     495,    4590,    4591,    4608,    4617,    4706,    4707,    4724,    4733
     496,    4589,    4590,    4617,    4616,    4705,    4706,    4733,    4732
     497,    4588,    4589,    4616,    4615,    4704,    4705,    4732,    4731
     498,    4596,    4588,    4615,    4614,    4712,    4704,    4731,    4730
     499,    4595,    4596,    4614,    4613,    4711,    4712,    4730,    4729
     500,    4594,    4595,    4613,    4612,    4710,    4711,    4729,    4728
     501,    4593,    4594,    4612,    4607,    4709,    4710,    4728,    4723
     502,    4600,    4601,    4602,    4611,    4716,    4717,    4718,    4727
     503,    4599,    4600,    4611,    4610,    4715,    4716,    4727,    4726
     504,    4598,    4599,    4610,    4609,    4714,    4715,    4726,    4725
     505,    4597,    4598,    4609,    4608,    4713,    4714,    4725,    4724
     506,    4592,    4597,    4608,    4591,    4708,    4713,    4724,    4707
     507,    4586,    4587,    4593,    4607,    4702,    4703,    4709,    4723
     508,    4585,    4586,    4607,    4606,    4701,    4702,    4723,    4722
     509,    4584,    4585,    4606,    4605,    4700,    4701,    4722,    4721
     510,    4583,    4584,    4605,    4604,    4699,    4700,    4721,    4720
     511,    4582,    4583,    4604,    4603,    4698,    4699,    4720,    4719
     512,    4581,    4582,    4603,    4602,    4697,    4698,    4719,    4718
     513,    4580,    4581,    4602,    4601,    4696,    4697,    4718,    4717
     514,    4446,    4445,    4588,    4596,    4449,    4447,    4704,    4712
     515,    4560,    4559,    4580,    4601,    4669,    4671,    4696,    4717
     516,    4561,    4560,    4601,    4600,    4667,    4669,    4717,    4716
     517,    4562,    4561,    4600,    4599,    4665,    4667,    4716,    4715
     518,    4563,    4562,    4599,    4598,    4663,    4665,    4715,    4714
     519,    4564,    4563,    4598,    4597,    4661,    4663,    4714,    4713
     520,    4565,    4564,    4597,    4592,    4659,    4661,    4713,    4708
     521,    4575,    4442,    4446,    4596,    4642,    4443,    4449,    4712
     522,    4576,    4575,    4596,    4595,    4641,    4642,    4712,    4711
     523,    4577,    4576,    4595,    4594,    4640,    4641,    4711,    4710
     524,    4578,    4577,    4594,    4593,    4639,    4640,    4710,    4709
     525,    4579,    4578,    4593,    4587,    4638,    4639,    4709,    4703
     526,    2078,    2077,    4565,    4592,    2166,    2156,    4659,    4708
     527,    2079,    2078,    4592,    4591,    2164,    2166,    4708,    4707
     528,    2080,    2079,    4591,    4590,    2162,    2164,    4707,    4706
     529,    2081,    2080,    4590,    4589,    2160,    2162,    4706,    4705
     530,    2082,    2081,    4589,    4588,    2158,    2160,    4705,    4704
     531,    1907,    2082,    4588,    4445,    1909,    2158,    4704,    4447
     532,    4567,    4566,    4579,    4587,    4680,    4637,    4638,    4703
     533,    4568,    4567,    4587,    4586,    4682,    4680,    4703,    4702
     534,    4569,    4568,    4586,    4585,    4684,    4682,    4702,    4701
     535,    4570,    4569,    4585,    4584,    4686,    4684,    4701,    4700
     536,    4571,    4570,    4584,    4583,    4688,    4686,    4700,    4699
     537,    4572,    4571,    4583,    4582,    4690,    4688,    4699,    4698
     538,    4573,    4572,    4582,    4581,    4692,    4690,    4698,    4697
     539,    4574,    4573,    4581,    4580,    4694,    4692,    4697,    4696
     540,    4558,    4574,    4580,    4559,    4649,    4694,    4696,    4671
     541,    4743,    4745,    4741,    4742,    4793,    4795,    4791,    4792
     542,    4745,    4744,    4740,    4741,    4795,    4794,    4790,    4791
     543,    4735,    4736,    4744,    4745,    4785,    4786,    4794,    4795
     544,    4734,    4735,    4745,    4743,    4784,    4785,    4795,    4793
     545,    4738,    4739,    4740,    4744,    4788,    4789,    4790,    4794
     546,    4737,    4738,    4744,    4736,    4787,    4788,    4794,    4786
     547,    4726,    4727,    4734,    4743,    4776,    4777,    4784,    4793
     548,    4725,    4726,    4743,    4742,    4775,    4776,    4793,    4792
     549,    4733,    4724,    4725,    4742,    4783,    4774,    4775,    4792
     550,    4732,    4733,    4742,    4741,    4782,    4783,    4792,    4791
     551,    4731,    4732,    4741,    4740,    4781,    4782,    4791,    4790
     552,    4730,    4731,    4740,    4739,    4780,    4781,    4790,    4789
     553,    4729,    4730,    4739,    4738,    4779,    4780,    4789,    4788
     554,    4728,    4729,    4738,    4737,    4778,    4779,    4788,    4787
     555,    4722,    4723,    4728,    4737,    4772,    4773,    4778,    4787
     556,    4721,    4722,    4737,    4736,    4771,    4772,    4787,    4786
     557,    4720,    4721,    4736,    4735,    4770,    4771,    4786,    4785
     558,    4719,    4720,    4735,    4734,    4769,    4770,    4785,    4784
     559,    4718,    4719,    4734,    4727,    4768,    4769,    4784,    4777
     560,    4706,    4707,    4724,    4733,    4756,    4757,    4774,    4783
     561,    4705,    4706,    4733,    4732,    4755,    4756,    4783,    4782
     562,    4704,    4705,    4732,    4731,    4754,    4755,    4782,    4781
     563,    4712,    4704,    4731,    4730,    4762,    4754,    4781,    4780
     564,    4711,    4712,    4730,    4729,    4761,    4762,    4780,    4779
     565,    4710,    4711,    4729,    4728,    4760,    4761,    4779,    4778
     566,    4709,    4710,    4728,    4723,    4759,    4760,    4778,    4773
     567,    4716,    4717,    4718,    4727,    4766,    4767,    4768,    4777
     568,    4715,    4716,    4727,    4726,    4765,    4766,    4777,    4776
     569,    4714,    4715,    4726,    4725,    4764,    4765,    4776,    4775
     570,    4713,    4714,    4725,    4724,    4763,    4764,    4775,    4774
     571,    4708,    4713,    4724,    4707,    4758,    4763,    4774,    4757
     572,    4702,    4703,    4709,    4723,    4752,    4753,    4759,    4773
     573,    4701,    4702,    4723,    4722,    4751,    4752,    4773,    4772
     574,    4700,    4701,    4722,    4721,    4750,    4751,    4772,    4771
     575,    4699,    4700,    4721,    4720,    4749,    4750,    4771,    4770
     576,    4698,    4699,    4720,    4719,    4748,    4749,    4770,    4769
     577,    4697,    4698,    4719,    4718,    4747,    4748,    4769,    4768
     578,    4696,    4697,    4718,    4717,    4746,    4747,    4768,    4767
     579,    4449,    4447,    4704,    4712,    4450,    4448,    4754,    4762
     580,    4669,    4671,    4696,    4717,    4668,    4670,    4746,    4767
     581,    4667,    4669,    4717,    4716,    4666,    4668,    4767,    4766
     582,    4665,    4667,    4716,    4715,    4664,    4666,    4766,    4765
     583,    4663,    4665,    4715,    4714,    4662,    4664,    4765,    4764
     584,    4661,    4663,    4714,    4713,    4660,    4662,    4764,    4763
     585,    4659,    4661,    4713,    4708,    4658,    4660,    4763,    4758
     586,    4642,    4443,    4449,    4712,    4647,    4444,    4450,    4762
     587,    4641,    4642,    4712,    4711,    4646,    4647,    4762,    4761
     588,    4640,    4641,    4711,    4710,    4645,    4646,    4761,    4760
     589,    4639,    4640,    4710,    4709,    4644,    4645,    4760,    4759
     590,    4638,    4639,    4709,    4703,    4643,    4644,    4759,    4753
     591,    2166,    2156,    4659,    4708,    2167,    2157,    4658,    4758
     592,    2164,    2166,    4708,    4707,    2165,    2167,    4758,    4757
     593,    2162,    2164,    4707,    4706,    2163,    2165,    4757,    4756
     594,    2160,    2162,    4706,    4705,    2161,    2163,    4756,    4755
     595,    2158,    2160,    4705,    4704,    2159,    2161,    4755,    4754
     596,    1909,    2158,    4704,    4447,    1908,    2159,    4754,    4448
     597,    4680,    4637,    4638,    4703,    4681,    4636,    4643,    4753
     598,    4682,    4680,    4703,    4702,    4683,    4681,    4753,    4752
     599,    4684,    4682,    4702,    4701,    4685,    4683,    4752,    4751
     600,    4686,    4684,    4701,    4700,    4687,    4685,    4751,    4750
     601,    4688,    4686,    4700,    4699,    4689,    4687,    4750,    4749
     602,    4690,    4688,    4699,    4698,    4691,    4689,    4749,    4748
     603,    4692,    4690,    4698,    4697,    4693,    4691,    4748,    4747
     604,    4694,    4692,    4697,    4696,    4695,    4693,    4747,    4746
     605,    4649,    4694,    4696,    4671,    4650,    4695,    4746,    4670
     606,    4793,    4795,    4791,    4792,    4843,    4845,    4841,    4842
     607,    4795,    4794,    4790,    4791,    4845,    4844,    4840,    4841
     608,    4785,    4786,    4794,    4795,    4835,    4836,    4844,    4845
     609,    4784,    4785,    4795,    4793,    4834,    4835,    4845,    4843
     610,    4788,    4789,    4790,    4794,    4838,    4839,    4840,    4844
     611,    4787,    4788,    4794,    4786,    4837,    4838,    4844,    4836
     612,    4776,    4777,    4784,    4793,    4826,    4827,    4834,    4843
     613,    4775,    4776,    4793,    4792,    4825,    4826,    4843,    4842
     614,    4783,    4774,    4775,    4792,    4833,    4824,    4825,    4842
     615,    4782,    4783,    4792,    4791,    4832,    4833,    4842,    4841
     616,    4781,    4782,    4791,    4790,    4831,    4832,    4841,    4840
     617,    4780,    4781,    4790,    4789,    4830,    4831,    4840,    4839
     618,    4779,    4780,    4789,    4788,    4829,    4830,    4839,    4838
     619,    4778,    4779,    4788,    4787,    4828,    4829,    4838,    4837
     620,    4772,    4773,    4778,    4787,    4822,    4823,    4828,    4837
     621,    4771,    4772,    4787,    4786,    4821,    4822,    4837,    4836
     622,    4770,    4771,    4786,    4785,    4820,    4821,    4836,    4835
     623,    4769,    4770,    4785,    4784,    4819,    4820,    4835,    4834
     624,    4768,    4769,    4784,    4777,    4818,    4819,    4834,    4827
     625,    4756,    4757,    4774,    4783,    4806,    4807,    4824,    4833
     626,    4755,    4756,    4783,    4782,    4805,    4806,    4833,    4832
     627,    4754,    4755,    4782,    4781,    4804,    4805,    4832,    4831
     628,    4762,    4754,    4781,    4780,    4812,    4804,    4831,    4830
     629,    4761,    4762,    4780,    4779,    4811,    4812,    4830,    4829
     630,    4760,    4761,    4779,    4778,    4810,    4811,    4829,    4828
     631,    4759,    4760,    4778,    4773,    4809,    4810,    4828,    4823
     632,    4766,    4767,    4768,    4777,    4816,    4817,    4818,    4827
     633,    4765,    4766,    4777,    4776,    4815,    4816,    4827,    4826
     634,    4764,    4765,    4776,    4775,    4814,    4815,    4826,    4825
     635,    4763,    4764,    4775,    4774,    4813,    4814,    4825,    4824
     636,    4758,    4763,    4774,    4757,    4808,    4813,    4824,    4807
     637,    4752,    4753,    4759,    4773,    4802,    4803,    4809,    4823
     638,    4751,    4752,    4773,    4772,    4801,    4802,    4823,    4822
     639,    4750,    4751,    4772,    4771,    4800,    4801,    4822,    4821
     640,    4749,    4750,    4771,    4770,    4799,    4800,    4821,    4820
     641,    4748,    4749,    4770,    4769,    4798,    4799,    4820,    4819
     642,    4747,    4748,    4769,    4768,    4797,    4798,    4819,    4818
     643,    4746,    4747,    4768,    4767,    4796,    4797,    4818,    4817
     644,    4450,    4448,    4754,    4762,    4441,    4440,    4804,    4812
     645,    4668,    4670,    4746,    4767,    4652,    4651,    4796,    4817
     646,    4666,    4668,    4767,    4766,    4653,    4652,    4817,    4816
     647,    4664,    4666,    4766,    4765,    4654,    4653,    4816,    4815
     648,    4662,    4664,    4765,    4764,    4655,    4654,    4815,    4814
     649,    4660,    4662,    4764,    4763,    4656,    4655,    4814,    4813
     650,    4658,    4660,    4763,    4758,    4657,    4656,    4813,    4808
     651,    4647,    4444,    4450,    4762,    4631,    4439,    4441,    4812
     652,    4646,    4647,    4762,    4761,    4632,    4631,    4812,    4811
     653,    4645,    4646,    4761,    4760,    4633,    4632,    4811,    4810
     654,    4644,    4645,    4760,    4759,    4634,    4633,    4810,    4809
     655,    4643,    4644,    4759,    4753,    4635,    4634,    4809,    4803
     656,    2167,    2157,    4658,    4758,    2151,    2150,    4657,    4808
     657,    2165,    2167,    4758,    4757,    2152,    2151,    4808,    4807
     658,    2163,    2165,    4757,    4756,    2153,    2152,    4807,    4806
     659,    2161,    2163,    4756,    4755,    2154,    2153,    4806,    4805
     660,    2159,    2161,    4755,    4754,    2155,    2154,    4805,    4804
     661,    1908,    2159,    4754,    4448,    1897,    2155,    4804,    4440
     662,    4681,    4636,    4643,    4753,    4672,    4630,    4635,    4803
     663,    4683,    4681,    4753,    4752,    4673,    4672,    4803,    4802
     664,    4685,    4683,    4752,    4751,    4674,    4673,    4802,    4801
     665,    4687,    4685,    4751,    4750,    4675,    4674,    4801,    4800
     666,    4689,    4687,    4750,    4749,    4676,    4675,    4800,    4799
     667,    4691,    4689,    4749,    4748,    4677,    4676,    4799,    4798
     668,    4693,    4691,    4748,    4747,    4678,    4677,    4798,    4797
     669,    4695,    4693,    4747,    4746,    4679,    4678,    4797,    4796
     670,    4650,    4695,    4746,    4670,    4648,    4679,    4796,    4651
*ELEMENT, TYPE=COH3D8, ELSET=mortar
     671,    5122,    5136,    5162,    5161,    5123,    5160,    5188,    5175
     672,    5136,    5135,    5163,    5162,    5160,    5159,    5189,    5188
     673,    5135,    5134,    5164,    5163,    5159,    5158,    5190,    5189
     674,    5134,    5133,    5165,    5164,    5158,    5157,    5191,    5190
     675,    5133,    5132,    5166,    5165,    5157,    5156,    5192,    5191
     676,    5132,    5131,    5167,    5166,    5156,    5155,    5193,    5192
     677,    5131,    5130,    5168,    5167,    5155,    5154,    5194,    5193
     678,    5130,    5129,    5169,    5168,    5154,    5153,    5195,    5194
     679,    5129,    5128,    5170,    5169,    5153,    5152,    5196,    5195
     680,    5128,    5127,    5171,    5170,    5152,    5151,    5197,    5196
     681,    5127,    5126,    5172,    5171,    5151,    5150,    5198,    5197
     682,    5126,    5125,    5173,    5172,    5150,    5149,    5199,    5198
     683,    5125,    5116,    5119,    5173,    5149,    5118,    5120,    5199
     684,    5123,    5160,    5188,    5175,    5124,    5148,    5176,    5174
     685,    5160,    5159,    5189,    5188,    5148,    5147,    5177,    5176
     686,    5159,    5158,    5190,    5189,    5147,    5146,    5178,    5177
     687,    5158,    5157,    5191,    5190,    5146,    5145,    5179,    5178
     688,    5157,    5156,    5192,    5191,    5145,    5144,    5180,    5179
     689,    5156,    5155,    5193,    5192,    5144,    5143,    5181,    5180
     690,    5155,    5154,    5194,    5193,    5143,    5142,    5182,    5181
     691,    5154,    5153,    5195,    5194,    5142,    5141,    5183,    5182
     692,    5153,    5152,    5196,    5195,    5141,    5140,    5184,    5183
     693,    5152,    5151,    5197,    5196,    5140,    5139,    5185,    5184
     694,    5151,    5150,    5198,    5197,    5139,    5138,    5186,    5185
     695,    5150,    5149,    5199,    5198,    5138,    5137,    5187,    5186
     696,    5149,    5118,    5120,    5199,    5137,    5117,    5121,    5187
     697,    5124,    5148,    5176,    5174,    5088,    5102,    5104,    5089
     698,    5148,    5147,    5177,    5176,    5102,    5101,    5105,    5104
     699,    5147,    5146,    5178,    5177,    5101,    5100,    5106,    5105
     700,    5146,    5145,    5179,    5178,    5100,    5099,    5107,    5106
     701,    5145,    5144,    5180,    5179,    5099,    5098,    5108,    5107
     702,    5144,    5143,    5181,    5180,    5098,    5097,    5109,    5108
     703,    5143,    5142,    5182,    5181,    5097,    5096,    5110,    5109
     704,    5142,    5141,    5183,    5182,    5096,    5095,    5111,    5110
     705,    5141,    5140,    5184,    5183,    5095,    5094,    5112,    5111
     706,    5140,    5139,    5185,    5184,    5094,    5093,    5113,    5112
     707,    5139,    5138,    5186,    5185,    5093,    5092,    5114,    5113
     708,    5138,    5137,    5187,    5186,    5092,    5091,    5115,    5114
     709,    5137,    5117,    5121,    5187,    5091,    5090,    5103,    5115
     710,    5090,    6854,    6811,    5103,    5091,    6866,    6813,    5115
     711,    6854,    6853,    6812,    6811,    6866,    6878,    6825,    6813
     712,    6853,    6840,    6798,    6812,    6878,    6852,    6799,    6825
     713,    5091,    6866,    6813,    5115,    5092,    6865,    6814,    5114
     714,    6866,    6878,    6825,    6813,    6865,    6877,    6826,    6814
     715,    6878,    6852,    6799,    6825,    6877,    6851,    6800,    6826
     716,    5092,    6865,    6814,    5114,    5093,    6864,    6815,    5113
     717,    6865,    6877,    6826,    6814,    6864,    6876,    6827,    6815
     718,    6877,    6851,    6800,    6826,    6876,    6850,    6801,    6827
     719,    5093,    6864,    6815,    5113,    5094,    6863,    6816,    5112
     720,    6864,    6876,    6827,    6815,    6863,    6875,    6828,    6816
     721,    6876,    6850,    6801,    6827,    6875,    6849,    6802,    6828
     722,    5094,    6863,    6816,    5112,    5095,    6862,    6817,    5111
     723,    6863,    6875,    6828,    6816,    6862,    6874,    6829,    6817
     724,    6875,    6849,    6802,    6828,    6874,    6848,    6803,    6829
     725,    5095,    6862,    6817,    5111,    5096,    6861,    6818,    5110
     726,    6862,    6874,    6829,    6817,    6861,    6873,    6830,    6818
     727,    6874,    6848,    6803,    6829,    6873,    6847,    6804,    6830
     728,    5096,    6861,    6818,    5110,    5097,    6860,    6819,    5109
     729,    6861,    6873,    6830,    6818,    6860,    6872,    6831,    6819
     730,    6873,    6847,    6804,    6830,    6872,    6846,    6805,    6831
     731,    5097,    6860,    6819,    5109,    5098,    6859,    6820,    5108
     732,    6860,    6872,    6831,    6819,    6859,    6871,    6832,    6820
     733,    6872,    6846,    6805,    6831,    6871,    6845,    6806,    6832
     734,    5098,    6859,    6820,    5108,    5099,    6858,    6821,    5107
     735,    6859,    6871,    6832,    6820,    6858,    6870,    6833,    6821
     736,    6871,    6845,    6806,    6832,    6870,    6844,    6807,    6833
     737,    5099,    6858,    6821,    5107,    5100,    6857,    6822,    5106
     738,    6858,    6870,    6833,    6821,    6857,    6869,    6834,    6822
     739,    6870,    6844,    6807,    6833,    6869,    6843,    6808,    6834
     740,    5100,    6857,    6822,    5106,    5101,    6856,    6823,    5105
     741,    6857,    6869,    6834,    6822,    6856,    6868,    6835,    6823
     742,    6869,    6843,    6808,    6834,    6868,    6842,    6809,    6835
     743,    5101,    6856,    6823,    5105,    5102,    6855,    6824,    5104
     744,    6856,    6868,    6835,    6823,    6855,    6867,    6836,    6824
     745,    6868,    6842,    6809,    6835,    6867,    6841,    6810,    6836
     746,    5102,    6855,    6824,    5104,    5088,    6838,    6797,    5089
     747,    6855,    6867,    6836,    6824,    6838,    6839,    6796,    6797
     748,    6867,    6841,    6810,    6836,    6839,    6837,    6795,    6796
********************************** N O D E S E T S **********************************
*NSET, NSET=plate_bottom
    1919,    1920,    1921,    1922,    2369,    2370,
    2371,    2372,    2373,    2374,    2375,    2376,
    2377,    2378,    2379,    2380,    2381,    2382,
    2383,    2384,    2385,    2386,    2387,    2388,
    2389,    2390,    2391,    2392,    2393,    2394,
    2395,    2396,    2397,    2398,    2399,    2400,
    2401,    2402,    2403,    2404,    2405,    2406,
    2407,    2408,    2409,    2410,    2411,    2412,
    2413,    2414,    2415,    2416,    2417,    2418,
    2419,    2420,    2421,    2422,    2423,    2424,
    2425,    2426,    2427,    2428,    2429,    2430,
    2431,    2432,    2433,    2434,    2435,    2436,
    2437,    2438,    2439,    2440,    2441,    4451,
    4452,    4453,    4846,    4847,    4848,    4849,
    4850,    4851,    4852,    4853,    4854,    4855,
    4856,    4857,    4858,    4859,    4860,    4861,
    4862,    4863,    4864,    4865,    4866,    4867,
    4868,    4869,    4870,    4871,    4872,    4873,
    4874,    4875,    4876,    4877,    4878,    4879,
    4880,    4881,    4882,    4883,    4884,    4885,
    4886,    4887,    4888,    4889,    4890,    4891,
    4892,    4893,    4894,    4895,    4896,    4897,
    4898,    4899,    4900,    4901,    4902,    4903,
    4904,    4905,    4906,    4907,    4908,    4909,
    4910,    4911,    4912,    4913,    4914,    4915,
    4916,    4917,
*NSET, NSET=plate_left_loading
    4558,    4566,    4567,    4568,    4569,    4570,
    4571,    4572,    4573,    4574,
*NSET, NSET=z_symm
    1898,    1901,    1902,    1910,    1923,    1924,
    1925,    1926,    1927,    1928,    1929,    1930,
    1931,    1932,    1933,    1934,    1935,    1936,
    1937,    1938,    1939,    2009,    2010,    2011,
    2012,    2013,    2014,    2015,    2016,    2017,
    2018,    2019,    2020,    2021,    2022,    2023,
    2024,    2025,    2026,    2027,    2028,    2029,
    2030,    2031,    2032,    2033,    2034,    2035,
    2036,    2037,    2038,    2039,    2040,    2041,
    2042,    2083,    2084,    2085,    2086,    2087,
    2088,    2192,    2193,    2194,    2195,    2196,
    2197,    2198,    2199,    2200,    2201,    2202,
    2203,    2204,    2205,    2206,    2207,    2208,
    2209,    2383,    2384,    2385,    2386,    2387,
    2388,    4432,    4433,    4434,    4439,    4451,
    4454,    4455,    4468,    4469,    4470,    4471,
    4472,    4473,    4474,    4475,    4476,    4477,
    4478,    4479,    4480,    4481,    4482,    4483,
    4484,    4485,    4486,    4487,    4488,    4489,
    4490,    4491,    4492,    4493,    4494,    4495,
    4496,    4497,    4498,    4499,    4566,    4575,
    4576,    4577,    4578,    4579,    4630,    4631,
    4632,    4633,    4634,    4635,    4636,    4637,
    4638,    4639,    4640,    4641,    4642,    4643,
    4644,    4645,    4646,    4647,    4846,    4847,
    4848,    4849,    4850,    4851,    6795,    6798,
    6837,    6840,
********************************** S I D E S E T S **********************************
*ELSET, ELSET=plate_bottom_S1
      86,      87,      88,      89,      90,      91,      92,      93,      94,      95,
      96,      97,      98,      99,     100,     101,     102,     103,     104,     105,
     106,     107,     108,     109,     110,     111,     112,     113,     114,     115,
     116,     117,     118,     119,     120,     121,     122,     123,     124,     125,
     126,     127,     128,     129,     130,     131,     132,     133,     134,     135,
     136,     137,     138,     139,     140,     141,     142,     143,     144,     145,
     411,     412,     413,     414,     415,     416,     417,     418,     419,     420,
     421,     422,     423,     424,     425,     426,     427,     428,     429,     430,
     431,     432,     433,     434,     435,     436,     437,     438,     439,     440,
     441,     442,     443,     444,     445,     446,     447,     448,     449,     450,
     451,     452,     453,     454,     455,     456,     457,     458,     459,     460,
     461,     462,     463,     464,     465,     466,     467,     468,     469,     470,
     471,     472,     473,     474,     475
*SURFACE, NAME=plate_bottom
plate_bottom_S1, S1
*ELSET, ELSET=mortar_to_anchor_S5
     671,     672,     673,     674,     675,     676,     677,     678,     679,     680,
     681,     682,     683,     684,     685,     686,     687,     688,     689,     690,
     691,     692,     693,     694,     695,     696,     697,     698,     699,     700,
     701,     702,     703,     704,     705,     706,     707,     708,     709,     710,
     711,     712,     713,     714,     715,     716,     717,     718,     719,     720,
     721,     722,     723,     724,     725,     726,     727,     728,     729,     730,
     731,     732,     733,     734,     735,     736,     737,     738,     739,     740,
     741,     742,     743,     744,     745,     746,     747,     748
*SURFACE, NAME=mortar_to_anchor
mortar_to_anchor_S5, S5
*ELSET, ELSET=anchor_to_mortar_S3
      24,      25,      29,      30,      34,      35,      39,      40,      44,      45,
      49,      50,      54,      55,      59,      60,      64,      65,      69,      70,
      74,      75,      79,      80,      84,      85,     119,     179,     239,     299,
     329,     330,     334,     335,     339,     340,     344,     345,     349,     350,
     354,     355,     359,     360,     364,     365,     369,     370,     374,     375,
     379,     380,     384,     385,     389,     390,     449,     514,     579,     644
*ELSET, ELSET=anchor_to_mortar_S4
      21,      26,      31,      36,      41,      46,      51,      56,      61,      66,
      71,      76,      81,     131,     191,     251,     311,     326,     331,     336,
     341,     346,     351,     356,     361,     366,     371,     376,     381,     386,
     456,     521,     586,     651
*ELSET, ELSET=anchor_to_mortar_S6
     130,     190,     250,     310,     466,     531,     596,     661
*SURFACE, NAME=anchor_to_mortar
anchor_to_mortar_S3, S3
anchor_to_mortar_S4, S4
anchor_to_mortar_S6, S6
*ELSET, ELSET=mortar_to_concrete_S3
     671,     672,     673,     674,     675,     676,     677,     678,     679,     680,
     681,     682,     683,     684,     685,     686,     687,     688,     689,     690,
     691,     692,     693,     694,     695,     696,     697,     698,     699,     700,
     701,     702,     703,     704,     705,     706,     707,     708,     709,     710,
     711,     712,     713,     714,     715,     716,     717,     718,     719,     720,
     721,     722,     723,     724,     725,     726,     727,     728,     729,     730,
     731,     732,     733,     734,     735,     736,     737,     738,     739,     740,
     741,     742,     743,     744,     745,     746,     747,     748
*SURFACE, NAME=mortar_to_concrete
mortar_to_concrete_S3, S3
