********************************** N O D E S **********************************
*NODE, NSET=ALLNODES
   10533,   -8.000000e+00,   -1.000000e+02,    0.000000e+00
   10534,    8.000000e+00,   -1.000000e+02,    3.673940e-15
   10535,   -4.000000e+00,   -1.000000e+02,    0.000000e+00
   10536,    0.000000e+00,   -1.000000e+02,    0.000000e+00
   10537,    4.000000e+00,   -1.000000e+02,    0.000000e+00
   10538,   -6.928203e+00,   -1.000000e+02,   -4.000000e+00
   10539,   -4.000000e+00,   -1.000000e+02,   -6.928203e+00
   10540,   -1.469576e-15,   -1.000000e+02,   -8.000000e+00
   10541,    4.000000e+00,   -1.000000e+02,   -6.928203e+00
   10542,    6.928203e+00,   -1.000000e+02,   -4.000000e+00
   10543,   -1.654799e+00,   -1.000000e+02,   -3.423652e+00
   10544,   -4.166067e+00,   -1.000000e+02,   -2.494552e+00
   10545,    3.366241e+00,   -1.000000e+02,   -4.575300e+00
   10546,    1.222426e+00,   -1.000000e+02,   -3.926771e+00
   10547,    4.764815e+00,   -1.000000e+02,   -2.858433e+00
   10548,   -8.000000e+00,    6.666667e+00,    1.183825e-15
   10549,   -8.000000e+00,    2.000000e+01,    0.000000e+00
   10550,   -8.000000e+00,    1.111111e+01,   -6.803593e-17
   10551,   -8.000000e+00,    1.555556e+01,   -3.401797e-16
   10552,    8.000000e+00,    6.666667e+00,    0.000000e+00
   10553,    6.928203e+00,    6.666667e+00,   -4.000000e+00
   10554,    4.000000e+00,    6.666667e+00,   -6.928203e+00
   10555,    4.898587e-16,    6.666667e+00,   -8.000000e+00
   10556,   -4.000000e+00,    6.666667e+00,   -6.928203e+00
   10557,   -6.928203e+00,    6.666667e+00,   -4.000000e+00
   10558,    8.000000e+00,    2.000000e+01,   -3.673940e-15
   10559,    8.000000e+00,    1.555556e+01,   -3.401797e-16
   10560,    8.000000e+00,    1.111111e+01,   -6.803593e-17
   10561,    6.928203e+00,    2.000000e+01,   -4.000000e+00
   10562,    4.000000e+00,    2.000000e+01,   -6.928203e+00
   10563,   -3.062855e-15,    2.000000e+01,   -8.000000e+00
   10564,   -4.000000e+00,    2.000000e+01,   -6.928203e+00
   10565,   -6.928203e+00,    2.000000e+01,   -4.000000e+00
   10566,   -6.928203e+00,    1.555556e+01,   -4.000000e+00
   10567,   -6.928203e+00,    1.111111e+01,   -4.000000e+00
   10568,   -4.000000e+00,    1.555556e+01,   -6.928203e+00
   10569,   -4.000000e+00,    1.111111e+01,   -6.928203e+00
   10570,   -3.062855e-15,    1.555556e+01,   -8.000000e+00
   10571,   -3.062855e-15,    1.111111e+01,   -8.000000e+00
   10572,    4.000000e+00,    1.555556e+01,   -6.928203e+00
   10573,    4.000000e+00,    1.111111e+01,   -6.928203e+00
   10574,    6.928203e+00,    1.555556e+01,   -4.000000e+00
   10575,    6.928203e+00,    1.111111e+01,   -4.000000e+00
   10576,    8.000000e+00,    0.000000e+00,    6.123234e-16
   10577,    8.000000e+00,    3.333333e+00,    2.719262e-32
   10578,   -8.000000e+00,    0.000000e+00,    0.000000e+00
   10579,   -8.000000e+00,    3.333333e+00,    2.719262e-32
   10580,    6.928203e+00,    0.000000e+00,   -4.000000e+00
   10581,    4.000000e+00,    0.000000e+00,   -6.928203e+00
   10582,    4.898587e-16,    0.000000e+00,   -8.000000e+00
   10583,   -4.000000e+00,    0.000000e+00,   -6.928203e+00
   10584,   -6.928203e+00,    0.000000e+00,   -4.000000e+00
   10585,    6.928203e+00,    3.333333e+00,   -4.000000e+00
   10586,    4.000000e+00,    3.333333e+00,   -6.928203e+00
   10587,    2.266216e-15,    3.333333e+00,   -8.000000e+00
   10588,   -4.000000e+00,    3.333333e+00,   -6.928203e+00
   10589,   -6.928203e+00,    3.333333e+00,   -4.000000e+00
   10590,   -8.000000e+00,   -4.000000e+00,   -2.204364e-15
   10591,   -8.000000e+00,   -8.000000e+00,   -1.959435e-15
   10592,   -8.000000e+00,   -1.200000e+01,   -1.714506e-15
   10593,   -8.000000e+00,   -1.600000e+01,   -1.469576e-15
   10594,   -8.000000e+00,   -2.000000e+01,   -1.224647e-15
   10595,   -8.000000e+00,   -2.400000e+01,   -9.797174e-16
   10596,   -8.000000e+00,   -2.800000e+01,   -7.347881e-16
   10597,   -8.000000e+00,   -3.200000e+01,   -4.898587e-16
   10598,   -8.000000e+00,   -3.600000e+01,   -2.449294e-16
   10599,   -8.000000e+00,   -4.000000e+01,    0.000000e+00
   10600,   -8.000000e+00,   -4.400000e+01,    2.449294e-16
   10601,   -8.000000e+00,   -4.800000e+01,    4.898587e-16
   10602,   -8.000000e+00,   -5.200000e+01,    7.347881e-16
   10603,   -8.000000e+00,   -5.600000e+01,    9.797174e-16
   10604,   -8.000000e+00,   -6.000000e+01,    1.224647e-15
   10605,   -8.000000e+00,   -6.400000e+01,    1.469576e-15
   10606,   -8.000000e+00,   -6.800000e+01,    1.714506e-15
   10607,   -8.000000e+00,   -7.200000e+01,    1.959435e-15
   10608,   -8.000000e+00,   -7.600000e+01,    2.204364e-15
   10609,   -8.000000e+00,   -8.000000e+01,    2.449294e-15
   10610,   -8.000000e+00,   -8.400000e+01,    2.694223e-15
   10611,   -8.000000e+00,   -8.800000e+01,    2.939152e-15
   10612,   -8.000000e+00,   -9.200000e+01,    3.184082e-15
   10613,   -8.000000e+00,   -9.600000e+01,    3.429011e-15
   10614,    8.000000e+00,   -9.600000e+01,    3.429011e-15
   10615,    8.000000e+00,   -9.200000e+01,    3.184082e-15
   10616,    8.000000e+00,   -8.800000e+01,    2.939152e-15
   10617,    8.000000e+00,   -8.400000e+01,    2.694223e-15
   10618,    8.000000e+00,   -8.000000e+01,    2.449294e-15
   10619,    8.000000e+00,   -7.600000e+01,    2.204364e-15
   10620,    8.000000e+00,   -7.200000e+01,    1.959435e-15
   10621,    8.000000e+00,   -6.800000e+01,    1.714506e-15
   10622,    8.000000e+00,   -6.400000e+01,    1.469576e-15
   10623,    8.000000e+00,   -6.000000e+01,    1.224647e-15
   10624,    8.000000e+00,   -5.600000e+01,    9.797174e-16
   10625,    8.000000e+00,   -5.200000e+01,    7.347881e-16
   10626,    8.000000e+00,   -4.800000e+01,    4.898587e-16
   10627,    8.000000e+00,   -4.400000e+01,    2.449294e-16
   10628,    8.000000e+00,   -4.000000e+01,    0.000000e+00
   10629,    8.000000e+00,   -3.600000e+01,   -2.449294e-16
   10630,    8.000000e+00,   -3.200000e+01,   -4.898587e-16
   10631,    8.000000e+00,   -2.800000e+01,   -7.347881e-16
   10632,    8.000000e+00,   -2.400000e+01,   -9.797174e-16
   10633,    8.000000e+00,   -2.000000e+01,   -1.224647e-15
   10634,    8.000000e+00,   -1.600000e+01,   -1.469576e-15
   10635,    8.000000e+00,   -1.200000e+01,   -1.714506e-15
   10636,    8.000000e+00,   -8.000000e+00,   -1.959435e-15
   10637,    8.000000e+00,   -4.000000e+00,   -2.204364e-15
   10638,    4.000000e+00,    2.000000e+01,    0.000000e+00
   10639,    0.000000e+00,    2.000000e+01,    0.000000e+00
   10640,   -4.000000e+00,    2.000000e+01,    0.000000e+00
   10641,   -4.000000e+00,    1.555556e+01,    0.000000e+00
   10642,   -4.000000e+00,    1.111111e+01,    0.000000e+00
   10643,   -4.000000e+00,    6.666667e+00,    0.000000e+00
   10644,   -4.000000e+00,    3.333333e+00,    0.000000e+00
   10645,   -4.000000e+00,   -1.776357e-15,    0.000000e+00
   10646,   -4.000000e+00,   -4.000000e+00,    0.000000e+00
   10647,   -4.000000e+00,   -8.000000e+00,    0.000000e+00
   10648,   -4.000000e+00,   -1.200000e+01,    0.000000e+00
   10649,   -4.000000e+00,   -1.600000e+01,    0.000000e+00
   10650,   -4.000000e+00,   -2.000000e+01,    0.000000e+00
   10651,   -4.000000e+00,   -2.400000e+01,    0.000000e+00
   10652,   -4.000000e+00,   -2.800000e+01,    0.000000e+00
   10653,   -4.000000e+00,   -3.200000e+01,    0.000000e+00
   10654,   -4.000000e+00,   -3.600000e+01,    0.000000e+00
   10655,   -4.000000e+00,   -4.000000e+01,    0.000000e+00
   10656,   -4.000000e+00,   -4.400000e+01,    0.000000e+00
   10657,   -4.000000e+00,   -4.800000e+01,    0.000000e+00
   10658,   -4.000000e+00,   -5.200000e+01,    0.000000e+00
   10659,   -4.000000e+00,   -5.600000e+01,    0.000000e+00
   10660,   -4.000000e+00,   -6.000000e+01,    0.000000e+00
   10661,   -4.000000e+00,   -6.400000e+01,    0.000000e+00
   10662,   -4.000000e+00,   -6.800000e+01,    0.000000e+00
   10663,   -4.000000e+00,   -7.200000e+01,    0.000000e+00
   10664,   -4.000000e+00,   -7.600000e+01,    0.000000e+00
   10665,   -4.000000e+00,   -8.000000e+01,    0.000000e+00
   10666,   -4.000000e+00,   -8.400000e+01,    0.000000e+00
   10667,   -4.000000e+00,   -8.800000e+01,    0.000000e+00
   10668,   -4.000000e+00,   -9.200000e+01,    0.000000e+00
   10669,   -4.000000e+00,   -9.600000e+01,    0.000000e+00
   10670,    2.220446e-16,    1.555556e+01,    0.000000e+00
   10671,   -4.440892e-16,    1.111111e+01,    0.000000e+00
   10672,   -4.440892e-16,    6.666667e+00,    0.000000e+00
   10673,    4.440892e-16,    3.333333e+00,    0.000000e+00
   10674,    4.440892e-16,    0.000000e+00,    0.000000e+00
   10675,    6.661338e-16,   -4.000000e+00,    0.000000e+00
   10676,    6.661338e-16,   -8.000000e+00,    0.000000e+00
   10677,   -6.661338e-16,   -1.200000e+01,    0.000000e+00
   10678,   -4.440892e-16,   -1.600000e+01,    0.000000e+00
   10679,   -2.220446e-16,   -2.000000e+01,    0.000000e+00
   10680,    2.220446e-16,   -2.400000e+01,    0.000000e+00
   10681,   -2.220446e-16,   -2.800000e+01,    0.000000e+00
   10682,    0.000000e+00,   -3.200000e+01,    0.000000e+00
   10683,    0.000000e+00,   -3.600000e+01,    0.000000e+00
   10684,    0.000000e+00,   -4.000000e+01,    0.000000e+00
   10685,    0.000000e+00,   -4.400000e+01,    0.000000e+00
   10686,    0.000000e+00,   -4.800000e+01,    0.000000e+00
   10687,    0.000000e+00,   -5.200000e+01,    0.000000e+00
   10688,    0.000000e+00,   -5.600000e+01,    0.000000e+00
   10689,   -4.440892e-16,   -6.000000e+01,    0.000000e+00
   10690,    4.440892e-16,   -6.400000e+01,    0.000000e+00
   10691,    4.440892e-16,   -6.800000e+01,    0.000000e+00
   10692,    0.000000e+00,   -7.200000e+01,    0.000000e+00
   10693,   -4.440892e-16,   -7.600000e+01,    0.000000e+00
   10694,    0.000000e+00,   -8.000000e+01,    0.000000e+00
   10695,    0.000000e+00,   -8.400000e+01,    0.000000e+00
   10696,    0.000000e+00,   -8.800000e+01,    0.000000e+00
   10697,    0.000000e+00,   -9.200000e+01,    0.000000e+00
   10698,    0.000000e+00,   -9.600000e+01,    0.000000e+00
   10699,    4.000000e+00,    1.555556e+01,    0.000000e+00
   10700,    4.000000e+00,    1.111111e+01,    0.000000e+00
   10701,    4.000000e+00,    6.666667e+00,    0.000000e+00
   10702,    4.000000e+00,    3.333333e+00,    0.000000e+00
   10703,    4.000000e+00,    1.776357e-15,    0.000000e+00
   10704,    4.000000e+00,   -4.000000e+00,    0.000000e+00
   10705,    4.000000e+00,   -8.000000e+00,    0.000000e+00
   10706,    4.000000e+00,   -1.200000e+01,    0.000000e+00
   10707,    4.000000e+00,   -1.600000e+01,    0.000000e+00
   10708,    4.000000e+00,   -2.000000e+01,    0.000000e+00
   10709,    4.000000e+00,   -2.400000e+01,    0.000000e+00
   10710,    4.000000e+00,   -2.800000e+01,    0.000000e+00
   10711,    4.000000e+00,   -3.200000e+01,    0.000000e+00
   10712,    4.000000e+00,   -3.600000e+01,    0.000000e+00
   10713,    4.000000e+00,   -4.000000e+01,    0.000000e+00
   10714,    4.000000e+00,   -4.400000e+01,    0.000000e+00
   10715,    4.000000e+00,   -4.800000e+01,    0.000000e+00
   10716,    4.000000e+00,   -5.200000e+01,    0.000000e+00
   10717,    4.000000e+00,   -5.600000e+01,    0.000000e+00
   10718,    4.000000e+00,   -6.000000e+01,    0.000000e+00
   10719,    4.000000e+00,   -6.400000e+01,    0.000000e+00
   10720,    4.000000e+00,   -6.800000e+01,    0.000000e+00
   10721,    4.000000e+00,   -7.200000e+01,    0.000000e+00
   10722,    4.000000e+00,   -7.600000e+01,    0.000000e+00
   10723,    4.000000e+00,   -8.000000e+01,    0.000000e+00
   10724,    4.000000e+00,   -8.400000e+01,    0.000000e+00
   10725,    4.000000e+00,   -8.800000e+01,    0.000000e+00
   10726,    4.000000e+00,   -9.200000e+01,    0.000000e+00
   10727,    4.000000e+00,   -9.600000e+01,    0.000000e+00
   10728,   -6.928203e+00,   -4.000000e+00,   -4.000000e+00
   10729,   -4.000000e+00,   -4.000000e+00,   -6.928203e+00
   10730,   -1.286498e-15,   -4.000000e+00,   -8.000000e+00
   10731,    4.000000e+00,   -4.000000e+00,   -6.928203e+00
   10732,    6.928203e+00,   -4.000000e+00,   -4.000000e+00
   10733,   -6.928203e+00,   -8.000000e+00,   -4.000000e+00
   10734,   -4.000000e+00,   -8.000000e+00,   -6.928203e+00
   10735,   -1.286498e-15,   -8.000000e+00,   -8.000000e+00
   10736,    4.000000e+00,   -8.000000e+00,   -6.928203e+00
   10737,    6.928203e+00,   -8.000000e+00,   -4.000000e+00
   10738,   -6.928203e+00,   -1.200000e+01,   -4.000000e+00
   10739,   -4.000000e+00,   -1.200000e+01,   -6.928203e+00
   10740,   -1.286498e-15,   -1.200000e+01,   -8.000000e+00
   10741,    4.000000e+00,   -1.200000e+01,   -6.928203e+00
   10742,    6.928203e+00,   -1.200000e+01,   -4.000000e+00
   10743,   -6.928203e+00,   -1.600000e+01,   -4.000000e+00
   10744,   -4.000000e+00,   -1.600000e+01,   -6.928203e+00
   10745,   -3.062855e-15,   -1.600000e+01,   -8.000000e+00
   10746,    4.000000e+00,   -1.600000e+01,   -6.928203e+00
   10747,    6.928203e+00,   -1.600000e+01,   -4.000000e+00
   10748,   -6.928203e+00,   -2.000000e+01,   -4.000000e+00
   10749,   -4.000000e+00,   -2.000000e+01,   -6.928203e+00
   10750,   -1.286498e-15,   -2.000000e+01,   -8.000000e+00
   10751,    4.000000e+00,   -2.000000e+01,   -6.928203e+00
   10752,    6.928203e+00,   -2.000000e+01,   -4.000000e+00
   10753,   -6.928203e+00,   -2.400000e+01,   -4.000000e+00
   10754,   -4.000000e+00,   -2.400000e+01,   -6.928203e+00
   10755,   -3.062855e-15,   -2.400000e+01,   -8.000000e+00
   10756,    4.000000e+00,   -2.400000e+01,   -6.928203e+00
   10757,    6.928203e+00,   -2.400000e+01,   -4.000000e+00
   10758,   -6.928203e+00,   -2.800000e+01,   -4.000000e+00
   10759,   -4.000000e+00,   -2.800000e+01,   -6.928203e+00
   10760,   -3.062855e-15,   -2.800000e+01,   -8.000000e+00
   10761,    4.000000e+00,   -2.800000e+01,   -6.928203e+00
   10762,    6.928203e+00,   -2.800000e+01,   -4.000000e+00
   10763,   -6.928203e+00,   -3.200000e+01,   -4.000000e+00
   10764,   -4.000000e+00,   -3.200000e+01,   -6.928203e+00
   10765,   -4.839212e-15,   -3.200000e+01,   -8.000000e+00
   10766,    4.000000e+00,   -3.200000e+01,   -6.928203e+00
   10767,    6.928203e+00,   -3.200000e+01,   -4.000000e+00
   10768,   -6.928203e+00,   -3.600000e+01,   -4.000000e+00
   10769,   -4.000000e+00,   -3.600000e+01,   -6.928203e+00
   10770,   -4.839212e-15,   -3.600000e+01,   -8.000000e+00
   10771,    4.000000e+00,   -3.600000e+01,   -6.928203e+00
   10772,    6.928203e+00,   -3.600000e+01,   -4.000000e+00
   10773,   -6.928203e+00,   -4.000000e+01,   -4.000000e+00
   10774,   -4.000000e+00,   -4.000000e+01,   -6.928203e+00
   10775,   -4.839212e-15,   -4.000000e+01,   -8.000000e+00
   10776,    4.000000e+00,   -4.000000e+01,   -6.928203e+00
   10777,    6.928203e+00,   -4.000000e+01,   -4.000000e+00
   10778,   -6.928203e+00,   -4.400000e+01,   -4.000000e+00
   10779,   -4.000000e+00,   -4.400000e+01,   -6.928203e+00
   10780,    4.898587e-16,   -4.400000e+01,   -8.000000e+00
   10781,    4.000000e+00,   -4.400000e+01,   -6.928203e+00
   10782,    6.928203e+00,   -4.400000e+01,   -4.000000e+00
   10783,   -6.928203e+00,   -4.800000e+01,   -4.000000e+00
   10784,   -4.000000e+00,   -4.800000e+01,   -6.928203e+00
   10785,   -1.286498e-15,   -4.800000e+01,   -8.000000e+00
   10786,    4.000000e+00,   -4.800000e+01,   -6.928203e+00
   10787,    6.928203e+00,   -4.800000e+01,   -4.000000e+00
   10788,   -6.928203e+00,   -5.200000e+01,   -4.000000e+00
   10789,   -4.000000e+00,   -5.200000e+01,   -6.928203e+00
   10790,   -3.062855e-15,   -5.200000e+01,   -8.000000e+00
   10791,    4.000000e+00,   -5.200000e+01,   -6.928203e+00
   10792,    6.928203e+00,   -5.200000e+01,   -4.000000e+00
   10793,   -6.928203e+00,   -5.600000e+01,   -4.000000e+00
   10794,   -4.000000e+00,   -5.600000e+01,   -6.928203e+00
   10795,   -3.062855e-15,   -5.600000e+01,   -8.000000e+00
   10796,    4.000000e+00,   -5.600000e+01,   -6.928203e+00
   10797,    6.928203e+00,   -5.600000e+01,   -4.000000e+00
   10798,   -6.928203e+00,   -6.000000e+01,   -4.000000e+00
   10799,   -4.000000e+00,   -6.000000e+01,   -6.928203e+00
   10800,    4.898587e-16,   -6.000000e+01,   -8.000000e+00
   10801,    4.000000e+00,   -6.000000e+01,   -6.928203e+00
   10802,    6.928203e+00,   -6.000000e+01,   -4.000000e+00
   10803,   -6.928203e+00,   -6.400000e+01,   -4.000000e+00
   10804,   -4.000000e+00,   -6.400000e+01,   -6.928203e+00
   10805,   -4.839212e-15,   -6.400000e+01,   -8.000000e+00
   10806,    4.000000e+00,   -6.400000e+01,   -6.928203e+00
   10807,    6.928203e+00,   -6.400000e+01,   -4.000000e+00
   10808,   -6.928203e+00,   -6.800000e+01,   -4.000000e+00
   10809,   -4.000000e+00,   -6.800000e+01,   -6.928203e+00
   10810,   -1.286498e-15,   -6.800000e+01,   -8.000000e+00
   10811,    4.000000e+00,   -6.800000e+01,   -6.928203e+00
   10812,    6.928203e+00,   -6.800000e+01,   -4.000000e+00
   10813,   -6.928203e+00,   -7.200000e+01,   -4.000000e+00
   10814,   -4.000000e+00,   -7.200000e+01,   -6.928203e+00
   10815,   -3.062855e-15,   -7.200000e+01,   -8.000000e+00
   10816,    4.000000e+00,   -7.200000e+01,   -6.928203e+00
   10817,    6.928203e+00,   -7.200000e+01,   -4.000000e+00
   10818,   -6.928203e+00,   -7.600000e+01,   -4.000000e+00
   10819,   -4.000000e+00,   -7.600000e+01,   -6.928203e+00
   10820,   -4.839212e-15,   -7.600000e+01,   -8.000000e+00
   10821,    4.000000e+00,   -7.600000e+01,   -6.928203e+00
   10822,    6.928203e+00,   -7.600000e+01,   -4.000000e+00
   10823,   -6.928203e+00,   -8.000000e+01,   -4.000000e+00
   10824,   -4.000000e+00,   -8.000000e+01,   -6.928203e+00
   10825,   -4.839212e-15,   -8.000000e+01,   -8.000000e+00
   10826,    4.000000e+00,   -8.000000e+01,   -6.928203e+00
   10827,    6.928203e+00,   -8.000000e+01,   -4.000000e+00
   10828,   -6.928203e+00,   -8.400000e+01,   -4.000000e+00
   10829,   -4.000000e+00,   -8.400000e+01,   -6.928203e+00
   10830,   -3.062855e-15,   -8.400000e+01,   -8.000000e+00
   10831,    4.000000e+00,   -8.400000e+01,   -6.928203e+00
   10832,    6.928203e+00,   -8.400000e+01,   -4.000000e+00
   10833,   -6.928203e+00,   -8.800000e+01,   -4.000000e+00
   10834,   -4.000000e+00,   -8.800000e+01,   -6.928203e+00
   10835,   -1.286498e-15,   -8.800000e+01,   -8.000000e+00
   10836,    4.000000e+00,   -8.800000e+01,   -6.928203e+00
   10837,    6.928203e+00,   -8.800000e+01,   -4.000000e+00
   10838,   -6.928203e+00,   -9.200000e+01,   -4.000000e+00
   10839,   -4.000000e+00,   -9.200000e+01,   -6.928203e+00
   10840,   -3.062855e-15,   -9.200000e+01,   -8.000000e+00
   10841,    4.000000e+00,   -9.200000e+01,   -6.928203e+00
   10842,    6.928203e+00,   -9.200000e+01,   -4.000000e+00
   10843,   -6.928203e+00,   -9.600000e+01,   -4.000000e+00
   10844,   -4.000000e+00,   -9.600000e+01,   -6.928203e+00
   10845,   -4.839212e-15,   -9.600000e+01,   -8.000000e+00
   10846,    4.000000e+00,   -9.600000e+01,   -6.928203e+00
   10847,    6.928203e+00,   -9.600000e+01,   -4.000000e+00
   10848,   -1.654799e+00,   -9.600000e+01,   -3.423652e+00
   10849,    1.222426e+00,   -9.600000e+01,   -3.926771e+00
   10850,   -4.166067e+00,   -9.600000e+01,   -2.494552e+00
   10851,    3.366241e+00,   -9.600000e+01,   -4.575300e+00
   10852,    4.764815e+00,   -9.600000e+01,   -2.858433e+00
   10853,   -1.654799e+00,   -9.200000e+01,   -3.423652e+00
   10854,    1.222426e+00,   -9.200000e+01,   -3.926771e+00
   10855,   -4.166067e+00,   -9.200000e+01,   -2.494552e+00
   10856,    3.366241e+00,   -9.200000e+01,   -4.575300e+00
   10857,    4.764815e+00,   -9.200000e+01,   -2.858433e+00
   10858,   -1.654799e+00,   -8.800000e+01,   -3.423652e+00
   10859,    1.222426e+00,   -8.800000e+01,   -3.926771e+00
   10860,   -4.166067e+00,   -8.800000e+01,   -2.494552e+00
   10861,    3.366241e+00,   -8.800000e+01,   -4.575300e+00
   10862,    4.764815e+00,   -8.800000e+01,   -2.858433e+00
   10863,   -1.654799e+00,   -8.400000e+01,   -3.423652e+00
   10864,    1.222426e+00,   -8.400000e+01,   -3.926771e+00
   10865,   -4.166067e+00,   -8.400000e+01,   -2.494552e+00
   10866,    3.366241e+00,   -8.400000e+01,   -4.575300e+00
   10867,    4.764815e+00,   -8.400000e+01,   -2.858433e+00
   10868,   -1.654799e+00,   -8.000000e+01,   -3.423652e+00
   10869,    1.222426e+00,   -8.000000e+01,   -3.926771e+00
   10870,   -4.166067e+00,   -8.000000e+01,   -2.494552e+00
   10871,    3.366241e+00,   -8.000000e+01,   -4.575300e+00
   10872,    4.764815e+00,   -8.000000e+01,   -2.858433e+00
   10873,   -1.654799e+00,   -7.600000e+01,   -3.423652e+00
   10874,    1.222426e+00,   -7.600000e+01,   -3.926771e+00
   10875,   -4.166067e+00,   -7.600000e+01,   -2.494552e+00
   10876,    3.366241e+00,   -7.600000e+01,   -4.575300e+00
   10877,    4.764815e+00,   -7.600000e+01,   -2.858433e+00
   10878,   -1.654799e+00,   -7.200000e+01,   -3.423652e+00
   10879,    1.222426e+00,   -7.200000e+01,   -3.926771e+00
   10880,   -4.166067e+00,   -7.200000e+01,   -2.494552e+00
   10881,    3.366241e+00,   -7.200000e+01,   -4.575300e+00
   10882,    4.764815e+00,   -7.200000e+01,   -2.858433e+00
   10883,   -1.654799e+00,   -6.800000e+01,   -3.423652e+00
   10884,    1.222426e+00,   -6.800000e+01,   -3.926771e+00
   10885,   -4.166067e+00,   -6.800000e+01,   -2.494552e+00
   10886,    3.366241e+00,   -6.800000e+01,   -4.575300e+00
   10887,    4.764815e+00,   -6.800000e+01,   -2.858433e+00
   10888,   -1.654799e+00,   -6.400000e+01,   -3.423652e+00
   10889,    1.222426e+00,   -6.400000e+01,   -3.926771e+00
   10890,   -4.166067e+00,   -6.400000e+01,   -2.494552e+00
   10891,    3.366241e+00,   -6.400000e+01,   -4.575300e+00
   10892,    4.764815e+00,   -6.400000e+01,   -2.858433e+00
   10893,   -1.654799e+00,   -6.000000e+01,   -3.423652e+00
   10894,    1.222426e+00,   -6.000000e+01,   -3.926771e+00
   10895,   -4.166067e+00,   -6.000000e+01,   -2.494552e+00
   10896,    3.366241e+00,   -6.000000e+01,   -4.575300e+00
   10897,    4.764815e+00,   -6.000000e+01,   -2.858433e+00
   10898,   -1.654799e+00,   -5.600000e+01,   -3.423652e+00
   10899,    1.222426e+00,   -5.600000e+01,   -3.926771e+00
   10900,   -4.166067e+00,   -5.600000e+01,   -2.494552e+00
   10901,    3.366241e+00,   -5.600000e+01,   -4.575300e+00
   10902,    4.764815e+00,   -5.600000e+01,   -2.858433e+00
   10903,   -1.654799e+00,   -5.200000e+01,   -3.423652e+00
   10904,    1.222426e+00,   -5.200000e+01,   -3.926771e+00
   10905,   -4.166067e+00,   -5.200000e+01,   -2.494552e+00
   10906,    3.366241e+00,   -5.200000e+01,   -4.575300e+00
   10907,    4.764815e+00,   -5.200000e+01,   -2.858433e+00
   10908,   -1.654799e+00,   -4.800000e+01,   -3.423652e+00
   10909,    1.222426e+00,   -4.800000e+01,   -3.926771e+00
   10910,   -4.166067e+00,   -4.800000e+01,   -2.494552e+00
   10911,    3.366241e+00,   -4.800000e+01,   -4.575300e+00
   10912,    4.764815e+00,   -4.800000e+01,   -2.858433e+00
   10913,   -1.654799e+00,   -4.400000e+01,   -3.423652e+00
   10914,    1.222426e+00,   -4.400000e+01,   -3.926771e+00
   10915,   -4.166067e+00,   -4.400000e+01,   -2.494552e+00
   10916,    3.366241e+00,   -4.400000e+01,   -4.575300e+00
   10917,    4.764815e+00,   -4.400000e+01,   -2.858433e+00
   10918,   -1.654799e+00,   -4.000000e+01,   -3.423652e+00
   10919,    1.222426e+00,   -4.000000e+01,   -3.926771e+00
   10920,   -4.166067e+00,   -4.000000e+01,   -2.494552e+00
   10921,    3.366241e+00,   -4.000000e+01,   -4.575300e+00
   10922,    4.764815e+00,   -4.000000e+01,   -2.858433e+00
   10923,   -1.654799e+00,   -3.600000e+01,   -3.423652e+00
   10924,    1.222426e+00,   -3.600000e+01,   -3.926771e+00
   10925,   -4.166067e+00,   -3.600000e+01,   -2.494552e+00
   10926,    3.366241e+00,   -3.600000e+01,   -4.575300e+00
   10927,    4.764815e+00,   -3.600000e+01,   -2.858433e+00
   10928,   -1.654799e+00,   -3.200000e+01,   -3.423652e+00
   10929,    1.222426e+00,   -3.200000e+01,   -3.926771e+00
   10930,   -4.166067e+00,   -3.200000e+01,   -2.494552e+00
   10931,    3.366241e+00,   -3.200000e+01,   -4.575300e+00
   10932,    4.764815e+00,   -3.200000e+01,   -2.858433e+00
   10933,   -1.654799e+00,   -2.800000e+01,   -3.423652e+00
   10934,    1.222426e+00,   -2.800000e+01,   -3.926771e+00
   10935,   -4.166067e+00,   -2.800000e+01,   -2.494552e+00
   10936,    3.366241e+00,   -2.800000e+01,   -4.575300e+00
   10937,    4.764815e+00,   -2.800000e+01,   -2.858433e+00
   10938,   -1.654799e+00,   -2.400000e+01,   -3.423652e+00
   10939,    1.222426e+00,   -2.400000e+01,   -3.926771e+00
   10940,   -4.166067e+00,   -2.400000e+01,   -2.494552e+00
   10941,    3.366241e+00,   -2.400000e+01,   -4.575300e+00
   10942,    4.764815e+00,   -2.400000e+01,   -2.858433e+00
   10943,   -1.654799e+00,   -2.000000e+01,   -3.423652e+00
   10944,    1.222426e+00,   -2.000000e+01,   -3.926771e+00
   10945,   -4.166067e+00,   -2.000000e+01,   -2.494552e+00
   10946,    3.366241e+00,   -2.000000e+01,   -4.575300e+00
   10947,    4.764815e+00,   -2.000000e+01,   -2.858433e+00
   10948,   -1.654799e+00,   -1.600000e+01,   -3.423652e+00
   10949,    1.222426e+00,   -1.600000e+01,   -3.926771e+00
   10950,   -4.166067e+00,   -1.600000e+01,   -2.494552e+00
   10951,    3.366241e+00,   -1.600000e+01,   -4.575300e+00
   10952,    4.764815e+00,   -1.600000e+01,   -2.858433e+00
   10953,   -1.654799e+00,   -1.200000e+01,   -3.423652e+00
   10954,    1.222426e+00,   -1.200000e+01,   -3.926771e+00
   10955,   -4.166067e+00,   -1.200000e+01,   -2.494552e+00
   10956,    3.366241e+00,   -1.200000e+01,   -4.575300e+00
   10957,    4.764815e+00,   -1.200000e+01,   -2.858433e+00
   10958,   -1.654799e+00,   -8.000000e+00,   -3.423652e+00
   10959,    1.222426e+00,   -8.000000e+00,   -3.926771e+00
   10960,   -4.166067e+00,   -8.000000e+00,   -2.494552e+00
   10961,    3.366241e+00,   -8.000000e+00,   -4.575300e+00
   10962,    4.764815e+00,   -8.000000e+00,   -2.858433e+00
   10963,   -1.654799e+00,   -4.000000e+00,   -3.423652e+00
   10964,    1.222426e+00,   -4.000000e+00,   -3.926771e+00
   10965,   -4.166067e+00,   -4.000000e+00,   -2.494552e+00
   10966,    3.366241e+00,   -4.000000e+00,   -4.575300e+00
   10967,    4.764815e+00,   -4.000000e+00,   -2.858433e+00
   10968,   -1.654799e+00,   -8.165316e-17,   -3.423652e+00
   10969,    1.222426e+00,    6.031845e-17,   -3.926771e+00
   10970,   -4.166067e+00,   -2.055673e-16,   -2.494552e+00
   10971,    3.366241e+00,    1.661013e-16,   -4.575300e+00
   10972,    4.764815e+00,    2.351114e-16,   -2.858433e+00
   10973,   -1.654799e+00,    3.333333e+00,   -3.423652e+00
   10974,    1.222426e+00,    3.333333e+00,   -3.926771e+00
   10975,   -4.166067e+00,    3.333333e+00,   -2.494552e+00
   10976,    3.366241e+00,    3.333333e+00,   -4.575300e+00
   10977,    4.764815e+00,    3.333333e+00,   -2.858433e+00
   10978,   -1.654799e+00,    6.666667e+00,   -3.423652e+00
   10979,    1.222426e+00,    6.666667e+00,   -3.926771e+00
   10980,   -4.166067e+00,    6.666667e+00,   -2.494552e+00
   10981,    3.366241e+00,    6.666667e+00,   -4.575300e+00
   10982,    4.764815e+00,    6.666667e+00,   -2.858433e+00
   10983,   -1.654799e+00,    1.111111e+01,   -3.423652e+00
   10984,    1.222426e+00,    1.111111e+01,   -3.926771e+00
   10985,   -4.166067e+00,    1.111111e+01,   -2.494552e+00
   10986,    3.366241e+00,    1.111111e+01,   -4.575300e+00
   10987,    4.764815e+00,    1.111111e+01,   -2.858433e+00
   10988,   -1.654799e+00,    1.555556e+01,   -3.423652e+00
   10989,    1.222426e+00,    1.555556e+01,   -3.926771e+00
   10990,   -4.166067e+00,    1.555556e+01,   -2.494552e+00
   10991,    3.366241e+00,    1.555556e+01,   -4.575300e+00
   10992,    4.764815e+00,    1.555556e+01,   -2.858433e+00
   10993,   -1.654799e+00,    2.000000e+01,   -3.423652e+00
   10994,    1.222426e+00,    2.000000e+01,   -3.926771e+00
   10995,   -4.166067e+00,    2.000000e+01,   -2.494552e+00
   10996,    3.366241e+00,    2.000000e+01,   -4.575300e+00
   10997,    4.764815e+00,    2.000000e+01,   -2.858433e+00
   10998,    4.000000e+01,    6.666667e+00,    0.000000e+00
   10999,    3.600000e+01,    6.666667e+00,    0.000000e+00
   11000,    3.200000e+01,    6.666667e+00,    0.000000e+00
   11001,    2.800000e+01,    6.666667e+00,    0.000000e+00
   11002,    2.400000e+01,    6.666667e+00,    0.000000e+00
   11003,    2.000000e+01,    6.666667e+00,    0.000000e+00
   11004,    1.600000e+01,    6.666667e+00,    0.000000e+00
   11005,    1.200000e+01,    6.666667e+00,    0.000000e+00
   11006,    4.000000e+01,    6.666667e+00,   -4.000000e+01
   11007,    4.000000e+01,    6.666667e+00,   -3.600000e+01
   11008,    4.000000e+01,    6.666667e+00,   -3.200000e+01
   11009,    4.000000e+01,    6.666667e+00,   -2.800000e+01
   11010,    4.000000e+01,    6.666667e+00,   -2.400000e+01
   11011,    4.000000e+01,    6.666667e+00,   -2.000000e+01
   11012,    4.000000e+01,    6.666667e+00,   -1.600000e+01
   11013,    4.000000e+01,    6.666667e+00,   -1.200000e+01
   11014,    4.000000e+01,    6.666667e+00,   -8.000000e+00
   11015,    4.000000e+01,    6.666667e+00,   -4.000000e+00
   11016,   -4.000000e+01,    6.666667e+00,   -4.000000e+01
   11017,   -3.600000e+01,    6.666667e+00,   -4.000000e+01
   11018,   -3.200000e+01,    6.666667e+00,   -4.000000e+01
   11019,   -2.800000e+01,    6.666667e+00,   -4.000000e+01
   11020,   -2.400000e+01,    6.666667e+00,   -4.000000e+01
   11021,   -2.000000e+01,    6.666667e+00,   -4.000000e+01
   11022,   -1.600000e+01,    6.666667e+00,   -4.000000e+01
   11023,   -1.200000e+01,    6.666667e+00,   -4.000000e+01
   11024,   -8.000000e+00,    6.666667e+00,   -4.000000e+01
   11025,   -4.000000e+00,    6.666667e+00,   -4.000000e+01
   11026,    0.000000e+00,    6.666667e+00,   -4.000000e+01
   11027,    4.000000e+00,    6.666667e+00,   -4.000000e+01
   11028,    8.000000e+00,    6.666667e+00,   -4.000000e+01
   11029,    1.200000e+01,    6.666667e+00,   -4.000000e+01
   11030,    1.600000e+01,    6.666667e+00,   -4.000000e+01
   11031,    2.000000e+01,    6.666667e+00,   -4.000000e+01
   11032,    2.400000e+01,    6.666667e+00,   -4.000000e+01
   11033,    2.800000e+01,    6.666667e+00,   -4.000000e+01
   11034,    3.200000e+01,    6.666667e+00,   -4.000000e+01
   11035,    3.600000e+01,    6.666667e+00,   -4.000000e+01
   11036,   -4.000000e+01,    6.666667e+00,    0.000000e+00
   11037,   -4.000000e+01,    6.666667e+00,   -4.000000e+00
   11038,   -4.000000e+01,    6.666667e+00,   -8.000000e+00
   11039,   -4.000000e+01,    6.666667e+00,   -1.200000e+01
   11040,   -4.000000e+01,    6.666667e+00,   -1.600000e+01
   11041,   -4.000000e+01,    6.666667e+00,   -2.000000e+01
   11042,   -4.000000e+01,    6.666667e+00,   -2.400000e+01
   11043,   -4.000000e+01,    6.666667e+00,   -2.800000e+01
   11044,   -4.000000e+01,    6.666667e+00,   -3.200000e+01
   11045,   -4.000000e+01,    6.666667e+00,   -3.600000e+01
   11046,   -1.200000e+01,    6.666667e+00,    0.000000e+00
   11047,   -1.600000e+01,    6.666667e+00,    0.000000e+00
   11048,   -2.000000e+01,    6.666667e+00,    0.000000e+00
   11049,   -2.400000e+01,    6.666667e+00,    0.000000e+00
   11050,   -2.800000e+01,    6.666667e+00,    0.000000e+00
   11051,   -3.200000e+01,    6.666667e+00,    0.000000e+00
   11052,   -3.600000e+01,    6.666667e+00,    0.000000e+00
   11053,    1.035338e+01,    6.666667e+00,   -6.239661e+00
   11054,    1.543794e+01,    6.666667e+00,   -5.296863e+00
   11055,    1.979447e+01,    6.666667e+00,   -4.729876e+00
   11056,    2.393743e+01,    6.666667e+00,   -4.403914e+00
   11057,    2.799402e+01,    6.666667e+00,   -4.214100e+00
   11058,    3.201046e+01,    6.666667e+00,   -4.106555e+00
   11059,    3.600822e+01,    6.666667e+00,   -4.043703e+00
   11060,    3.603363e+01,    6.666667e+00,   -3.599565e+01
   11061,    3.206636e+01,    6.666667e+00,   -3.598076e+01
   11062,    2.809964e+01,    6.666667e+00,   -3.593847e+01
   11063,    2.412620e+01,    6.666667e+00,   -3.584023e+01
   11064,    2.014125e+01,    6.666667e+00,   -3.567464e+01
   11065,    1.614008e+01,    6.666667e+00,   -3.550916e+01
   11066,    1.210931e+01,    6.666667e+00,   -3.549320e+01
   11067,    8.067386e+00,    6.666667e+00,   -3.557565e+01
   11068,    4.018314e+00,    6.666667e+00,   -3.569426e+01
   11069,   -2.185552e-02,    6.666667e+00,   -3.581454e+01
   11070,   -4.049930e+00,    6.666667e+00,   -3.591278e+01
   11071,   -8.066805e+00,    6.666667e+00,   -3.598319e+01
   11072,   -1.207464e+01,    6.666667e+00,   -3.602514e+01
   11073,   -1.607607e+01,    6.666667e+00,   -3.603932e+01
   11074,   -2.007116e+01,    6.666667e+00,   -3.603858e+01
   11075,   -2.406112e+01,    6.666667e+00,   -3.603122e+01
   11076,   -2.804734e+01,    6.666667e+00,   -3.602356e+01
   11077,   -3.203121e+01,    6.666667e+00,   -3.601527e+01
   11078,   -3.601473e+01,    6.666667e+00,   -3.600728e+01
   11079,   -3.602582e+01,    6.666667e+00,   -4.010657e+00
   11080,   -3.204930e+01,    6.666667e+00,   -4.024200e+00
   11081,   -2.806748e+01,    6.666667e+00,   -4.042642e+00
   11082,   -2.406696e+01,    6.666667e+00,   -4.073720e+00
   11083,   -2.003270e+01,    6.666667e+00,   -4.147645e+00
   11084,   -1.591408e+01,    6.666667e+00,   -4.346095e+00
   11085,   -1.102871e+01,    6.666667e+00,   -5.208622e+00
   11086,    3.602988e+01,    6.666667e+00,   -8.076038e+00
   11087,    3.607704e+01,    6.666667e+00,   -1.209229e+01
   11088,    3.613444e+01,    6.666667e+00,   -1.608596e+01
   11089,    3.617567e+01,    6.666667e+00,   -2.005981e+01
   11090,    3.615918e+01,    6.666667e+00,   -2.402974e+01
   11091,    3.611786e+01,    6.666667e+00,   -2.800854e+01
   11092,    3.607315e+01,    6.666667e+00,   -3.199625e+01
   11093,   -3.603153e+01,    6.666667e+00,   -3.201490e+01
   11094,   -3.605004e+01,    6.666667e+00,   -2.802104e+01
   11095,   -3.606525e+01,    6.666667e+00,   -2.402789e+01
   11096,   -3.607824e+01,    6.666667e+00,   -2.003086e+01
   11097,   -3.608145e+01,    6.666667e+00,   -1.602970e+01
   11098,   -3.607165e+01,    6.666667e+00,   -1.202596e+01
   11099,   -3.605270e+01,    6.666667e+00,   -8.019129e+00
   11100,   -7.676420e+00,    6.666667e+00,   -8.483598e+00
   11101,   -6.292756e+00,    6.666667e+00,   -1.204892e+01
   11102,   -2.585946e+00,    6.666667e+00,   -1.130823e+01
   11103,    1.359922e+00,    6.666667e+00,   -1.094810e+01
   11104,    5.527334e+00,    6.666667e+00,   -9.659845e+00
   11105,   -3.210361e+01,    6.666667e+00,   -8.042339e+00
   11106,   -2.815510e+01,    6.666667e+00,   -8.071414e+00
   11107,   -2.421217e+01,    6.666667e+00,   -8.119311e+00
   11108,   -2.029000e+01,    6.666667e+00,   -8.213446e+00
   11109,   -1.639400e+01,    6.666667e+00,   -8.526873e+00
   11110,   -1.270903e+01,    6.666667e+00,   -9.124861e+00
   11111,   -1.001863e+01,    6.666667e+00,   -1.010961e+01
   11112,   -9.622448e+00,    6.666667e+00,   -1.280972e+01
   11113,   -9.151827e+00,    6.666667e+00,   -1.628220e+01
   11114,   -5.396329e+00,    6.666667e+00,   -1.578446e+01
   11115,   -1.447074e+00,    6.666667e+00,   -1.514390e+01
   11116,    2.476808e+00,    6.666667e+00,   -1.449494e+01
   11117,    6.692977e+00,    6.666667e+00,   -1.336327e+01
   11118,    1.116349e+01,    6.666667e+00,   -1.165195e+01
   11119,    1.565638e+01,    6.666667e+00,   -1.038855e+01
   11120,    1.991511e+01,    6.666667e+00,   -9.379810e+00
   11121,    2.403449e+01,    6.666667e+00,   -8.746451e+00
   11122,    2.807243e+01,    6.666667e+00,   -8.389235e+00
   11123,    3.206505e+01,    6.666667e+00,   -8.195069e+00
   11124,   -3.206475e+01,    6.666667e+00,   -3.203047e+01
   11125,   -3.209886e+01,    6.666667e+00,   -2.804457e+01
   11126,   -3.213310e+01,    6.666667e+00,   -2.405446e+01
   11127,   -3.215742e+01,    6.666667e+00,   -2.005855e+01
   11128,   -3.216365e+01,    6.666667e+00,   -1.605701e+01
   11129,   -3.214263e+01,    6.666667e+00,   -1.205265e+01
   11130,    3.216217e+01,    6.666667e+00,   -1.222571e+01
   11131,    3.229260e+01,    6.666667e+00,   -1.620179e+01
   11132,    3.238709e+01,    6.666667e+00,   -2.013122e+01
   11133,    3.233972e+01,    6.666667e+00,   -2.405016e+01
   11134,    3.224253e+01,    6.666667e+00,   -2.799413e+01
   11135,    3.214827e+01,    6.666667e+00,   -3.197185e+01
   11136,    2.822197e+01,    6.666667e+00,   -3.189704e+01
   11137,    2.428602e+01,    6.666667e+00,   -3.170823e+01
   11138,    2.033196e+01,    6.666667e+00,   -3.134567e+01
   11139,    1.633846e+01,    6.666667e+00,   -3.104956e+01
   11140,    1.224031e+01,    6.666667e+00,   -3.094010e+01
   11141,    8.123892e+00,    6.666667e+00,   -3.112419e+01
   11142,    4.018007e+00,    6.666667e+00,   -3.138206e+01
   11143,   -6.542876e-02,    6.666667e+00,   -3.162889e+01
   11144,   -4.124216e+00,    6.666667e+00,   -3.183011e+01
   11145,   -8.155029e+00,    6.666667e+00,   -3.197181e+01
   11146,   -1.216891e+01,    6.666667e+00,   -3.205153e+01
   11147,   -1.616803e+01,    6.666667e+00,   -3.207971e+01
   11148,   -2.015168e+01,    6.666667e+00,   -3.207489e+01
   11149,   -2.412672e+01,    6.666667e+00,   -3.206050e+01
   11150,   -2.809696e+01,    6.666667e+00,   -3.204531e+01
   11151,   -2.822439e+01,    6.666667e+00,   -1.208660e+01
   11152,   -2.432462e+01,    6.666667e+00,   -1.213923e+01
   11153,   -2.045791e+01,    6.666667e+00,   -1.222285e+01
   11154,   -1.666024e+01,    6.666667e+00,   -1.238090e+01
   11155,   -1.297778e+01,    6.666667e+00,   -1.267569e+01
   11156,   -1.287965e+01,    6.666667e+00,   -1.636961e+01
   11157,   -1.266446e+01,    6.666667e+00,   -2.022277e+01
   11158,   -8.769277e+00,    6.666667e+00,   -2.006644e+01
   11159,   -4.834281e+00,    6.666667e+00,   -1.968643e+01
   11160,   -7.972943e-01,    6.666667e+00,   -1.915056e+01
   11161,    3.342716e+00,    6.666667e+00,   -1.846399e+01
   11162,    7.486011e+00,    6.666667e+00,   -1.760938e+01
   11163,    1.186113e+01,    6.666667e+00,   -1.650747e+01
   11164,    1.625990e+01,    6.666667e+00,   -1.527754e+01
   11165,    2.040732e+01,    6.666667e+00,   -1.381863e+01
   11166,    2.431061e+01,    6.666667e+00,   -1.293101e+01
   11167,    2.825242e+01,    6.666667e+00,   -1.248018e+01
   11168,   -2.815075e+01,    6.666667e+00,   -2.806490e+01
   11169,   -2.820490e+01,    6.666667e+00,   -2.408056e+01
   11170,   -2.824369e+01,    6.666667e+00,   -2.008837e+01
   11171,   -2.825184e+01,    6.666667e+00,   -1.609231e+01
   11172,    2.848942e+01,    6.666667e+00,   -1.641873e+01
   11173,    2.868685e+01,    6.666667e+00,   -2.022711e+01
   11174,    2.855625e+01,    6.666667e+00,   -2.401984e+01
   11175,    2.837726e+01,    6.666667e+00,   -2.790630e+01
   11176,    2.451634e+01,    6.666667e+00,   -2.765203e+01
   11177,    2.069141e+01,    6.666667e+00,   -2.713403e+01
   11178,    1.667189e+01,    6.666667e+00,   -2.635339e+01
   11179,    1.238312e+01,    6.666667e+00,   -2.636243e+01
   11180,    8.154765e+00,    6.666667e+00,   -2.664113e+01
   11181,    3.967979e+00,    6.666667e+00,   -2.706137e+01
   11182,   -1.673856e-01,    6.666667e+00,   -2.744351e+01
   11183,   -4.249289e+00,    6.666667e+00,   -2.775387e+01
   11184,   -8.287866e+00,    6.666667e+00,   -2.796880e+01
   11185,   -1.229746e+01,    6.666667e+00,   -2.808248e+01
   11186,   -1.628430e+01,    6.666667e+00,   -2.811640e+01
   11187,   -2.025078e+01,    6.666667e+00,   -2.810617e+01
   11188,   -2.420374e+01,    6.666667e+00,   -2.808623e+01
   11189,   -1.666216e+01,    6.666667e+00,   -1.629514e+01
   11190,   -1.655734e+01,    6.666667e+00,   -2.022217e+01
   11191,   -1.641626e+01,    6.666667e+00,   -2.416168e+01
   11192,   -1.246127e+01,    6.666667e+00,   -2.412491e+01
   11193,   -8.489061e+00,    6.666667e+00,   -2.397315e+01
   11194,   -4.478439e+00,    6.666667e+00,   -2.367560e+01
   11195,   -3.990548e-01,    6.666667e+00,   -2.325239e+01
   11196,    3.758583e+00,    6.666667e+00,   -2.270783e+01
   11197,    2.122412e+01,    6.666667e+00,   -1.781483e+01
   11198,    2.479457e+01,    6.666667e+00,   -1.689246e+01
   11199,   -2.436292e+01,    6.666667e+00,   -1.613900e+01
   11200,   -2.048923e+01,    6.666667e+00,   -1.621063e+01
   11201,    2.528646e+01,    6.666667e+00,   -2.034120e+01
   11202,    2.490981e+01,    6.666667e+00,   -2.378897e+01
   11203,   -2.428118e+01,    6.666667e+00,   -2.410971e+01
   11204,   -2.433997e+01,    6.666667e+00,   -2.013038e+01
   11205,    2.137323e+01,    6.666667e+00,   -2.315172e+01
   11206,    1.749845e+01,    6.666667e+00,   -2.077788e+01
   11207,    1.249406e+01,    6.666667e+00,   -2.140399e+01
   11208,    7.994831e+00,    6.666667e+00,   -2.208453e+01
   11209,    2.257048e+01,    6.666667e+00,   -2.043818e+01
   11210,   -2.035498e+01,    6.666667e+00,   -2.414043e+01
   11211,   -2.043622e+01,    6.666667e+00,   -2.017628e+01
   11212,    4.000000e+01,    2.000000e+01,    0.000000e+00
   11213,    4.000000e+01,    1.111111e+01,    0.000000e+00
   11214,    4.000000e+01,    1.555556e+01,    0.000000e+00
   11215,    3.600000e+01,    2.000000e+01,    0.000000e+00
   11216,    3.200000e+01,    2.000000e+01,    0.000000e+00
   11217,    2.800000e+01,    2.000000e+01,    0.000000e+00
   11218,    2.400000e+01,    2.000000e+01,    0.000000e+00
   11219,    2.000000e+01,    2.000000e+01,    0.000000e+00
   11220,    1.600000e+01,    2.000000e+01,    0.000000e+00
   11221,    1.200000e+01,    2.000000e+01,    0.000000e+00
   11222,    1.200000e+01,    1.111111e+01,    0.000000e+00
   11223,    1.600000e+01,    1.111111e+01,    0.000000e+00
   11224,    2.000000e+01,    1.111111e+01,    0.000000e+00
   11225,    2.400000e+01,    1.111111e+01,    0.000000e+00
   11226,    2.800000e+01,    1.111111e+01,    0.000000e+00
   11227,    3.200000e+01,    1.111111e+01,    0.000000e+00
   11228,    3.600000e+01,    1.111111e+01,    0.000000e+00
   11229,    1.200000e+01,    1.555556e+01,    0.000000e+00
   11230,    1.600000e+01,    1.555556e+01,    0.000000e+00
   11231,    2.000000e+01,    1.555556e+01,    0.000000e+00
   11232,    2.400000e+01,    1.555556e+01,    0.000000e+00
   11233,    2.800000e+01,    1.555556e+01,    0.000000e+00
   11234,    3.200000e+01,    1.555556e+01,    0.000000e+00
   11235,    3.600000e+01,    1.555556e+01,    0.000000e+00
   11236,   -4.000000e+01,    2.000000e+01,    0.000000e+00
   11237,   -1.200000e+01,    2.000000e+01,    0.000000e+00
   11238,   -1.600000e+01,    2.000000e+01,    0.000000e+00
   11239,   -2.000000e+01,    2.000000e+01,    0.000000e+00
   11240,   -2.400000e+01,    2.000000e+01,    0.000000e+00
   11241,   -2.800000e+01,    2.000000e+01,    0.000000e+00
   11242,   -3.200000e+01,    2.000000e+01,    0.000000e+00
   11243,   -3.600000e+01,    2.000000e+01,    0.000000e+00
   11244,   -4.000000e+01,    1.555556e+01,    0.000000e+00
   11245,   -4.000000e+01,    1.111111e+01,    0.000000e+00
   11246,   -3.600000e+01,    1.111111e+01,    0.000000e+00
   11247,   -3.200000e+01,    1.111111e+01,    0.000000e+00
   11248,   -2.800000e+01,    1.111111e+01,    0.000000e+00
   11249,   -2.400000e+01,    1.111111e+01,    0.000000e+00
   11250,   -2.000000e+01,    1.111111e+01,    0.000000e+00
   11251,   -1.600000e+01,    1.111111e+01,    0.000000e+00
   11252,   -1.200000e+01,    1.111111e+01,    0.000000e+00
   11253,   -3.600000e+01,    1.555556e+01,    0.000000e+00
   11254,   -3.200000e+01,    1.555556e+01,    0.000000e+00
   11255,   -2.800000e+01,    1.555556e+01,    0.000000e+00
   11256,   -2.400000e+01,    1.555556e+01,    0.000000e+00
   11257,   -2.000000e+01,    1.555556e+01,    0.000000e+00
   11258,   -1.600000e+01,    1.555556e+01,    0.000000e+00
   11259,   -1.200000e+01,    1.555556e+01,    0.000000e+00
   11260,    4.000000e+01,    2.000000e+01,   -4.000000e+01
   11261,    4.000000e+01,    1.555556e+01,   -4.000000e+01
   11262,    4.000000e+01,    1.111111e+01,   -4.000000e+01
   11263,    4.000000e+01,    2.000000e+01,   -4.000000e+00
   11264,    4.000000e+01,    2.000000e+01,   -8.000000e+00
   11265,    4.000000e+01,    2.000000e+01,   -1.200000e+01
   11266,    4.000000e+01,    2.000000e+01,   -1.600000e+01
   11267,    4.000000e+01,    2.000000e+01,   -2.000000e+01
   11268,    4.000000e+01,    2.000000e+01,   -2.400000e+01
   11269,    4.000000e+01,    2.000000e+01,   -2.800000e+01
   11270,    4.000000e+01,    2.000000e+01,   -3.200000e+01
   11271,    4.000000e+01,    2.000000e+01,   -3.600000e+01
   11272,    4.000000e+01,    1.555556e+01,   -4.000000e+00
   11273,    4.000000e+01,    1.111111e+01,   -4.000000e+00
   11274,    4.000000e+01,    1.555556e+01,   -8.000000e+00
   11275,    4.000000e+01,    1.111111e+01,   -8.000000e+00
   11276,    4.000000e+01,    1.555556e+01,   -1.200000e+01
   11277,    4.000000e+01,    1.111111e+01,   -1.200000e+01
   11278,    4.000000e+01,    1.555556e+01,   -1.600000e+01
   11279,    4.000000e+01,    1.111111e+01,   -1.600000e+01
   11280,    4.000000e+01,    1.555556e+01,   -2.000000e+01
   11281,    4.000000e+01,    1.111111e+01,   -2.000000e+01
   11282,    4.000000e+01,    1.555556e+01,   -2.400000e+01
   11283,    4.000000e+01,    1.111111e+01,   -2.400000e+01
   11284,    4.000000e+01,    1.555556e+01,   -2.800000e+01
   11285,    4.000000e+01,    1.111111e+01,   -2.800000e+01
   11286,    4.000000e+01,    1.555556e+01,   -3.200000e+01
   11287,    4.000000e+01,    1.111111e+01,   -3.200000e+01
   11288,    4.000000e+01,    1.555556e+01,   -3.600000e+01
   11289,    4.000000e+01,    1.111111e+01,   -3.600000e+01
   11290,   -4.000000e+01,    2.000000e+01,   -4.000000e+01
   11291,   -4.000000e+01,    1.111111e+01,   -4.000000e+01
   11292,   -4.000000e+01,    1.555556e+01,   -4.000000e+01
   11293,   -3.600000e+01,    2.000000e+01,   -4.000000e+01
   11294,   -3.200000e+01,    2.000000e+01,   -4.000000e+01
   11295,   -2.800000e+01,    2.000000e+01,   -4.000000e+01
   11296,   -2.400000e+01,    2.000000e+01,   -4.000000e+01
   11297,   -2.000000e+01,    2.000000e+01,   -4.000000e+01
   11298,   -1.600000e+01,    2.000000e+01,   -4.000000e+01
   11299,   -1.200000e+01,    2.000000e+01,   -4.000000e+01
   11300,   -8.000000e+00,    2.000000e+01,   -4.000000e+01
   11301,   -4.000000e+00,    2.000000e+01,   -4.000000e+01
   11302,    0.000000e+00,    2.000000e+01,   -4.000000e+01
   11303,    4.000000e+00,    2.000000e+01,   -4.000000e+01
   11304,    8.000000e+00,    2.000000e+01,   -4.000000e+01
   11305,    1.200000e+01,    2.000000e+01,   -4.000000e+01
   11306,    1.600000e+01,    2.000000e+01,   -4.000000e+01
   11307,    2.000000e+01,    2.000000e+01,   -4.000000e+01
   11308,    2.400000e+01,    2.000000e+01,   -4.000000e+01
   11309,    2.800000e+01,    2.000000e+01,   -4.000000e+01
   11310,    3.200000e+01,    2.000000e+01,   -4.000000e+01
   11311,    3.600000e+01,    2.000000e+01,   -4.000000e+01
   11312,    3.600000e+01,    1.111111e+01,   -4.000000e+01
   11313,    3.200000e+01,    1.111111e+01,   -4.000000e+01
   11314,    2.800000e+01,    1.111111e+01,   -4.000000e+01
   11315,    2.400000e+01,    1.111111e+01,   -4.000000e+01
   11316,    2.000000e+01,    1.111111e+01,   -4.000000e+01
   11317,    1.600000e+01,    1.111111e+01,   -4.000000e+01
   11318,    1.200000e+01,    1.111111e+01,   -4.000000e+01
   11319,    8.000000e+00,    1.111111e+01,   -4.000000e+01
   11320,    4.000000e+00,    1.111111e+01,   -4.000000e+01
   11321,    0.000000e+00,    1.111111e+01,   -4.000000e+01
   11322,   -4.000000e+00,    1.111111e+01,   -4.000000e+01
   11323,   -8.000000e+00,    1.111111e+01,   -4.000000e+01
   11324,   -1.200000e+01,    1.111111e+01,   -4.000000e+01
   11325,   -1.600000e+01,    1.111111e+01,   -4.000000e+01
   11326,   -2.000000e+01,    1.111111e+01,   -4.000000e+01
   11327,   -2.400000e+01,    1.111111e+01,   -4.000000e+01
   11328,   -2.800000e+01,    1.111111e+01,   -4.000000e+01
   11329,   -3.200000e+01,    1.111111e+01,   -4.000000e+01
   11330,   -3.600000e+01,    1.111111e+01,   -4.000000e+01
   11331,    3.600000e+01,    1.555556e+01,   -4.000000e+01
   11332,    3.200000e+01,    1.555556e+01,   -4.000000e+01
   11333,    2.800000e+01,    1.555556e+01,   -4.000000e+01
   11334,    2.400000e+01,    1.555556e+01,   -4.000000e+01
   11335,    2.000000e+01,    1.555556e+01,   -4.000000e+01
   11336,    1.600000e+01,    1.555556e+01,   -4.000000e+01
   11337,    1.200000e+01,    1.555556e+01,   -4.000000e+01
   11338,    8.000000e+00,    1.555556e+01,   -4.000000e+01
   11339,    4.000000e+00,    1.555556e+01,   -4.000000e+01
   11340,    0.000000e+00,    1.555556e+01,   -4.000000e+01
   11341,   -4.000000e+00,    1.555556e+01,   -4.000000e+01
   11342,   -8.000000e+00,    1.555556e+01,   -4.000000e+01
   11343,   -1.200000e+01,    1.555556e+01,   -4.000000e+01
   11344,   -1.600000e+01,    1.555556e+01,   -4.000000e+01
   11345,   -2.000000e+01,    1.555556e+01,   -4.000000e+01
   11346,   -2.400000e+01,    1.555556e+01,   -4.000000e+01
   11347,   -2.800000e+01,    1.555556e+01,   -4.000000e+01
   11348,   -3.200000e+01,    1.555556e+01,   -4.000000e+01
   11349,   -3.600000e+01,    1.555556e+01,   -4.000000e+01
   11350,   -4.000000e+01,    2.000000e+01,   -4.000000e+00
   11351,   -4.000000e+01,    2.000000e+01,   -8.000000e+00
   11352,   -4.000000e+01,    2.000000e+01,   -1.200000e+01
   11353,   -4.000000e+01,    2.000000e+01,   -1.600000e+01
   11354,   -4.000000e+01,    2.000000e+01,   -2.000000e+01
   11355,   -4.000000e+01,    2.000000e+01,   -2.400000e+01
   11356,   -4.000000e+01,    2.000000e+01,   -2.800000e+01
   11357,   -4.000000e+01,    2.000000e+01,   -3.200000e+01
   11358,   -4.000000e+01,    2.000000e+01,   -3.600000e+01
   11359,   -4.000000e+01,    1.111111e+01,   -4.000000e+00
   11360,   -4.000000e+01,    1.555556e+01,   -4.000000e+00
   11361,   -4.000000e+01,    1.111111e+01,   -8.000000e+00
   11362,   -4.000000e+01,    1.555556e+01,   -8.000000e+00
   11363,   -4.000000e+01,    1.111111e+01,   -1.200000e+01
   11364,   -4.000000e+01,    1.555556e+01,   -1.200000e+01
   11365,   -4.000000e+01,    1.111111e+01,   -1.600000e+01
   11366,   -4.000000e+01,    1.555556e+01,   -1.600000e+01
   11367,   -4.000000e+01,    1.111111e+01,   -2.000000e+01
   11368,   -4.000000e+01,    1.555556e+01,   -2.000000e+01
   11369,   -4.000000e+01,    1.111111e+01,   -2.400000e+01
   11370,   -4.000000e+01,    1.555556e+01,   -2.400000e+01
   11371,   -4.000000e+01,    1.111111e+01,   -2.800000e+01
   11372,   -4.000000e+01,    1.555556e+01,   -2.800000e+01
   11373,   -4.000000e+01,    1.111111e+01,   -3.200000e+01
   11374,   -4.000000e+01,    1.555556e+01,   -3.200000e+01
   11375,   -4.000000e+01,    1.111111e+01,   -3.600000e+01
   11376,   -4.000000e+01,    1.555556e+01,   -3.600000e+01
   11377,    1.035338e+01,    1.111111e+01,   -6.239661e+00
   11378,    1.543794e+01,    1.111111e+01,   -5.296863e+00
   11379,    1.979447e+01,    1.111111e+01,   -4.729876e+00
   11380,    2.393743e+01,    1.111111e+01,   -4.403914e+00
   11381,    2.799402e+01,    1.111111e+01,   -4.214100e+00
   11382,    3.201046e+01,    1.111111e+01,   -4.106555e+00
   11383,    3.600822e+01,    1.111111e+01,   -4.043703e+00
   11384,    3.603363e+01,    1.111111e+01,   -3.599565e+01
   11385,    3.206636e+01,    1.111111e+01,   -3.598076e+01
   11386,    2.809964e+01,    1.111111e+01,   -3.593847e+01
   11387,    2.412620e+01,    1.111111e+01,   -3.584023e+01
   11388,    2.014125e+01,    1.111111e+01,   -3.567464e+01
   11389,    1.614008e+01,    1.111111e+01,   -3.550916e+01
   11390,    1.210931e+01,    1.111111e+01,   -3.549320e+01
   11391,    8.067386e+00,    1.111111e+01,   -3.557565e+01
   11392,    4.018314e+00,    1.111111e+01,   -3.569426e+01
   11393,   -2.185552e-02,    1.111111e+01,   -3.581454e+01
   11394,   -4.049930e+00,    1.111111e+01,   -3.591278e+01
   11395,   -8.066805e+00,    1.111111e+01,   -3.598319e+01
   11396,   -1.207464e+01,    1.111111e+01,   -3.602514e+01
   11397,   -1.607607e+01,    1.111111e+01,   -3.603932e+01
   11398,   -2.007116e+01,    1.111111e+01,   -3.603858e+01
   11399,   -2.406112e+01,    1.111111e+01,   -3.603122e+01
   11400,   -2.804734e+01,    1.111111e+01,   -3.602356e+01
   11401,   -3.203121e+01,    1.111111e+01,   -3.601527e+01
   11402,   -3.601473e+01,    1.111111e+01,   -3.600728e+01
   11403,   -3.602582e+01,    1.111111e+01,   -4.010657e+00
   11404,   -3.204930e+01,    1.111111e+01,   -4.024200e+00
   11405,   -2.806748e+01,    1.111111e+01,   -4.042642e+00
   11406,   -2.406696e+01,    1.111111e+01,   -4.073720e+00
   11407,   -2.003270e+01,    1.111111e+01,   -4.147645e+00
   11408,   -1.591408e+01,    1.111111e+01,   -4.346095e+00
   11409,   -1.102871e+01,    1.111111e+01,   -5.208622e+00
   11410,    3.602988e+01,    1.111111e+01,   -8.076038e+00
   11411,    3.607704e+01,    1.111111e+01,   -1.209229e+01
   11412,    3.613444e+01,    1.111111e+01,   -1.608596e+01
   11413,    3.617567e+01,    1.111111e+01,   -2.005981e+01
   11414,    3.615918e+01,    1.111111e+01,   -2.402974e+01
   11415,    3.611786e+01,    1.111111e+01,   -2.800854e+01
   11416,    3.607315e+01,    1.111111e+01,   -3.199625e+01
   11417,   -3.603153e+01,    1.111111e+01,   -3.201490e+01
   11418,   -3.605004e+01,    1.111111e+01,   -2.802104e+01
   11419,   -3.606525e+01,    1.111111e+01,   -2.402789e+01
   11420,   -3.607824e+01,    1.111111e+01,   -2.003086e+01
   11421,   -3.608145e+01,    1.111111e+01,   -1.602970e+01
   11422,   -3.607165e+01,    1.111111e+01,   -1.202596e+01
   11423,   -3.605270e+01,    1.111111e+01,   -8.019129e+00
   11424,   -7.676420e+00,    1.111111e+01,   -8.483598e+00
   11425,   -6.292756e+00,    1.111111e+01,   -1.204892e+01
   11426,   -2.585946e+00,    1.111111e+01,   -1.130823e+01
   11427,    1.359922e+00,    1.111111e+01,   -1.094810e+01
   11428,    5.527334e+00,    1.111111e+01,   -9.659845e+00
   11429,   -3.210361e+01,    1.111111e+01,   -8.042339e+00
   11430,   -2.815510e+01,    1.111111e+01,   -8.071414e+00
   11431,   -2.421217e+01,    1.111111e+01,   -8.119311e+00
   11432,   -2.029000e+01,    1.111111e+01,   -8.213446e+00
   11433,   -1.639400e+01,    1.111111e+01,   -8.526873e+00
   11434,   -1.270903e+01,    1.111111e+01,   -9.124861e+00
   11435,   -1.001863e+01,    1.111111e+01,   -1.010961e+01
   11436,   -9.622448e+00,    1.111111e+01,   -1.280972e+01
   11437,   -9.151827e+00,    1.111111e+01,   -1.628220e+01
   11438,   -5.396329e+00,    1.111111e+01,   -1.578446e+01
   11439,   -1.447074e+00,    1.111111e+01,   -1.514390e+01
   11440,    2.476808e+00,    1.111111e+01,   -1.449494e+01
   11441,    6.692977e+00,    1.111111e+01,   -1.336327e+01
   11442,    1.116349e+01,    1.111111e+01,   -1.165195e+01
   11443,    1.565638e+01,    1.111111e+01,   -1.038855e+01
   11444,    1.991511e+01,    1.111111e+01,   -9.379810e+00
   11445,    2.403449e+01,    1.111111e+01,   -8.746451e+00
   11446,    2.807243e+01,    1.111111e+01,   -8.389235e+00
   11447,    3.206505e+01,    1.111111e+01,   -8.195069e+00
   11448,   -3.206475e+01,    1.111111e+01,   -3.203047e+01
   11449,   -3.209886e+01,    1.111111e+01,   -2.804457e+01
   11450,   -3.213310e+01,    1.111111e+01,   -2.405446e+01
   11451,   -3.215742e+01,    1.111111e+01,   -2.005855e+01
   11452,   -3.216365e+01,    1.111111e+01,   -1.605701e+01
   11453,   -3.214263e+01,    1.111111e+01,   -1.205265e+01
   11454,    3.216217e+01,    1.111111e+01,   -1.222571e+01
   11455,    3.229260e+01,    1.111111e+01,   -1.620179e+01
   11456,    3.238709e+01,    1.111111e+01,   -2.013122e+01
   11457,    3.233972e+01,    1.111111e+01,   -2.405016e+01
   11458,    3.224253e+01,    1.111111e+01,   -2.799413e+01
   11459,    3.214827e+01,    1.111111e+01,   -3.197185e+01
   11460,    2.822197e+01,    1.111111e+01,   -3.189704e+01
   11461,    2.428602e+01,    1.111111e+01,   -3.170823e+01
   11462,    2.033196e+01,    1.111111e+01,   -3.134567e+01
   11463,    1.633846e+01,    1.111111e+01,   -3.104956e+01
   11464,    1.224031e+01,    1.111111e+01,   -3.094010e+01
   11465,    8.123892e+00,    1.111111e+01,   -3.112419e+01
   11466,    4.018007e+00,    1.111111e+01,   -3.138206e+01
   11467,   -6.542876e-02,    1.111111e+01,   -3.162889e+01
   11468,   -4.124216e+00,    1.111111e+01,   -3.183011e+01
   11469,   -8.155029e+00,    1.111111e+01,   -3.197181e+01
   11470,   -1.216891e+01,    1.111111e+01,   -3.205153e+01
   11471,   -1.616803e+01,    1.111111e+01,   -3.207971e+01
   11472,   -2.015168e+01,    1.111111e+01,   -3.207489e+01
   11473,   -2.412672e+01,    1.111111e+01,   -3.206050e+01
   11474,   -2.809696e+01,    1.111111e+01,   -3.204531e+01
   11475,   -2.822439e+01,    1.111111e+01,   -1.208660e+01
   11476,   -2.432462e+01,    1.111111e+01,   -1.213923e+01
   11477,   -2.045791e+01,    1.111111e+01,   -1.222285e+01
   11478,   -1.666024e+01,    1.111111e+01,   -1.238090e+01
   11479,   -1.297778e+01,    1.111111e+01,   -1.267569e+01
   11480,   -1.287965e+01,    1.111111e+01,   -1.636961e+01
   11481,   -1.266446e+01,    1.111111e+01,   -2.022277e+01
   11482,   -8.769277e+00,    1.111111e+01,   -2.006644e+01
   11483,   -4.834281e+00,    1.111111e+01,   -1.968643e+01
   11484,   -7.972943e-01,    1.111111e+01,   -1.915056e+01
   11485,    3.342716e+00,    1.111111e+01,   -1.846399e+01
   11486,    7.486011e+00,    1.111111e+01,   -1.760938e+01
   11487,    1.186113e+01,    1.111111e+01,   -1.650747e+01
   11488,    1.625990e+01,    1.111111e+01,   -1.527754e+01
   11489,    2.040732e+01,    1.111111e+01,   -1.381863e+01
   11490,    2.431061e+01,    1.111111e+01,   -1.293101e+01
   11491,    2.825242e+01,    1.111111e+01,   -1.248018e+01
   11492,   -2.815075e+01,    1.111111e+01,   -2.806490e+01
   11493,   -2.820490e+01,    1.111111e+01,   -2.408056e+01
   11494,   -2.824369e+01,    1.111111e+01,   -2.008837e+01
   11495,   -2.825184e+01,    1.111111e+01,   -1.609231e+01
   11496,    2.848942e+01,    1.111111e+01,   -1.641873e+01
   11497,    2.868685e+01,    1.111111e+01,   -2.022711e+01
   11498,    2.855625e+01,    1.111111e+01,   -2.401984e+01
   11499,    2.837726e+01,    1.111111e+01,   -2.790630e+01
   11500,    2.451634e+01,    1.111111e+01,   -2.765203e+01
   11501,    2.069141e+01,    1.111111e+01,   -2.713403e+01
   11502,    1.667189e+01,    1.111111e+01,   -2.635339e+01
   11503,    1.238312e+01,    1.111111e+01,   -2.636243e+01
   11504,    8.154765e+00,    1.111111e+01,   -2.664113e+01
   11505,    3.967979e+00,    1.111111e+01,   -2.706137e+01
   11506,   -1.673856e-01,    1.111111e+01,   -2.744351e+01
   11507,   -4.249289e+00,    1.111111e+01,   -2.775387e+01
   11508,   -8.287866e+00,    1.111111e+01,   -2.796880e+01
   11509,   -1.229746e+01,    1.111111e+01,   -2.808248e+01
   11510,   -1.628430e+01,    1.111111e+01,   -2.811640e+01
   11511,   -2.025078e+01,    1.111111e+01,   -2.810617e+01
   11512,   -2.420374e+01,    1.111111e+01,   -2.808623e+01
   11513,   -1.666216e+01,    1.111111e+01,   -1.629514e+01
   11514,   -1.655734e+01,    1.111111e+01,   -2.022217e+01
   11515,   -1.641626e+01,    1.111111e+01,   -2.416168e+01
   11516,   -1.246127e+01,    1.111111e+01,   -2.412491e+01
   11517,   -8.489061e+00,    1.111111e+01,   -2.397315e+01
   11518,   -4.478439e+00,    1.111111e+01,   -2.367560e+01
   11519,   -3.990548e-01,    1.111111e+01,   -2.325239e+01
   11520,    3.758583e+00,    1.111111e+01,   -2.270783e+01
   11521,    7.994831e+00,    1.111111e+01,   -2.208453e+01
   11522,    1.249406e+01,    1.111111e+01,   -2.140399e+01
   11523,    1.749845e+01,    1.111111e+01,   -2.077788e+01
   11524,    2.122412e+01,    1.111111e+01,   -1.781483e+01
   11525,    2.479457e+01,    1.111111e+01,   -1.689246e+01
   11526,   -2.436292e+01,    1.111111e+01,   -1.613900e+01
   11527,   -2.048923e+01,    1.111111e+01,   -1.621063e+01
   11528,    2.528646e+01,    1.111111e+01,   -2.034120e+01
   11529,    2.490981e+01,    1.111111e+01,   -2.378897e+01
   11530,   -2.428118e+01,    1.111111e+01,   -2.410971e+01
   11531,   -2.433997e+01,    1.111111e+01,   -2.013038e+01
   11532,    2.137323e+01,    1.111111e+01,   -2.315172e+01
   11533,    2.257048e+01,    1.111111e+01,   -2.043818e+01
   11534,   -2.035498e+01,    1.111111e+01,   -2.414043e+01
   11535,   -2.043622e+01,    1.111111e+01,   -2.017628e+01
   11536,    1.035338e+01,    1.555556e+01,   -6.239661e+00
   11537,    1.543794e+01,    1.555556e+01,   -5.296863e+00
   11538,    1.979447e+01,    1.555556e+01,   -4.729876e+00
   11539,    2.393743e+01,    1.555556e+01,   -4.403914e+00
   11540,    2.799402e+01,    1.555556e+01,   -4.214100e+00
   11541,    3.201046e+01,    1.555556e+01,   -4.106555e+00
   11542,    3.600822e+01,    1.555556e+01,   -4.043703e+00
   11543,    3.603363e+01,    1.555556e+01,   -3.599565e+01
   11544,    3.206636e+01,    1.555556e+01,   -3.598076e+01
   11545,    2.809964e+01,    1.555556e+01,   -3.593847e+01
   11546,    2.412620e+01,    1.555556e+01,   -3.584023e+01
   11547,    2.014125e+01,    1.555556e+01,   -3.567464e+01
   11548,    1.614008e+01,    1.555556e+01,   -3.550916e+01
   11549,    1.210931e+01,    1.555556e+01,   -3.549320e+01
   11550,    8.067386e+00,    1.555556e+01,   -3.557565e+01
   11551,    4.018314e+00,    1.555556e+01,   -3.569426e+01
   11552,   -2.185552e-02,    1.555556e+01,   -3.581454e+01
   11553,   -4.049930e+00,    1.555556e+01,   -3.591278e+01
   11554,   -8.066805e+00,    1.555556e+01,   -3.598319e+01
   11555,   -1.207464e+01,    1.555556e+01,   -3.602514e+01
   11556,   -1.607607e+01,    1.555556e+01,   -3.603932e+01
   11557,   -2.007116e+01,    1.555556e+01,   -3.603858e+01
   11558,   -2.406112e+01,    1.555556e+01,   -3.603122e+01
   11559,   -2.804734e+01,    1.555556e+01,   -3.602356e+01
   11560,   -3.203121e+01,    1.555556e+01,   -3.601527e+01
   11561,   -3.601473e+01,    1.555556e+01,   -3.600728e+01
   11562,   -3.602582e+01,    1.555556e+01,   -4.010657e+00
   11563,   -3.204930e+01,    1.555556e+01,   -4.024200e+00
   11564,   -2.806748e+01,    1.555556e+01,   -4.042642e+00
   11565,   -2.406696e+01,    1.555556e+01,   -4.073720e+00
   11566,   -2.003270e+01,    1.555556e+01,   -4.147645e+00
   11567,   -1.591408e+01,    1.555556e+01,   -4.346095e+00
   11568,   -1.102871e+01,    1.555556e+01,   -5.208622e+00
   11569,    3.602988e+01,    1.555556e+01,   -8.076038e+00
   11570,    3.607704e+01,    1.555556e+01,   -1.209229e+01
   11571,    3.613444e+01,    1.555556e+01,   -1.608596e+01
   11572,    3.617567e+01,    1.555556e+01,   -2.005981e+01
   11573,    3.615918e+01,    1.555556e+01,   -2.402974e+01
   11574,    3.611786e+01,    1.555556e+01,   -2.800854e+01
   11575,    3.607315e+01,    1.555556e+01,   -3.199625e+01
   11576,   -3.603153e+01,    1.555556e+01,   -3.201490e+01
   11577,   -3.605004e+01,    1.555556e+01,   -2.802104e+01
   11578,   -3.606525e+01,    1.555556e+01,   -2.402789e+01
   11579,   -3.607824e+01,    1.555556e+01,   -2.003086e+01
   11580,   -3.608145e+01,    1.555556e+01,   -1.602970e+01
   11581,   -3.607165e+01,    1.555556e+01,   -1.202596e+01
   11582,   -3.605270e+01,    1.555556e+01,   -8.019129e+00
   11583,   -7.676420e+00,    1.555556e+01,   -8.483598e+00
   11584,   -6.292756e+00,    1.555556e+01,   -1.204892e+01
   11585,   -2.585946e+00,    1.555556e+01,   -1.130823e+01
   11586,    1.359922e+00,    1.555556e+01,   -1.094810e+01
   11587,    5.527334e+00,    1.555556e+01,   -9.659845e+00
   11588,   -3.210361e+01,    1.555556e+01,   -8.042339e+00
   11589,   -2.815510e+01,    1.555556e+01,   -8.071414e+00
   11590,   -2.421217e+01,    1.555556e+01,   -8.119311e+00
   11591,   -2.029000e+01,    1.555556e+01,   -8.213446e+00
   11592,   -1.639400e+01,    1.555556e+01,   -8.526873e+00
   11593,   -1.270903e+01,    1.555556e+01,   -9.124861e+00
   11594,   -1.001863e+01,    1.555556e+01,   -1.010961e+01
   11595,   -9.622448e+00,    1.555556e+01,   -1.280972e+01
   11596,   -9.151827e+00,    1.555556e+01,   -1.628220e+01
   11597,   -5.396329e+00,    1.555556e+01,   -1.578446e+01
   11598,   -1.447074e+00,    1.555556e+01,   -1.514390e+01
   11599,    2.476808e+00,    1.555556e+01,   -1.449494e+01
   11600,    6.692977e+00,    1.555556e+01,   -1.336327e+01
   11601,    1.116349e+01,    1.555556e+01,   -1.165195e+01
   11602,    1.565638e+01,    1.555556e+01,   -1.038855e+01
   11603,    1.991511e+01,    1.555556e+01,   -9.379810e+00
   11604,    2.403449e+01,    1.555556e+01,   -8.746451e+00
   11605,    2.807243e+01,    1.555556e+01,   -8.389235e+00
   11606,    3.206505e+01,    1.555556e+01,   -8.195069e+00
   11607,   -3.206475e+01,    1.555556e+01,   -3.203047e+01
   11608,   -3.209886e+01,    1.555556e+01,   -2.804457e+01
   11609,   -3.213310e+01,    1.555556e+01,   -2.405446e+01
   11610,   -3.215742e+01,    1.555556e+01,   -2.005855e+01
   11611,   -3.216365e+01,    1.555556e+01,   -1.605701e+01
   11612,   -3.214263e+01,    1.555556e+01,   -1.205265e+01
   11613,    3.216217e+01,    1.555556e+01,   -1.222571e+01
   11614,    3.229260e+01,    1.555556e+01,   -1.620179e+01
   11615,    3.238709e+01,    1.555556e+01,   -2.013122e+01
   11616,    3.233972e+01,    1.555556e+01,   -2.405016e+01
   11617,    3.224253e+01,    1.555556e+01,   -2.799413e+01
   11618,    3.214827e+01,    1.555556e+01,   -3.197185e+01
   11619,    2.822197e+01,    1.555556e+01,   -3.189704e+01
   11620,    2.428602e+01,    1.555556e+01,   -3.170823e+01
   11621,    2.033196e+01,    1.555556e+01,   -3.134567e+01
   11622,    1.633846e+01,    1.555556e+01,   -3.104956e+01
   11623,    1.224031e+01,    1.555556e+01,   -3.094010e+01
   11624,    8.123892e+00,    1.555556e+01,   -3.112419e+01
   11625,    4.018007e+00,    1.555556e+01,   -3.138206e+01
   11626,   -6.542876e-02,    1.555556e+01,   -3.162889e+01
   11627,   -4.124216e+00,    1.555556e+01,   -3.183011e+01
   11628,   -8.155029e+00,    1.555556e+01,   -3.197181e+01
   11629,   -1.216891e+01,    1.555556e+01,   -3.205153e+01
   11630,   -1.616803e+01,    1.555556e+01,   -3.207971e+01
   11631,   -2.015168e+01,    1.555556e+01,   -3.207489e+01
   11632,   -2.412672e+01,    1.555556e+01,   -3.206050e+01
   11633,   -2.809696e+01,    1.555556e+01,   -3.204531e+01
   11634,   -2.822439e+01,    1.555556e+01,   -1.208660e+01
   11635,   -2.432462e+01,    1.555556e+01,   -1.213923e+01
   11636,   -2.045791e+01,    1.555556e+01,   -1.222285e+01
   11637,   -1.666024e+01,    1.555556e+01,   -1.238090e+01
   11638,   -1.297778e+01,    1.555556e+01,   -1.267569e+01
   11639,   -1.287965e+01,    1.555556e+01,   -1.636961e+01
   11640,   -1.266446e+01,    1.555556e+01,   -2.022277e+01
   11641,   -8.769277e+00,    1.555556e+01,   -2.006644e+01
   11642,   -4.834281e+00,    1.555556e+01,   -1.968643e+01
   11643,   -7.972943e-01,    1.555556e+01,   -1.915056e+01
   11644,    3.342716e+00,    1.555556e+01,   -1.846399e+01
   11645,    7.486011e+00,    1.555556e+01,   -1.760938e+01
   11646,    1.186113e+01,    1.555556e+01,   -1.650747e+01
   11647,    1.625990e+01,    1.555556e+01,   -1.527754e+01
   11648,    2.040732e+01,    1.555556e+01,   -1.381863e+01
   11649,    2.431061e+01,    1.555556e+01,   -1.293101e+01
   11650,    2.825242e+01,    1.555556e+01,   -1.248018e+01
   11651,   -2.815075e+01,    1.555556e+01,   -2.806490e+01
   11652,   -2.820490e+01,    1.555556e+01,   -2.408056e+01
   11653,   -2.824369e+01,    1.555556e+01,   -2.008837e+01
   11654,   -2.825184e+01,    1.555556e+01,   -1.609231e+01
   11655,    2.848942e+01,    1.555556e+01,   -1.641873e+01
   11656,    2.868685e+01,    1.555556e+01,   -2.022711e+01
   11657,    2.855625e+01,    1.555556e+01,   -2.401984e+01
   11658,    2.837726e+01,    1.555556e+01,   -2.790630e+01
   11659,    2.451634e+01,    1.555556e+01,   -2.765203e+01
   11660,    2.069141e+01,    1.555556e+01,   -2.713403e+01
   11661,    1.667189e+01,    1.555556e+01,   -2.635339e+01
   11662,    1.238312e+01,    1.555556e+01,   -2.636243e+01
   11663,    8.154765e+00,    1.555556e+01,   -2.664113e+01
   11664,    3.967979e+00,    1.555556e+01,   -2.706137e+01
   11665,   -1.673856e-01,    1.555556e+01,   -2.744351e+01
   11666,   -4.249289e+00,    1.555556e+01,   -2.775387e+01
   11667,   -8.287866e+00,    1.555556e+01,   -2.796880e+01
   11668,   -1.229746e+01,    1.555556e+01,   -2.808248e+01
   11669,   -1.628430e+01,    1.555556e+01,   -2.811640e+01
   11670,   -2.025078e+01,    1.555556e+01,   -2.810617e+01
   11671,   -2.420374e+01,    1.555556e+01,   -2.808623e+01
   11672,   -1.666216e+01,    1.555556e+01,   -1.629514e+01
   11673,   -1.655734e+01,    1.555556e+01,   -2.022217e+01
   11674,   -1.641626e+01,    1.555556e+01,   -2.416168e+01
   11675,   -1.246127e+01,    1.555556e+01,   -2.412491e+01
   11676,   -8.489061e+00,    1.555556e+01,   -2.397315e+01
   11677,   -4.478439e+00,    1.555556e+01,   -2.367560e+01
   11678,   -3.990548e-01,    1.555556e+01,   -2.325239e+01
   11679,    3.758583e+00,    1.555556e+01,   -2.270783e+01
   11680,    7.994831e+00,    1.555556e+01,   -2.208453e+01
   11681,    1.249406e+01,    1.555556e+01,   -2.140399e+01
   11682,    1.749845e+01,    1.555556e+01,   -2.077788e+01
   11683,    2.122412e+01,    1.555556e+01,   -1.781483e+01
   11684,    2.479457e+01,    1.555556e+01,   -1.689246e+01
   11685,   -2.436292e+01,    1.555556e+01,   -1.613900e+01
   11686,   -2.048923e+01,    1.555556e+01,   -1.621063e+01
   11687,    2.528646e+01,    1.555556e+01,   -2.034120e+01
   11688,    2.490981e+01,    1.555556e+01,   -2.378897e+01
   11689,   -2.428118e+01,    1.555556e+01,   -2.410971e+01
   11690,   -2.433997e+01,    1.555556e+01,   -2.013038e+01
   11691,    2.137323e+01,    1.555556e+01,   -2.315172e+01
   11692,    2.257048e+01,    1.555556e+01,   -2.043818e+01
   11693,   -2.035498e+01,    1.555556e+01,   -2.414043e+01
   11694,   -2.043622e+01,    1.555556e+01,   -2.017628e+01
   11695,    1.035338e+01,    2.000000e+01,   -6.239661e+00
   11696,    1.543794e+01,    2.000000e+01,   -5.296863e+00
   11697,    1.979447e+01,    2.000000e+01,   -4.729876e+00
   11698,    2.393743e+01,    2.000000e+01,   -4.403914e+00
   11699,    2.799402e+01,    2.000000e+01,   -4.214100e+00
   11700,    3.201046e+01,    2.000000e+01,   -4.106555e+00
   11701,    3.600822e+01,    2.000000e+01,   -4.043703e+00
   11702,    3.603363e+01,    2.000000e+01,   -3.599565e+01
   11703,    3.206636e+01,    2.000000e+01,   -3.598076e+01
   11704,    2.809964e+01,    2.000000e+01,   -3.593847e+01
   11705,    2.412620e+01,    2.000000e+01,   -3.584023e+01
   11706,    2.014125e+01,    2.000000e+01,   -3.567464e+01
   11707,    1.614008e+01,    2.000000e+01,   -3.550916e+01
   11708,    1.210931e+01,    2.000000e+01,   -3.549320e+01
   11709,    8.067386e+00,    2.000000e+01,   -3.557565e+01
   11710,    4.018314e+00,    2.000000e+01,   -3.569426e+01
   11711,   -2.185552e-02,    2.000000e+01,   -3.581454e+01
   11712,   -4.049930e+00,    2.000000e+01,   -3.591278e+01
   11713,   -8.066805e+00,    2.000000e+01,   -3.598319e+01
   11714,   -1.207464e+01,    2.000000e+01,   -3.602514e+01
   11715,   -1.607607e+01,    2.000000e+01,   -3.603932e+01
   11716,   -2.007116e+01,    2.000000e+01,   -3.603858e+01
   11717,   -2.406112e+01,    2.000000e+01,   -3.603122e+01
   11718,   -2.804734e+01,    2.000000e+01,   -3.602356e+01
   11719,   -3.203121e+01,    2.000000e+01,   -3.601527e+01
   11720,   -3.601473e+01,    2.000000e+01,   -3.600728e+01
   11721,   -3.602582e+01,    2.000000e+01,   -4.010657e+00
   11722,   -3.204930e+01,    2.000000e+01,   -4.024200e+00
   11723,   -2.806748e+01,    2.000000e+01,   -4.042642e+00
   11724,   -2.406696e+01,    2.000000e+01,   -4.073720e+00
   11725,   -2.003270e+01,    2.000000e+01,   -4.147645e+00
   11726,   -1.591408e+01,    2.000000e+01,   -4.346095e+00
   11727,   -1.102871e+01,    2.000000e+01,   -5.208622e+00
   11728,    3.602988e+01,    2.000000e+01,   -8.076038e+00
   11729,    3.607704e+01,    2.000000e+01,   -1.209229e+01
   11730,    3.613444e+01,    2.000000e+01,   -1.608596e+01
   11731,    3.617567e+01,    2.000000e+01,   -2.005981e+01
   11732,    3.615918e+01,    2.000000e+01,   -2.402974e+01
   11733,    3.611786e+01,    2.000000e+01,   -2.800854e+01
   11734,    3.607315e+01,    2.000000e+01,   -3.199625e+01
   11735,   -3.603153e+01,    2.000000e+01,   -3.201490e+01
   11736,   -3.605004e+01,    2.000000e+01,   -2.802104e+01
   11737,   -3.606525e+01,    2.000000e+01,   -2.402789e+01
   11738,   -3.607824e+01,    2.000000e+01,   -2.003086e+01
   11739,   -3.608145e+01,    2.000000e+01,   -1.602970e+01
   11740,   -3.607165e+01,    2.000000e+01,   -1.202596e+01
   11741,   -3.605270e+01,    2.000000e+01,   -8.019129e+00
   11742,   -7.676420e+00,    2.000000e+01,   -8.483598e+00
   11743,   -6.292756e+00,    2.000000e+01,   -1.204892e+01
   11744,   -2.585946e+00,    2.000000e+01,   -1.130823e+01
   11745,    1.359922e+00,    2.000000e+01,   -1.094810e+01
   11746,    5.527334e+00,    2.000000e+01,   -9.659845e+00
   11747,   -3.210361e+01,    2.000000e+01,   -8.042339e+00
   11748,   -2.815510e+01,    2.000000e+01,   -8.071414e+00
   11749,   -2.421217e+01,    2.000000e+01,   -8.119311e+00
   11750,   -2.029000e+01,    2.000000e+01,   -8.213446e+00
   11751,   -1.639400e+01,    2.000000e+01,   -8.526873e+00
   11752,   -1.270903e+01,    2.000000e+01,   -9.124861e+00
   11753,   -1.001863e+01,    2.000000e+01,   -1.010961e+01
   11754,   -9.622448e+00,    2.000000e+01,   -1.280972e+01
   11755,   -9.151827e+00,    2.000000e+01,   -1.628220e+01
   11756,   -5.396329e+00,    2.000000e+01,   -1.578446e+01
   11757,   -1.447074e+00,    2.000000e+01,   -1.514390e+01
   11758,    2.476808e+00,    2.000000e+01,   -1.449494e+01
   11759,    6.692977e+00,    2.000000e+01,   -1.336327e+01
   11760,    1.116349e+01,    2.000000e+01,   -1.165195e+01
   11761,    1.565638e+01,    2.000000e+01,   -1.038855e+01
   11762,    1.991511e+01,    2.000000e+01,   -9.379810e+00
   11763,    2.403449e+01,    2.000000e+01,   -8.746451e+00
   11764,    2.807243e+01,    2.000000e+01,   -8.389235e+00
   11765,    3.206505e+01,    2.000000e+01,   -8.195069e+00
   11766,   -3.206475e+01,    2.000000e+01,   -3.203047e+01
   11767,   -3.209886e+01,    2.000000e+01,   -2.804457e+01
   11768,   -3.213310e+01,    2.000000e+01,   -2.405446e+01
   11769,   -3.215742e+01,    2.000000e+01,   -2.005855e+01
   11770,   -3.216365e+01,    2.000000e+01,   -1.605701e+01
   11771,   -3.214263e+01,    2.000000e+01,   -1.205265e+01
   11772,    3.216217e+01,    2.000000e+01,   -1.222571e+01
   11773,    3.229260e+01,    2.000000e+01,   -1.620179e+01
   11774,    3.238709e+01,    2.000000e+01,   -2.013122e+01
   11775,    3.233972e+01,    2.000000e+01,   -2.405016e+01
   11776,    3.224253e+01,    2.000000e+01,   -2.799413e+01
   11777,    3.214827e+01,    2.000000e+01,   -3.197185e+01
   11778,    2.822197e+01,    2.000000e+01,   -3.189704e+01
   11779,    2.428602e+01,    2.000000e+01,   -3.170823e+01
   11780,    2.033196e+01,    2.000000e+01,   -3.134567e+01
   11781,    1.633846e+01,    2.000000e+01,   -3.104956e+01
   11782,    1.224031e+01,    2.000000e+01,   -3.094010e+01
   11783,    8.123892e+00,    2.000000e+01,   -3.112419e+01
   11784,    4.018007e+00,    2.000000e+01,   -3.138206e+01
   11785,   -6.542876e-02,    2.000000e+01,   -3.162889e+01
   11786,   -4.124216e+00,    2.000000e+01,   -3.183011e+01
   11787,   -8.155029e+00,    2.000000e+01,   -3.197181e+01
   11788,   -1.216891e+01,    2.000000e+01,   -3.205153e+01
   11789,   -1.616803e+01,    2.000000e+01,   -3.207971e+01
   11790,   -2.015168e+01,    2.000000e+01,   -3.207489e+01
   11791,   -2.412672e+01,    2.000000e+01,   -3.206050e+01
   11792,   -2.809696e+01,    2.000000e+01,   -3.204531e+01
   11793,   -2.822439e+01,    2.000000e+01,   -1.208660e+01
   11794,   -2.432462e+01,    2.000000e+01,   -1.213923e+01
   11795,   -2.045791e+01,    2.000000e+01,   -1.222285e+01
   11796,   -1.666024e+01,    2.000000e+01,   -1.238090e+01
   11797,   -1.297778e+01,    2.000000e+01,   -1.267569e+01
   11798,   -1.287965e+01,    2.000000e+01,   -1.636961e+01
   11799,   -1.266446e+01,    2.000000e+01,   -2.022277e+01
   11800,   -8.769277e+00,    2.000000e+01,   -2.006644e+01
   11801,   -4.834281e+00,    2.000000e+01,   -1.968643e+01
   11802,   -7.972943e-01,    2.000000e+01,   -1.915056e+01
   11803,    3.342716e+00,    2.000000e+01,   -1.846399e+01
   11804,    7.486011e+00,    2.000000e+01,   -1.760938e+01
   11805,    1.186113e+01,    2.000000e+01,   -1.650747e+01
   11806,    1.625990e+01,    2.000000e+01,   -1.527754e+01
   11807,    2.040732e+01,    2.000000e+01,   -1.381863e+01
   11808,    2.431061e+01,    2.000000e+01,   -1.293101e+01
   11809,    2.825242e+01,    2.000000e+01,   -1.248018e+01
   11810,   -2.815075e+01,    2.000000e+01,   -2.806490e+01
   11811,   -2.820490e+01,    2.000000e+01,   -2.408056e+01
   11812,   -2.824369e+01,    2.000000e+01,   -2.008837e+01
   11813,   -2.825184e+01,    2.000000e+01,   -1.609231e+01
   11814,    2.848942e+01,    2.000000e+01,   -1.641873e+01
   11815,    2.868685e+01,    2.000000e+01,   -2.022711e+01
   11816,    2.855625e+01,    2.000000e+01,   -2.401984e+01
   11817,    2.837726e+01,    2.000000e+01,   -2.790630e+01
   11818,    2.451634e+01,    2.000000e+01,   -2.765203e+01
   11819,    2.069141e+01,    2.000000e+01,   -2.713403e+01
   11820,    1.667189e+01,    2.000000e+01,   -2.635339e+01
   11821,    1.238312e+01,    2.000000e+01,   -2.636243e+01
   11822,    8.154765e+00,    2.000000e+01,   -2.664113e+01
   11823,    3.967979e+00,    2.000000e+01,   -2.706137e+01
   11824,   -1.673856e-01,    2.000000e+01,   -2.744351e+01
   11825,   -4.249289e+00,    2.000000e+01,   -2.775387e+01
   11826,   -8.287866e+00,    2.000000e+01,   -2.796880e+01
   11827,   -1.229746e+01,    2.000000e+01,   -2.808248e+01
   11828,   -1.628430e+01,    2.000000e+01,   -2.811640e+01
   11829,   -2.025078e+01,    2.000000e+01,   -2.810617e+01
   11830,   -2.420374e+01,    2.000000e+01,   -2.808623e+01
   11831,   -1.666216e+01,    2.000000e+01,   -1.629514e+01
   11832,   -1.655734e+01,    2.000000e+01,   -2.022217e+01
   11833,   -1.641626e+01,    2.000000e+01,   -2.416168e+01
   11834,   -1.246127e+01,    2.000000e+01,   -2.412491e+01
   11835,   -8.489061e+00,    2.000000e+01,   -2.397315e+01
   11836,   -4.478439e+00,    2.000000e+01,   -2.367560e+01
   11837,   -3.990548e-01,    2.000000e+01,   -2.325239e+01
   11838,    3.758583e+00,    2.000000e+01,   -2.270783e+01
   11839,    7.994831e+00,    2.000000e+01,   -2.208453e+01
   11840,    1.249406e+01,    2.000000e+01,   -2.140399e+01
   11841,    1.749845e+01,    2.000000e+01,   -2.077788e+01
   11842,    2.122412e+01,    2.000000e+01,   -1.781483e+01
   11843,    2.479457e+01,    2.000000e+01,   -1.689246e+01
   11844,   -2.436292e+01,    2.000000e+01,   -1.613900e+01
   11845,   -2.048923e+01,    2.000000e+01,   -1.621063e+01
   11846,    2.528646e+01,    2.000000e+01,   -2.034120e+01
   11847,    2.490981e+01,    2.000000e+01,   -2.378897e+01
   11848,   -2.428118e+01,    2.000000e+01,   -2.410971e+01
   11849,   -2.433997e+01,    2.000000e+01,   -2.013038e+01
   11850,    2.137323e+01,    2.000000e+01,   -2.315172e+01
   11851,    2.257048e+01,    2.000000e+01,   -2.043818e+01
   11852,   -2.035498e+01,    2.000000e+01,   -2.414043e+01
   11853,   -2.043622e+01,    2.000000e+01,   -2.017628e+01
   11854,   -4.000000e+01,    0.000000e+00,    0.000000e+00
   11855,   -4.000000e+01,    3.333333e+00,    0.000000e+00
   11856,   -3.600000e+01,    0.000000e+00,    0.000000e+00
   11857,   -3.200000e+01,    0.000000e+00,    0.000000e+00
   11858,   -2.800000e+01,    0.000000e+00,    0.000000e+00
   11859,   -2.400000e+01,    0.000000e+00,    0.000000e+00
   11860,   -2.000000e+01,    0.000000e+00,    0.000000e+00
   11861,   -1.600000e+01,    0.000000e+00,    0.000000e+00
   11862,   -1.200000e+01,    0.000000e+00,    0.000000e+00
   11863,   -1.200000e+01,    3.333333e+00,    0.000000e+00
   11864,   -1.600000e+01,    3.333333e+00,    0.000000e+00
   11865,   -2.000000e+01,    3.333333e+00,    0.000000e+00
   11866,   -2.400000e+01,    3.333333e+00,    0.000000e+00
   11867,   -2.800000e+01,    3.333333e+00,    0.000000e+00
   11868,   -3.200000e+01,    3.333333e+00,    0.000000e+00
   11869,   -3.600000e+01,    3.333333e+00,    0.000000e+00
   11870,    4.000000e+01,    0.000000e+00,    0.000000e+00
   11871,    1.200000e+01,    0.000000e+00,    0.000000e+00
   11872,    1.600000e+01,    0.000000e+00,    0.000000e+00
   11873,    2.000000e+01,    0.000000e+00,    0.000000e+00
   11874,    2.400000e+01,    0.000000e+00,    0.000000e+00
   11875,    2.800000e+01,    0.000000e+00,    0.000000e+00
   11876,    3.200000e+01,    0.000000e+00,    0.000000e+00
   11877,    3.600000e+01,    0.000000e+00,    0.000000e+00
   11878,    4.000000e+01,    3.333333e+00,    0.000000e+00
   11879,    3.600000e+01,    3.333333e+00,    0.000000e+00
   11880,    3.200000e+01,    3.333333e+00,    0.000000e+00
   11881,    2.800000e+01,    3.333333e+00,    0.000000e+00
   11882,    2.400000e+01,    3.333333e+00,    0.000000e+00
   11883,    2.000000e+01,    3.333333e+00,    0.000000e+00
   11884,    1.600000e+01,    3.333333e+00,    0.000000e+00
   11885,    1.200000e+01,    3.333333e+00,    0.000000e+00
   11886,   -4.000000e+01,    0.000000e+00,   -4.000000e+01
   11887,   -4.000000e+01,    3.333333e+00,   -4.000000e+01
   11888,   -4.000000e+01,    0.000000e+00,   -4.000000e+00
   11889,   -4.000000e+01,    0.000000e+00,   -8.000000e+00
   11890,   -4.000000e+01,    0.000000e+00,   -1.200000e+01
   11891,   -4.000000e+01,    0.000000e+00,   -1.600000e+01
   11892,   -4.000000e+01,    0.000000e+00,   -2.000000e+01
   11893,   -4.000000e+01,    0.000000e+00,   -2.400000e+01
   11894,   -4.000000e+01,    0.000000e+00,   -2.800000e+01
   11895,   -4.000000e+01,    0.000000e+00,   -3.200000e+01
   11896,   -4.000000e+01,    0.000000e+00,   -3.600000e+01
   11897,   -4.000000e+01,    3.333333e+00,   -4.000000e+00
   11898,   -4.000000e+01,    3.333333e+00,   -8.000000e+00
   11899,   -4.000000e+01,    3.333333e+00,   -1.200000e+01
   11900,   -4.000000e+01,    3.333333e+00,   -1.600000e+01
   11901,   -4.000000e+01,    3.333333e+00,   -2.000000e+01
   11902,   -4.000000e+01,    3.333333e+00,   -2.400000e+01
   11903,   -4.000000e+01,    3.333333e+00,   -2.800000e+01
   11904,   -4.000000e+01,    3.333333e+00,   -3.200000e+01
   11905,   -4.000000e+01,    3.333333e+00,   -3.600000e+01
   11906,    4.000000e+01,    0.000000e+00,   -4.000000e+01
   11907,    4.000000e+01,    3.333333e+00,   -4.000000e+01
   11908,    3.600000e+01,    0.000000e+00,   -4.000000e+01
   11909,    3.200000e+01,    0.000000e+00,   -4.000000e+01
   11910,    2.800000e+01,    0.000000e+00,   -4.000000e+01
   11911,    2.400000e+01,    0.000000e+00,   -4.000000e+01
   11912,    2.000000e+01,    0.000000e+00,   -4.000000e+01
   11913,    1.600000e+01,    0.000000e+00,   -4.000000e+01
   11914,    1.200000e+01,    0.000000e+00,   -4.000000e+01
   11915,    8.000000e+00,    0.000000e+00,   -4.000000e+01
   11916,    4.000000e+00,    0.000000e+00,   -4.000000e+01
   11917,    0.000000e+00,    0.000000e+00,   -4.000000e+01
   11918,   -4.000000e+00,    0.000000e+00,   -4.000000e+01
   11919,   -8.000000e+00,    0.000000e+00,   -4.000000e+01
   11920,   -1.200000e+01,    0.000000e+00,   -4.000000e+01
   11921,   -1.600000e+01,    0.000000e+00,   -4.000000e+01
   11922,   -2.000000e+01,    0.000000e+00,   -4.000000e+01
   11923,   -2.400000e+01,    0.000000e+00,   -4.000000e+01
   11924,   -2.800000e+01,    0.000000e+00,   -4.000000e+01
   11925,   -3.200000e+01,    0.000000e+00,   -4.000000e+01
   11926,   -3.600000e+01,    0.000000e+00,   -4.000000e+01
   11927,   -3.600000e+01,    3.333333e+00,   -4.000000e+01
   11928,   -3.200000e+01,    3.333333e+00,   -4.000000e+01
   11929,   -2.800000e+01,    3.333333e+00,   -4.000000e+01
   11930,   -2.400000e+01,    3.333333e+00,   -4.000000e+01
   11931,   -2.000000e+01,    3.333333e+00,   -4.000000e+01
   11932,   -1.600000e+01,    3.333333e+00,   -4.000000e+01
   11933,   -1.200000e+01,    3.333333e+00,   -4.000000e+01
   11934,   -8.000000e+00,    3.333333e+00,   -4.000000e+01
   11935,   -4.000000e+00,    3.333333e+00,   -4.000000e+01
   11936,    1.776357e-15,    3.333333e+00,   -4.000000e+01
   11937,    4.000000e+00,    3.333333e+00,   -4.000000e+01
   11938,    8.000000e+00,    3.333333e+00,   -4.000000e+01
   11939,    1.200000e+01,    3.333333e+00,   -4.000000e+01
   11940,    1.600000e+01,    3.333333e+00,   -4.000000e+01
   11941,    2.000000e+01,    3.333333e+00,   -4.000000e+01
   11942,    2.400000e+01,    3.333333e+00,   -4.000000e+01
   11943,    2.800000e+01,    3.333333e+00,   -4.000000e+01
   11944,    3.200000e+01,    3.333333e+00,   -4.000000e+01
   11945,    3.600000e+01,    3.333333e+00,   -4.000000e+01
   11946,    4.000000e+01,    0.000000e+00,   -4.000000e+00
   11947,    4.000000e+01,    0.000000e+00,   -8.000000e+00
   11948,    4.000000e+01,    0.000000e+00,   -1.200000e+01
   11949,    4.000000e+01,    0.000000e+00,   -1.600000e+01
   11950,    4.000000e+01,    0.000000e+00,   -2.000000e+01
   11951,    4.000000e+01,    0.000000e+00,   -2.400000e+01
   11952,    4.000000e+01,    0.000000e+00,   -2.800000e+01
   11953,    4.000000e+01,    0.000000e+00,   -3.200000e+01
   11954,    4.000000e+01,    0.000000e+00,   -3.600000e+01
   11955,    4.000000e+01,    3.333333e+00,   -4.000000e+00
   11956,    4.000000e+01,    3.333333e+00,   -8.000000e+00
   11957,    4.000000e+01,    3.333333e+00,   -1.200000e+01
   11958,    4.000000e+01,    3.333333e+00,   -1.600000e+01
   11959,    4.000000e+01,    3.333333e+00,   -2.000000e+01
   11960,    4.000000e+01,    3.333333e+00,   -2.400000e+01
   11961,    4.000000e+01,    3.333333e+00,   -2.800000e+01
   11962,    4.000000e+01,    3.333333e+00,   -3.200000e+01
   11963,    4.000000e+01,    3.333333e+00,   -3.600000e+01
   11964,    1.035338e+01,    3.333333e+00,   -6.239661e+00
   11965,    1.543794e+01,    3.333333e+00,   -5.296863e+00
   11966,    1.979447e+01,    3.333333e+00,   -4.729876e+00
   11967,    2.393743e+01,    3.333333e+00,   -4.403914e+00
   11968,    2.799402e+01,    3.333333e+00,   -4.214100e+00
   11969,    3.201046e+01,    3.333333e+00,   -4.106555e+00
   11970,    3.600822e+01,    3.333333e+00,   -4.043703e+00
   11971,    3.603363e+01,    3.333333e+00,   -3.599565e+01
   11972,    3.206636e+01,    3.333333e+00,   -3.598076e+01
   11973,    2.809964e+01,    3.333333e+00,   -3.593847e+01
   11974,    2.412620e+01,    3.333333e+00,   -3.584023e+01
   11975,    2.014125e+01,    3.333333e+00,   -3.567464e+01
   11976,    1.614008e+01,    3.333333e+00,   -3.550916e+01
   11977,    1.210931e+01,    3.333333e+00,   -3.549320e+01
   11978,    8.067386e+00,    3.333333e+00,   -3.557565e+01
   11979,    4.018314e+00,    3.333333e+00,   -3.569426e+01
   11980,   -2.185552e-02,    3.333333e+00,   -3.581454e+01
   11981,   -4.049930e+00,    3.333333e+00,   -3.591278e+01
   11982,   -8.066805e+00,    3.333333e+00,   -3.598319e+01
   11983,   -1.207464e+01,    3.333333e+00,   -3.602514e+01
   11984,   -1.607607e+01,    3.333333e+00,   -3.603932e+01
   11985,   -2.007116e+01,    3.333333e+00,   -3.603858e+01
   11986,   -2.406112e+01,    3.333333e+00,   -3.603122e+01
   11987,   -2.804734e+01,    3.333333e+00,   -3.602356e+01
   11988,   -3.203121e+01,    3.333333e+00,   -3.601527e+01
   11989,   -3.601473e+01,    3.333333e+00,   -3.600728e+01
   11990,   -3.602582e+01,    3.333333e+00,   -4.010657e+00
   11991,   -3.204930e+01,    3.333333e+00,   -4.024200e+00
   11992,   -2.806748e+01,    3.333333e+00,   -4.042642e+00
   11993,   -2.406696e+01,    3.333333e+00,   -4.073720e+00
   11994,   -2.003270e+01,    3.333333e+00,   -4.147645e+00
   11995,   -1.591408e+01,    3.333333e+00,   -4.346095e+00
   11996,   -1.102871e+01,    3.333333e+00,   -5.208622e+00
   11997,    3.602988e+01,    3.333333e+00,   -8.076038e+00
   11998,    3.607704e+01,    3.333333e+00,   -1.209229e+01
   11999,    3.613444e+01,    3.333333e+00,   -1.608596e+01
   12000,    3.617567e+01,    3.333333e+00,   -2.005981e+01
   12001,    3.615918e+01,    3.333333e+00,   -2.402974e+01
   12002,    3.611786e+01,    3.333333e+00,   -2.800854e+01
   12003,    3.607315e+01,    3.333333e+00,   -3.199625e+01
   12004,   -3.603153e+01,    3.333333e+00,   -3.201490e+01
   12005,   -3.605004e+01,    3.333333e+00,   -2.802104e+01
   12006,   -3.606525e+01,    3.333333e+00,   -2.402789e+01
   12007,   -3.607824e+01,    3.333333e+00,   -2.003086e+01
   12008,   -3.608145e+01,    3.333333e+00,   -1.602970e+01
   12009,   -3.607165e+01,    3.333333e+00,   -1.202596e+01
   12010,   -3.605270e+01,    3.333333e+00,   -8.019129e+00
   12011,   -7.676420e+00,    3.333333e+00,   -8.483598e+00
   12012,   -2.585946e+00,    3.333333e+00,   -1.130823e+01
   12013,   -6.292756e+00,    3.333333e+00,   -1.204892e+01
   12014,    1.359922e+00,    3.333333e+00,   -1.094810e+01
   12015,    5.527334e+00,    3.333333e+00,   -9.659845e+00
   12016,   -3.210361e+01,    3.333333e+00,   -8.042339e+00
   12017,   -2.815510e+01,    3.333333e+00,   -8.071414e+00
   12018,   -2.421217e+01,    3.333333e+00,   -8.119311e+00
   12019,   -2.029000e+01,    3.333333e+00,   -8.213446e+00
   12020,   -1.639400e+01,    3.333333e+00,   -8.526873e+00
   12021,   -1.270903e+01,    3.333333e+00,   -9.124861e+00
   12022,   -1.001863e+01,    3.333333e+00,   -1.010961e+01
   12023,   -9.622448e+00,    3.333333e+00,   -1.280972e+01
   12024,   -5.396329e+00,    3.333333e+00,   -1.578446e+01
   12025,   -9.151827e+00,    3.333333e+00,   -1.628220e+01
   12026,   -1.447074e+00,    3.333333e+00,   -1.514390e+01
   12027,    2.476808e+00,    3.333333e+00,   -1.449494e+01
   12028,    6.692977e+00,    3.333333e+00,   -1.336327e+01
   12029,    1.116349e+01,    3.333333e+00,   -1.165195e+01
   12030,    1.565638e+01,    3.333333e+00,   -1.038855e+01
   12031,    1.991511e+01,    3.333333e+00,   -9.379810e+00
   12032,    2.403449e+01,    3.333333e+00,   -8.746451e+00
   12033,    2.807243e+01,    3.333333e+00,   -8.389235e+00
   12034,    3.206505e+01,    3.333333e+00,   -8.195069e+00
   12035,   -3.206475e+01,    3.333333e+00,   -3.203047e+01
   12036,   -3.209886e+01,    3.333333e+00,   -2.804457e+01
   12037,   -3.213310e+01,    3.333333e+00,   -2.405446e+01
   12038,   -3.215742e+01,    3.333333e+00,   -2.005855e+01
   12039,   -3.216365e+01,    3.333333e+00,   -1.605701e+01
   12040,   -3.214263e+01,    3.333333e+00,   -1.205265e+01
   12041,    3.216217e+01,    3.333333e+00,   -1.222571e+01
   12042,    3.229260e+01,    3.333333e+00,   -1.620179e+01
   12043,    3.238709e+01,    3.333333e+00,   -2.013122e+01
   12044,    3.233972e+01,    3.333333e+00,   -2.405016e+01
   12045,    3.224253e+01,    3.333333e+00,   -2.799413e+01
   12046,    3.214827e+01,    3.333333e+00,   -3.197185e+01
   12047,    2.822197e+01,    3.333333e+00,   -3.189704e+01
   12048,    2.428602e+01,    3.333333e+00,   -3.170823e+01
   12049,    2.033196e+01,    3.333333e+00,   -3.134567e+01
   12050,    1.633846e+01,    3.333333e+00,   -3.104956e+01
   12051,    1.224031e+01,    3.333333e+00,   -3.094010e+01
   12052,    8.123892e+00,    3.333333e+00,   -3.112419e+01
   12053,    4.018007e+00,    3.333333e+00,   -3.138206e+01
   12054,   -6.542876e-02,    3.333333e+00,   -3.162889e+01
   12055,   -4.124216e+00,    3.333333e+00,   -3.183011e+01
   12056,   -8.155029e+00,    3.333333e+00,   -3.197181e+01
   12057,   -1.216891e+01,    3.333333e+00,   -3.205153e+01
   12058,   -1.616803e+01,    3.333333e+00,   -3.207971e+01
   12059,   -2.015168e+01,    3.333333e+00,   -3.207489e+01
   12060,   -2.412672e+01,    3.333333e+00,   -3.206050e+01
   12061,   -2.809696e+01,    3.333333e+00,   -3.204531e+01
   12062,   -2.822439e+01,    3.333333e+00,   -1.208660e+01
   12063,   -2.432462e+01,    3.333333e+00,   -1.213923e+01
   12064,   -2.045791e+01,    3.333333e+00,   -1.222285e+01
   12065,   -1.666024e+01,    3.333333e+00,   -1.238090e+01
   12066,   -1.297778e+01,    3.333333e+00,   -1.267569e+01
   12067,   -1.287965e+01,    3.333333e+00,   -1.636961e+01
   12068,   -8.769277e+00,    3.333333e+00,   -2.006644e+01
   12069,   -1.266446e+01,    3.333333e+00,   -2.022277e+01
   12070,   -4.834281e+00,    3.333333e+00,   -1.968643e+01
   12071,   -7.972943e-01,    3.333333e+00,   -1.915056e+01
   12072,    3.342716e+00,    3.333333e+00,   -1.846399e+01
   12073,    7.486011e+00,    3.333333e+00,   -1.760938e+01
   12074,    1.186113e+01,    3.333333e+00,   -1.650747e+01
   12075,    1.625990e+01,    3.333333e+00,   -1.527754e+01
   12076,    2.040732e+01,    3.333333e+00,   -1.381863e+01
   12077,    2.431061e+01,    3.333333e+00,   -1.293101e+01
   12078,    2.825242e+01,    3.333333e+00,   -1.248018e+01
   12079,   -2.815075e+01,    3.333333e+00,   -2.806490e+01
   12080,   -2.820490e+01,    3.333333e+00,   -2.408056e+01
   12081,   -2.824369e+01,    3.333333e+00,   -2.008837e+01
   12082,   -2.825184e+01,    3.333333e+00,   -1.609231e+01
   12083,    2.848942e+01,    3.333333e+00,   -1.641873e+01
   12084,    2.868685e+01,    3.333333e+00,   -2.022711e+01
   12085,    2.855625e+01,    3.333333e+00,   -2.401984e+01
   12086,    2.837726e+01,    3.333333e+00,   -2.790630e+01
   12087,    2.451634e+01,    3.333333e+00,   -2.765203e+01
   12088,    2.069141e+01,    3.333333e+00,   -2.713403e+01
   12089,    1.667189e+01,    3.333333e+00,   -2.635339e+01
   12090,    1.238312e+01,    3.333333e+00,   -2.636243e+01
   12091,    8.154765e+00,    3.333333e+00,   -2.664113e+01
   12092,    3.967979e+00,    3.333333e+00,   -2.706137e+01
   12093,   -1.673856e-01,    3.333333e+00,   -2.744351e+01
   12094,   -4.249289e+00,    3.333333e+00,   -2.775387e+01
   12095,   -8.287866e+00,    3.333333e+00,   -2.796880e+01
   12096,   -1.229746e+01,    3.333333e+00,   -2.808248e+01
   12097,   -1.628430e+01,    3.333333e+00,   -2.811640e+01
   12098,   -2.025078e+01,    3.333333e+00,   -2.810617e+01
   12099,   -2.420374e+01,    3.333333e+00,   -2.808623e+01
   12100,   -1.666216e+01,    3.333333e+00,   -1.629514e+01
   12101,   -1.655734e+01,    3.333333e+00,   -2.022217e+01
   12102,   -1.246127e+01,    3.333333e+00,   -2.412491e+01
   12103,   -1.641626e+01,    3.333333e+00,   -2.416168e+01
   12104,   -8.489061e+00,    3.333333e+00,   -2.397315e+01
   12105,   -4.478439e+00,    3.333333e+00,   -2.367560e+01
   12106,   -3.990548e-01,    3.333333e+00,   -2.325239e+01
   12107,    3.758583e+00,    3.333333e+00,   -2.270783e+01
   12108,    7.994831e+00,    3.333333e+00,   -2.208453e+01
   12109,    1.249406e+01,    3.333333e+00,   -2.140399e+01
   12110,    1.749845e+01,    3.333333e+00,   -2.077788e+01
   12111,    2.122412e+01,    3.333333e+00,   -1.781483e+01
   12112,    2.479457e+01,    3.333333e+00,   -1.689246e+01
   12113,   -2.436292e+01,    3.333333e+00,   -1.613900e+01
   12114,   -2.048923e+01,    3.333333e+00,   -1.621063e+01
   12115,    2.528646e+01,    3.333333e+00,   -2.034120e+01
   12116,    2.490981e+01,    3.333333e+00,   -2.378897e+01
   12117,   -2.428118e+01,    3.333333e+00,   -2.410971e+01
   12118,   -2.433997e+01,    3.333333e+00,   -2.013038e+01
   12119,    2.137323e+01,    3.333333e+00,   -2.315172e+01
   12120,    2.257048e+01,    3.333333e+00,   -2.043818e+01
   12121,   -2.035498e+01,    3.333333e+00,   -2.414043e+01
   12122,   -2.043622e+01,    3.333333e+00,   -2.017628e+01
   12123,    1.035338e+01,    0.000000e+00,   -6.239661e+00
   12124,    1.543794e+01,    0.000000e+00,   -5.296863e+00
   12125,    1.979447e+01,    0.000000e+00,   -4.729876e+00
   12126,    2.393743e+01,    0.000000e+00,   -4.403914e+00
   12127,    2.799402e+01,    0.000000e+00,   -4.214100e+00
   12128,    3.201046e+01,    0.000000e+00,   -4.106555e+00
   12129,    3.600822e+01,    0.000000e+00,   -4.043703e+00
   12130,    3.603363e+01,    0.000000e+00,   -3.599565e+01
   12131,    3.206636e+01,    0.000000e+00,   -3.598076e+01
   12132,    2.809964e+01,    0.000000e+00,   -3.593847e+01
   12133,    2.412620e+01,    0.000000e+00,   -3.584023e+01
   12134,    2.014125e+01,    0.000000e+00,   -3.567464e+01
   12135,    1.614008e+01,    0.000000e+00,   -3.550916e+01
   12136,    1.210931e+01,    0.000000e+00,   -3.549320e+01
   12137,    8.067386e+00,    0.000000e+00,   -3.557565e+01
   12138,    4.018314e+00,    0.000000e+00,   -3.569426e+01
   12139,   -2.185552e-02,    0.000000e+00,   -3.581454e+01
   12140,   -4.049930e+00,    0.000000e+00,   -3.591278e+01
   12141,   -8.066805e+00,    0.000000e+00,   -3.598319e+01
   12142,   -1.207464e+01,    0.000000e+00,   -3.602514e+01
   12143,   -1.607607e+01,    0.000000e+00,   -3.603932e+01
   12144,   -2.007116e+01,    0.000000e+00,   -3.603858e+01
   12145,   -2.406112e+01,    0.000000e+00,   -3.603122e+01
   12146,   -2.804734e+01,    0.000000e+00,   -3.602356e+01
   12147,   -3.203121e+01,    0.000000e+00,   -3.601527e+01
   12148,   -3.601473e+01,    0.000000e+00,   -3.600728e+01
   12149,   -3.602582e+01,    0.000000e+00,   -4.010657e+00
   12150,   -3.204930e+01,    0.000000e+00,   -4.024200e+00
   12151,   -2.806748e+01,    0.000000e+00,   -4.042642e+00
   12152,   -2.406696e+01,    0.000000e+00,   -4.073720e+00
   12153,   -2.003270e+01,    0.000000e+00,   -4.147645e+00
   12154,   -1.591408e+01,    0.000000e+00,   -4.346095e+00
   12155,   -1.102871e+01,    0.000000e+00,   -5.208622e+00
   12156,    3.602988e+01,    0.000000e+00,   -8.076038e+00
   12157,    3.607704e+01,    0.000000e+00,   -1.209229e+01
   12158,    3.613444e+01,    0.000000e+00,   -1.608596e+01
   12159,    3.617567e+01,    0.000000e+00,   -2.005981e+01
   12160,    3.615918e+01,    0.000000e+00,   -2.402974e+01
   12161,    3.611786e+01,    0.000000e+00,   -2.800854e+01
   12162,    3.607315e+01,    0.000000e+00,   -3.199625e+01
   12163,   -3.603153e+01,    0.000000e+00,   -3.201490e+01
   12164,   -3.605004e+01,    0.000000e+00,   -2.802104e+01
   12165,   -3.606525e+01,    0.000000e+00,   -2.402789e+01
   12166,   -3.607824e+01,    0.000000e+00,   -2.003086e+01
   12167,   -3.608145e+01,    0.000000e+00,   -1.602970e+01
   12168,   -3.607165e+01,    0.000000e+00,   -1.202596e+01
   12169,   -3.605270e+01,    0.000000e+00,   -8.019129e+00
   12170,   -7.676420e+00,    0.000000e+00,   -8.483598e+00
   12171,   -2.585946e+00,    0.000000e+00,   -1.130823e+01
   12172,   -6.292756e+00,    0.000000e+00,   -1.204892e+01
   12173,    1.359922e+00,    0.000000e+00,   -1.094810e+01
   12174,    5.527334e+00,    0.000000e+00,   -9.659845e+00
   12175,   -3.210361e+01,    0.000000e+00,   -8.042339e+00
   12176,   -2.815510e+01,    0.000000e+00,   -8.071414e+00
   12177,   -2.421217e+01,    0.000000e+00,   -8.119311e+00
   12178,   -2.029000e+01,    0.000000e+00,   -8.213446e+00
   12179,   -1.639400e+01,    0.000000e+00,   -8.526873e+00
   12180,   -1.270903e+01,    0.000000e+00,   -9.124861e+00
   12181,   -1.001863e+01,    0.000000e+00,   -1.010961e+01
   12182,   -9.622448e+00,    0.000000e+00,   -1.280972e+01
   12183,   -5.396329e+00,    0.000000e+00,   -1.578446e+01
   12184,   -9.151827e+00,    0.000000e+00,   -1.628220e+01
   12185,   -1.447074e+00,    0.000000e+00,   -1.514390e+01
   12186,    2.476808e+00,    0.000000e+00,   -1.449494e+01
   12187,    6.692977e+00,    0.000000e+00,   -1.336327e+01
   12188,    1.116349e+01,    0.000000e+00,   -1.165195e+01
   12189,    1.565638e+01,    0.000000e+00,   -1.038855e+01
   12190,    1.991511e+01,    0.000000e+00,   -9.379810e+00
   12191,    2.403449e+01,    0.000000e+00,   -8.746451e+00
   12192,    2.807243e+01,    0.000000e+00,   -8.389235e+00
   12193,    3.206505e+01,    0.000000e+00,   -8.195069e+00
   12194,   -3.206475e+01,    0.000000e+00,   -3.203047e+01
   12195,   -3.209886e+01,    0.000000e+00,   -2.804457e+01
   12196,   -3.213310e+01,    0.000000e+00,   -2.405446e+01
   12197,   -3.215742e+01,    0.000000e+00,   -2.005855e+01
   12198,   -3.216365e+01,    0.000000e+00,   -1.605701e+01
   12199,   -3.214263e+01,    0.000000e+00,   -1.205265e+01
   12200,    3.216217e+01,    0.000000e+00,   -1.222571e+01
   12201,    3.229260e+01,    0.000000e+00,   -1.620179e+01
   12202,    3.238709e+01,    0.000000e+00,   -2.013122e+01
   12203,    3.233972e+01,    0.000000e+00,   -2.405016e+01
   12204,    3.224253e+01,    0.000000e+00,   -2.799413e+01
   12205,    3.214827e+01,    0.000000e+00,   -3.197185e+01
   12206,    2.822197e+01,    0.000000e+00,   -3.189704e+01
   12207,    2.428602e+01,    0.000000e+00,   -3.170823e+01
   12208,    2.033196e+01,    0.000000e+00,   -3.134567e+01
   12209,    1.633846e+01,    0.000000e+00,   -3.104956e+01
   12210,    1.224031e+01,    0.000000e+00,   -3.094010e+01
   12211,    8.123892e+00,    0.000000e+00,   -3.112419e+01
   12212,    4.018007e+00,    0.000000e+00,   -3.138206e+01
   12213,   -6.542876e-02,    0.000000e+00,   -3.162889e+01
   12214,   -4.124216e+00,    0.000000e+00,   -3.183011e+01
   12215,   -8.155029e+00,    0.000000e+00,   -3.197181e+01
   12216,   -1.216891e+01,    0.000000e+00,   -3.205153e+01
   12217,   -1.616803e+01,    0.000000e+00,   -3.207971e+01
   12218,   -2.015168e+01,    0.000000e+00,   -3.207489e+01
   12219,   -2.412672e+01,    0.000000e+00,   -3.206050e+01
   12220,   -2.809696e+01,    0.000000e+00,   -3.204531e+01
   12221,   -2.822439e+01,    0.000000e+00,   -1.208660e+01
   12222,   -2.432462e+01,    0.000000e+00,   -1.213923e+01
   12223,   -2.045791e+01,    0.000000e+00,   -1.222285e+01
   12224,   -1.666024e+01,    0.000000e+00,   -1.238090e+01
   12225,   -1.297778e+01,    0.000000e+00,   -1.267569e+01
   12226,   -1.287965e+01,    0.000000e+00,   -1.636961e+01
   12227,   -8.769277e+00,    0.000000e+00,   -2.006644e+01
   12228,   -1.266446e+01,    0.000000e+00,   -2.022277e+01
   12229,   -4.834281e+00,    0.000000e+00,   -1.968643e+01
   12230,   -7.972943e-01,    0.000000e+00,   -1.915056e+01
   12231,    3.342716e+00,    0.000000e+00,   -1.846399e+01
   12232,    7.486011e+00,    0.000000e+00,   -1.760938e+01
   12233,    1.186113e+01,    0.000000e+00,   -1.650747e+01
   12234,    1.625990e+01,    0.000000e+00,   -1.527754e+01
   12235,    2.040732e+01,    0.000000e+00,   -1.381863e+01
   12236,    2.431061e+01,    0.000000e+00,   -1.293101e+01
   12237,    2.825242e+01,    0.000000e+00,   -1.248018e+01
   12238,   -2.815075e+01,    0.000000e+00,   -2.806490e+01
   12239,   -2.820490e+01,    0.000000e+00,   -2.408056e+01
   12240,   -2.824369e+01,    0.000000e+00,   -2.008837e+01
   12241,   -2.825184e+01,    0.000000e+00,   -1.609231e+01
   12242,    2.848942e+01,    0.000000e+00,   -1.641873e+01
   12243,    2.868685e+01,    0.000000e+00,   -2.022711e+01
   12244,    2.855625e+01,    0.000000e+00,   -2.401984e+01
   12245,    2.837726e+01,    0.000000e+00,   -2.790630e+01
   12246,    2.451634e+01,    0.000000e+00,   -2.765203e+01
   12247,    2.069141e+01,    0.000000e+00,   -2.713403e+01
   12248,    1.667189e+01,    0.000000e+00,   -2.635339e+01
   12249,    1.238312e+01,    0.000000e+00,   -2.636243e+01
   12250,    8.154765e+00,    0.000000e+00,   -2.664113e+01
   12251,    3.967979e+00,    0.000000e+00,   -2.706137e+01
   12252,   -1.673856e-01,    0.000000e+00,   -2.744351e+01
   12253,   -4.249289e+00,    0.000000e+00,   -2.775387e+01
   12254,   -8.287866e+00,    0.000000e+00,   -2.796880e+01
   12255,   -1.229746e+01,    0.000000e+00,   -2.808248e+01
   12256,   -1.628430e+01,    0.000000e+00,   -2.811640e+01
   12257,   -2.025078e+01,    0.000000e+00,   -2.810617e+01
   12258,   -2.420374e+01,    0.000000e+00,   -2.808623e+01
   12259,   -1.666216e+01,    0.000000e+00,   -1.629514e+01
   12260,   -1.655734e+01,    0.000000e+00,   -2.022217e+01
   12261,   -1.246127e+01,    0.000000e+00,   -2.412491e+01
   12262,   -1.641626e+01,    0.000000e+00,   -2.416168e+01
   12263,   -8.489061e+00,    0.000000e+00,   -2.397315e+01
   12264,   -4.478439e+00,    0.000000e+00,   -2.367560e+01
   12265,   -3.990548e-01,    0.000000e+00,   -2.325239e+01
   12266,    3.758583e+00,    0.000000e+00,   -2.270783e+01
   12267,    7.994831e+00,    0.000000e+00,   -2.208453e+01
   12268,    1.249406e+01,    0.000000e+00,   -2.140399e+01
   12269,    1.749845e+01,    0.000000e+00,   -2.077788e+01
   12270,    2.122412e+01,    0.000000e+00,   -1.781483e+01
   12271,    2.479457e+01,    0.000000e+00,   -1.689246e+01
   12272,   -2.436292e+01,    0.000000e+00,   -1.613900e+01
   12273,   -2.048923e+01,    0.000000e+00,   -1.621063e+01
   12274,    2.528646e+01,    0.000000e+00,   -2.034120e+01
   12275,    2.490981e+01,    0.000000e+00,   -2.378897e+01
   12276,   -2.428118e+01,    0.000000e+00,   -2.410971e+01
   12277,   -2.433997e+01,    0.000000e+00,   -2.013038e+01
   12278,    2.137323e+01,    0.000000e+00,   -2.315172e+01
   12279,    2.257048e+01,    0.000000e+00,   -2.043818e+01
   12280,   -2.035498e+01,    0.000000e+00,   -2.414043e+01
   12281,   -2.043622e+01,    0.000000e+00,   -2.017628e+01
   14442,   -9.000000e+00,    1.874700e-31,    0.000000e+00
   14443,   -9.000000e+00,   -1.000000e+02,    0.000000e+00
   14444,   -9.000000e+00,   -4.000000e+00,   -2.816688e-15
   14445,   -9.000000e+00,   -8.000000e+00,   -2.571758e-15
   14446,   -9.000000e+00,   -1.200000e+01,   -2.326829e-15
   14447,   -9.000000e+00,   -1.600000e+01,   -2.081900e-15
   14448,   -9.000000e+00,   -2.000000e+01,   -1.836970e-15
   14449,   -9.000000e+00,   -2.400000e+01,   -1.592041e-15
   14450,   -9.000000e+00,   -2.800000e+01,   -1.347111e-15
   14451,   -9.000000e+00,   -3.200000e+01,   -1.102182e-15
   14452,   -9.000000e+00,   -3.600000e+01,   -8.572528e-16
   14453,   -9.000000e+00,   -4.000000e+01,   -6.123234e-16
   14454,   -9.000000e+00,   -4.400000e+01,   -3.673940e-16
   14455,   -9.000000e+00,   -4.800000e+01,   -1.224647e-16
   14456,   -9.000000e+00,   -5.200000e+01,    1.224647e-16
   14457,   -9.000000e+00,   -5.600000e+01,    3.673940e-16
   14458,   -9.000000e+00,   -6.000000e+01,    6.123234e-16
   14459,   -9.000000e+00,   -6.400000e+01,    8.572528e-16
   14460,   -9.000000e+00,   -6.800000e+01,    1.102182e-15
   14461,   -9.000000e+00,   -7.200000e+01,    1.347111e-15
   14462,   -9.000000e+00,   -7.600000e+01,    1.592041e-15
   14463,   -9.000000e+00,   -8.000000e+01,    1.836970e-15
   14464,   -9.000000e+00,   -8.400000e+01,    2.081900e-15
   14465,   -9.000000e+00,   -8.800000e+01,    2.326829e-15
   14466,   -9.000000e+00,   -9.200000e+01,    2.571758e-15
   14467,   -9.000000e+00,   -9.600000e+01,    2.816688e-15
   14468,   -8.000000e+00,   -1.000000e+02,    0.000000e+00
   14469,   -8.000000e+00,    1.874700e-31,    0.000000e+00
   14470,   -8.000000e+00,   -9.600000e+01,    2.816688e-15
   14471,   -8.000000e+00,   -9.200000e+01,    2.571758e-15
   14472,   -8.000000e+00,   -8.800000e+01,    2.326829e-15
   14473,   -8.000000e+00,   -8.400000e+01,    2.081900e-15
   14474,   -8.000000e+00,   -8.000000e+01,    1.836970e-15
   14475,   -8.000000e+00,   -7.600000e+01,    1.592041e-15
   14476,   -8.000000e+00,   -7.200000e+01,    1.347111e-15
   14477,   -8.000000e+00,   -6.800000e+01,    1.102182e-15
   14478,   -8.000000e+00,   -6.400000e+01,    8.572528e-16
   14479,   -8.000000e+00,   -6.000000e+01,    6.123234e-16
   14480,   -8.000000e+00,   -5.600000e+01,    3.673940e-16
   14481,   -8.000000e+00,   -5.200000e+01,    1.224647e-16
   14482,   -8.000000e+00,   -4.800000e+01,   -1.224647e-16
   14483,   -8.000000e+00,   -4.400000e+01,   -3.673940e-16
   14484,   -8.000000e+00,   -4.000000e+01,   -6.123234e-16
   14485,   -8.000000e+00,   -3.600000e+01,   -8.572528e-16
   14486,   -8.000000e+00,   -3.200000e+01,   -1.102182e-15
   14487,   -8.000000e+00,   -2.800000e+01,   -1.347111e-15
   14488,   -8.000000e+00,   -2.400000e+01,   -1.592041e-15
   14489,   -8.000000e+00,   -2.000000e+01,   -1.836970e-15
   14490,   -8.000000e+00,   -1.600000e+01,   -2.081900e-15
   14491,   -8.000000e+00,   -1.200000e+01,   -2.326829e-15
   14492,   -8.000000e+00,   -8.000000e+00,   -2.571758e-15
   14493,   -8.000000e+00,   -4.000000e+00,   -2.816688e-15
   14494,    9.000000e+00,   -1.000000e+02,    3.061617e-15
   14495,    9.000000e+00,    0.000000e+00,   -3.061617e-15
   14496,    9.000000e+00,   -9.600000e+01,    2.816688e-15
   14497,    9.000000e+00,   -9.200000e+01,    2.571758e-15
   14498,    9.000000e+00,   -8.800000e+01,    2.326829e-15
   14499,    9.000000e+00,   -8.400000e+01,    2.081900e-15
   14500,    9.000000e+00,   -8.000000e+01,    1.836970e-15
   14501,    9.000000e+00,   -7.600000e+01,    1.592041e-15
   14502,    9.000000e+00,   -7.200000e+01,    1.347111e-15
   14503,    9.000000e+00,   -6.800000e+01,    1.102182e-15
   14504,    9.000000e+00,   -6.400000e+01,    8.572528e-16
   14505,    9.000000e+00,   -6.000000e+01,    6.123234e-16
   14506,    9.000000e+00,   -5.600000e+01,    3.673940e-16
   14507,    9.000000e+00,   -5.200000e+01,    1.224647e-16
   14508,    9.000000e+00,   -4.800000e+01,   -1.224647e-16
   14509,    9.000000e+00,   -4.400000e+01,   -3.673940e-16
   14510,    9.000000e+00,   -4.000000e+01,   -6.123234e-16
   14511,    9.000000e+00,   -3.600000e+01,   -8.572528e-16
   14512,    9.000000e+00,   -3.200000e+01,   -1.102182e-15
   14513,    9.000000e+00,   -2.800000e+01,   -1.347111e-15
   14514,    9.000000e+00,   -2.400000e+01,   -1.592041e-15
   14515,    9.000000e+00,   -2.000000e+01,   -1.836970e-15
   14516,    9.000000e+00,   -1.600000e+01,   -2.081900e-15
   14517,    9.000000e+00,   -1.200000e+01,   -2.326829e-15
   14518,    9.000000e+00,   -8.000000e+00,   -2.571758e-15
   14519,    9.000000e+00,   -4.000000e+00,   -2.816688e-15
   14520,    8.000000e+00,    0.000000e+00,   -3.061617e-15
   14521,    8.000000e+00,   -1.000000e+02,    3.061617e-15
   14522,    8.000000e+00,   -4.000000e+00,   -2.816688e-15
   14523,    8.000000e+00,   -8.000000e+00,   -2.571758e-15
   14524,    8.000000e+00,   -1.200000e+01,   -2.326829e-15
   14525,    8.000000e+00,   -1.600000e+01,   -2.081900e-15
   14526,    8.000000e+00,   -2.000000e+01,   -1.836970e-15
   14527,    8.000000e+00,   -2.400000e+01,   -1.592041e-15
   14528,    8.000000e+00,   -2.800000e+01,   -1.347111e-15
   14529,    8.000000e+00,   -3.200000e+01,   -1.102182e-15
   14530,    8.000000e+00,   -3.600000e+01,   -8.572528e-16
   14531,    8.000000e+00,   -4.000000e+01,   -6.123234e-16
   14532,    8.000000e+00,   -4.400000e+01,   -3.673940e-16
   14533,    8.000000e+00,   -4.800000e+01,   -1.224647e-16
   14534,    8.000000e+00,   -5.200000e+01,    1.224647e-16
   14535,    8.000000e+00,   -5.600000e+01,    3.673940e-16
   14536,    8.000000e+00,   -6.000000e+01,    6.123234e-16
   14537,    8.000000e+00,   -6.400000e+01,    8.572528e-16
   14538,    8.000000e+00,   -6.800000e+01,    1.102182e-15
   14539,    8.000000e+00,   -7.200000e+01,    1.347111e-15
   14540,    8.000000e+00,   -7.600000e+01,    1.592041e-15
   14541,    8.000000e+00,   -8.000000e+01,    1.836970e-15
   14542,    8.000000e+00,   -8.400000e+01,    2.081900e-15
   14543,    8.000000e+00,   -8.800000e+01,    2.326829e-15
   14544,    8.000000e+00,   -9.200000e+01,    2.571758e-15
   14545,    8.000000e+00,   -9.600000e+01,    2.816688e-15
   14546,    8.108720e+00,   -2.391094e-16,   -3.904954e+00
   14547,    5.611408e+00,   -4.308603e-16,   -7.036483e+00
   14548,    2.002688e+00,   -5.372741e-16,   -8.774351e+00
   14549,   -2.002688e+00,   -5.372741e-16,   -8.774351e+00
   14550,   -5.611408e+00,   -4.308603e-16,   -7.036483e+00
   14551,   -8.108720e+00,   -2.391094e-16,   -3.904954e+00
   14552,   -7.207751e+00,   -2.125417e-16,   -3.471070e+00
   14553,   -4.987918e+00,   -3.829870e-16,   -6.254652e+00
   14554,   -1.780167e+00,   -4.775769e-16,   -7.799423e+00
   14555,    1.780167e+00,   -4.775769e-16,   -7.799423e+00
   14556,    4.987918e+00,   -3.829870e-16,   -6.254652e+00
   14557,    7.207751e+00,   -2.125417e-16,   -3.471070e+00
   14558,   -8.108720e+00,   -1.000000e+02,   -3.904954e+00
   14559,   -5.611408e+00,   -1.000000e+02,   -7.036483e+00
   14560,   -2.002688e+00,   -1.000000e+02,   -8.774351e+00
   14561,    2.002688e+00,   -1.000000e+02,   -8.774351e+00
   14562,    5.611408e+00,   -1.000000e+02,   -7.036483e+00
   14563,    8.108720e+00,   -1.000000e+02,   -3.904954e+00
   14564,    8.108720e+00,   -4.000000e+00,   -3.904954e+00
   14565,    8.108720e+00,   -8.000000e+00,   -3.904954e+00
   14566,    8.108720e+00,   -1.200000e+01,   -3.904954e+00
   14567,    8.108720e+00,   -1.600000e+01,   -3.904954e+00
   14568,    8.108720e+00,   -2.000000e+01,   -3.904954e+00
   14569,    8.108720e+00,   -2.400000e+01,   -3.904954e+00
   14570,    8.108720e+00,   -2.800000e+01,   -3.904954e+00
   14571,    8.108720e+00,   -3.200000e+01,   -3.904954e+00
   14572,    8.108720e+00,   -3.600000e+01,   -3.904954e+00
   14573,    8.108720e+00,   -4.000000e+01,   -3.904954e+00
   14574,    8.108720e+00,   -4.400000e+01,   -3.904954e+00
   14575,    8.108720e+00,   -4.800000e+01,   -3.904954e+00
   14576,    8.108720e+00,   -5.200000e+01,   -3.904954e+00
   14577,    8.108720e+00,   -5.600000e+01,   -3.904954e+00
   14578,    8.108720e+00,   -6.000000e+01,   -3.904954e+00
   14579,    8.108720e+00,   -6.400000e+01,   -3.904954e+00
   14580,    8.108720e+00,   -6.800000e+01,   -3.904954e+00
   14581,    8.108720e+00,   -7.200000e+01,   -3.904954e+00
   14582,    8.108720e+00,   -7.600000e+01,   -3.904954e+00
   14583,    8.108720e+00,   -8.000000e+01,   -3.904954e+00
   14584,    8.108720e+00,   -8.400000e+01,   -3.904954e+00
   14585,    8.108720e+00,   -8.800000e+01,   -3.904954e+00
   14586,    8.108720e+00,   -9.200000e+01,   -3.904954e+00
   14587,    8.108720e+00,   -9.600000e+01,   -3.904954e+00
   14588,    5.611408e+00,   -4.000000e+00,   -7.036483e+00
   14589,    5.611408e+00,   -8.000000e+00,   -7.036483e+00
   14590,    5.611408e+00,   -1.200000e+01,   -7.036483e+00
   14591,    5.611408e+00,   -1.600000e+01,   -7.036483e+00
   14592,    5.611408e+00,   -2.000000e+01,   -7.036483e+00
   14593,    5.611408e+00,   -2.400000e+01,   -7.036483e+00
   14594,    5.611408e+00,   -2.800000e+01,   -7.036483e+00
   14595,    5.611408e+00,   -3.200000e+01,   -7.036483e+00
   14596,    5.611408e+00,   -3.600000e+01,   -7.036483e+00
   14597,    5.611408e+00,   -4.000000e+01,   -7.036483e+00
   14598,    5.611408e+00,   -4.400000e+01,   -7.036483e+00
   14599,    5.611408e+00,   -4.800000e+01,   -7.036483e+00
   14600,    5.611408e+00,   -5.200000e+01,   -7.036483e+00
   14601,    5.611408e+00,   -5.600000e+01,   -7.036483e+00
   14602,    5.611408e+00,   -6.000000e+01,   -7.036483e+00
   14603,    5.611408e+00,   -6.400000e+01,   -7.036483e+00
   14604,    5.611408e+00,   -6.800000e+01,   -7.036483e+00
   14605,    5.611408e+00,   -7.200000e+01,   -7.036483e+00
   14606,    5.611408e+00,   -7.600000e+01,   -7.036483e+00
   14607,    5.611408e+00,   -8.000000e+01,   -7.036483e+00
   14608,    5.611408e+00,   -8.400000e+01,   -7.036483e+00
   14609,    5.611408e+00,   -8.800000e+01,   -7.036483e+00
   14610,    5.611408e+00,   -9.200000e+01,   -7.036483e+00
   14611,    5.611408e+00,   -9.600000e+01,   -7.036483e+00
   14612,    2.002688e+00,   -4.000000e+00,   -8.774351e+00
   14613,    2.002688e+00,   -8.000000e+00,   -8.774351e+00
   14614,    2.002688e+00,   -1.200000e+01,   -8.774351e+00
   14615,    2.002688e+00,   -1.600000e+01,   -8.774351e+00
   14616,    2.002688e+00,   -2.000000e+01,   -8.774351e+00
   14617,    2.002688e+00,   -2.400000e+01,   -8.774351e+00
   14618,    2.002688e+00,   -2.800000e+01,   -8.774351e+00
   14619,    2.002688e+00,   -3.200000e+01,   -8.774351e+00
   14620,    2.002688e+00,   -3.600000e+01,   -8.774351e+00
   14621,    2.002688e+00,   -4.000000e+01,   -8.774351e+00
   14622,    2.002688e+00,   -4.400000e+01,   -8.774351e+00
   14623,    2.002688e+00,   -4.800000e+01,   -8.774351e+00
   14624,    2.002688e+00,   -5.200000e+01,   -8.774351e+00
   14625,    2.002688e+00,   -5.600000e+01,   -8.774351e+00
   14626,    2.002688e+00,   -6.000000e+01,   -8.774351e+00
   14627,    2.002688e+00,   -6.400000e+01,   -8.774351e+00
   14628,    2.002688e+00,   -6.800000e+01,   -8.774351e+00
   14629,    2.002688e+00,   -7.200000e+01,   -8.774351e+00
   14630,    2.002688e+00,   -7.600000e+01,   -8.774351e+00
   14631,    2.002688e+00,   -8.000000e+01,   -8.774351e+00
   14632,    2.002688e+00,   -8.400000e+01,   -8.774351e+00
   14633,    2.002688e+00,   -8.800000e+01,   -8.774351e+00
   14634,    2.002688e+00,   -9.200000e+01,   -8.774351e+00
   14635,    2.002688e+00,   -9.600000e+01,   -8.774351e+00
   14636,   -2.002688e+00,   -4.000000e+00,   -8.774351e+00
   14637,   -2.002688e+00,   -8.000000e+00,   -8.774351e+00
   14638,   -2.002688e+00,   -1.200000e+01,   -8.774351e+00
   14639,   -2.002688e+00,   -1.600000e+01,   -8.774351e+00
   14640,   -2.002688e+00,   -2.000000e+01,   -8.774351e+00
   14641,   -2.002688e+00,   -2.400000e+01,   -8.774351e+00
   14642,   -2.002688e+00,   -2.800000e+01,   -8.774351e+00
   14643,   -2.002688e+00,   -3.200000e+01,   -8.774351e+00
   14644,   -2.002688e+00,   -3.600000e+01,   -8.774351e+00
   14645,   -2.002688e+00,   -4.000000e+01,   -8.774351e+00
   14646,   -2.002688e+00,   -4.400000e+01,   -8.774351e+00
   14647,   -2.002688e+00,   -4.800000e+01,   -8.774351e+00
   14648,   -2.002688e+00,   -5.200000e+01,   -8.774351e+00
   14649,   -2.002688e+00,   -5.600000e+01,   -8.774351e+00
   14650,   -2.002688e+00,   -6.000000e+01,   -8.774351e+00
   14651,   -2.002688e+00,   -6.400000e+01,   -8.774351e+00
   14652,   -2.002688e+00,   -6.800000e+01,   -8.774351e+00
   14653,   -2.002688e+00,   -7.200000e+01,   -8.774351e+00
   14654,   -2.002688e+00,   -7.600000e+01,   -8.774351e+00
   14655,   -2.002688e+00,   -8.000000e+01,   -8.774351e+00
   14656,   -2.002688e+00,   -8.400000e+01,   -8.774351e+00
   14657,   -2.002688e+00,   -8.800000e+01,   -8.774351e+00
   14658,   -2.002688e+00,   -9.200000e+01,   -8.774351e+00
   14659,   -2.002688e+00,   -9.600000e+01,   -8.774351e+00
   14660,   -5.611408e+00,   -4.000000e+00,   -7.036483e+00
   14661,   -5.611408e+00,   -8.000000e+00,   -7.036483e+00
   14662,   -5.611408e+00,   -1.200000e+01,   -7.036483e+00
   14663,   -5.611408e+00,   -1.600000e+01,   -7.036483e+00
   14664,   -5.611408e+00,   -2.000000e+01,   -7.036483e+00
   14665,   -5.611408e+00,   -2.400000e+01,   -7.036483e+00
   14666,   -5.611408e+00,   -2.800000e+01,   -7.036483e+00
   14667,   -5.611408e+00,   -3.200000e+01,   -7.036483e+00
   14668,   -5.611408e+00,   -3.600000e+01,   -7.036483e+00
   14669,   -5.611408e+00,   -4.000000e+01,   -7.036483e+00
   14670,   -5.611408e+00,   -4.400000e+01,   -7.036483e+00
   14671,   -5.611408e+00,   -4.800000e+01,   -7.036483e+00
   14672,   -5.611408e+00,   -5.200000e+01,   -7.036483e+00
   14673,   -5.611408e+00,   -5.600000e+01,   -7.036483e+00
   14674,   -5.611408e+00,   -6.000000e+01,   -7.036483e+00
   14675,   -5.611408e+00,   -6.400000e+01,   -7.036483e+00
   14676,   -5.611408e+00,   -6.800000e+01,   -7.036483e+00
   14677,   -5.611408e+00,   -7.200000e+01,   -7.036483e+00
   14678,   -5.611408e+00,   -7.600000e+01,   -7.036483e+00
   14679,   -5.611408e+00,   -8.000000e+01,   -7.036483e+00
   14680,   -5.611408e+00,   -8.400000e+01,   -7.036483e+00
   14681,   -5.611408e+00,   -8.800000e+01,   -7.036483e+00
   14682,   -5.611408e+00,   -9.200000e+01,   -7.036483e+00
   14683,   -5.611408e+00,   -9.600000e+01,   -7.036483e+00
   14684,   -8.108720e+00,   -4.000000e+00,   -3.904954e+00
   14685,   -8.108720e+00,   -8.000000e+00,   -3.904954e+00
   14686,   -8.108720e+00,   -1.200000e+01,   -3.904954e+00
   14687,   -8.108720e+00,   -1.600000e+01,   -3.904954e+00
   14688,   -8.108720e+00,   -2.000000e+01,   -3.904954e+00
   14689,   -8.108720e+00,   -2.400000e+01,   -3.904954e+00
   14690,   -8.108720e+00,   -2.800000e+01,   -3.904954e+00
   14691,   -8.108720e+00,   -3.200000e+01,   -3.904954e+00
   14692,   -8.108720e+00,   -3.600000e+01,   -3.904954e+00
   14693,   -8.108720e+00,   -4.000000e+01,   -3.904954e+00
   14694,   -8.108720e+00,   -4.400000e+01,   -3.904954e+00
   14695,   -8.108720e+00,   -4.800000e+01,   -3.904954e+00
   14696,   -8.108720e+00,   -5.200000e+01,   -3.904954e+00
   14697,   -8.108720e+00,   -5.600000e+01,   -3.904954e+00
   14698,   -8.108720e+00,   -6.000000e+01,   -3.904954e+00
   14699,   -8.108720e+00,   -6.400000e+01,   -3.904954e+00
   14700,   -8.108720e+00,   -6.800000e+01,   -3.904954e+00
   14701,   -8.108720e+00,   -7.200000e+01,   -3.904954e+00
   14702,   -8.108720e+00,   -7.600000e+01,   -3.904954e+00
   14703,   -8.108720e+00,   -8.000000e+01,   -3.904954e+00
   14704,   -8.108720e+00,   -8.400000e+01,   -3.904954e+00
   14705,   -8.108720e+00,   -8.800000e+01,   -3.904954e+00
   14706,   -8.108720e+00,   -9.200000e+01,   -3.904954e+00
   14707,   -8.108720e+00,   -9.600000e+01,   -3.904954e+00
   14708,    7.207751e+00,   -1.000000e+02,   -3.471070e+00
   14709,    4.987918e+00,   -1.000000e+02,   -6.254652e+00
   14710,    1.780167e+00,   -1.000000e+02,   -7.799423e+00
   14711,   -1.780167e+00,   -1.000000e+02,   -7.799423e+00
   14712,   -4.987918e+00,   -1.000000e+02,   -6.254652e+00
   14713,   -7.207751e+00,   -1.000000e+02,   -3.471070e+00
   14714,    7.207751e+00,   -9.600000e+01,   -3.471070e+00
   14715,    7.207751e+00,   -9.200000e+01,   -3.471070e+00
   14716,    7.207751e+00,   -8.800000e+01,   -3.471070e+00
   14717,    7.207751e+00,   -8.400000e+01,   -3.471070e+00
   14718,    7.207751e+00,   -8.000000e+01,   -3.471070e+00
   14719,    7.207751e+00,   -7.600000e+01,   -3.471070e+00
   14720,    7.207751e+00,   -7.200000e+01,   -3.471070e+00
   14721,    7.207751e+00,   -6.800000e+01,   -3.471070e+00
   14722,    7.207751e+00,   -6.400000e+01,   -3.471070e+00
   14723,    7.207751e+00,   -6.000000e+01,   -3.471070e+00
   14724,    7.207751e+00,   -5.600000e+01,   -3.471070e+00
   14725,    7.207751e+00,   -5.200000e+01,   -3.471070e+00
   14726,    7.207751e+00,   -4.800000e+01,   -3.471070e+00
   14727,    7.207751e+00,   -4.400000e+01,   -3.471070e+00
   14728,    7.207751e+00,   -4.000000e+01,   -3.471070e+00
   14729,    7.207751e+00,   -3.600000e+01,   -3.471070e+00
   14730,    7.207751e+00,   -3.200000e+01,   -3.471070e+00
   14731,    7.207751e+00,   -2.800000e+01,   -3.471070e+00
   14732,    7.207751e+00,   -2.400000e+01,   -3.471070e+00
   14733,    7.207751e+00,   -2.000000e+01,   -3.471070e+00
   14734,    7.207751e+00,   -1.600000e+01,   -3.471070e+00
   14735,    7.207751e+00,   -1.200000e+01,   -3.471070e+00
   14736,    7.207751e+00,   -8.000000e+00,   -3.471070e+00
   14737,    7.207751e+00,   -4.000000e+00,   -3.471070e+00
   14738,    4.987918e+00,   -9.600000e+01,   -6.254652e+00
   14739,    4.987918e+00,   -9.200000e+01,   -6.254652e+00
   14740,    4.987918e+00,   -8.800000e+01,   -6.254652e+00
   14741,    4.987918e+00,   -8.400000e+01,   -6.254652e+00
   14742,    4.987918e+00,   -8.000000e+01,   -6.254652e+00
   14743,    4.987918e+00,   -7.600000e+01,   -6.254652e+00
   14744,    4.987918e+00,   -7.200000e+01,   -6.254652e+00
   14745,    4.987918e+00,   -6.800000e+01,   -6.254652e+00
   14746,    4.987918e+00,   -6.400000e+01,   -6.254652e+00
   14747,    4.987918e+00,   -6.000000e+01,   -6.254652e+00
   14748,    4.987918e+00,   -5.600000e+01,   -6.254652e+00
   14749,    4.987918e+00,   -5.200000e+01,   -6.254652e+00
   14750,    4.987918e+00,   -4.800000e+01,   -6.254652e+00
   14751,    4.987918e+00,   -4.400000e+01,   -6.254652e+00
   14752,    4.987918e+00,   -4.000000e+01,   -6.254652e+00
   14753,    4.987918e+00,   -3.600000e+01,   -6.254652e+00
   14754,    4.987918e+00,   -3.200000e+01,   -6.254652e+00
   14755,    4.987918e+00,   -2.800000e+01,   -6.254652e+00
   14756,    4.987918e+00,   -2.400000e+01,   -6.254652e+00
   14757,    4.987918e+00,   -2.000000e+01,   -6.254652e+00
   14758,    4.987918e+00,   -1.600000e+01,   -6.254652e+00
   14759,    4.987918e+00,   -1.200000e+01,   -6.254652e+00
   14760,    4.987918e+00,   -8.000000e+00,   -6.254652e+00
   14761,    4.987918e+00,   -4.000000e+00,   -6.254652e+00
   14762,    1.780167e+00,   -9.600000e+01,   -7.799423e+00
   14763,    1.780167e+00,   -9.200000e+01,   -7.799423e+00
   14764,    1.780167e+00,   -8.800000e+01,   -7.799423e+00
   14765,    1.780167e+00,   -8.400000e+01,   -7.799423e+00
   14766,    1.780167e+00,   -8.000000e+01,   -7.799423e+00
   14767,    1.780167e+00,   -7.600000e+01,   -7.799423e+00
   14768,    1.780167e+00,   -7.200000e+01,   -7.799423e+00
   14769,    1.780167e+00,   -6.800000e+01,   -7.799423e+00
   14770,    1.780167e+00,   -6.400000e+01,   -7.799423e+00
   14771,    1.780167e+00,   -6.000000e+01,   -7.799423e+00
   14772,    1.780167e+00,   -5.600000e+01,   -7.799423e+00
   14773,    1.780167e+00,   -5.200000e+01,   -7.799423e+00
   14774,    1.780167e+00,   -4.800000e+01,   -7.799423e+00
   14775,    1.780167e+00,   -4.400000e+01,   -7.799423e+00
   14776,    1.780167e+00,   -4.000000e+01,   -7.799423e+00
   14777,    1.780167e+00,   -3.600000e+01,   -7.799423e+00
   14778,    1.780167e+00,   -3.200000e+01,   -7.799423e+00
   14779,    1.780167e+00,   -2.800000e+01,   -7.799423e+00
   14780,    1.780167e+00,   -2.400000e+01,   -7.799423e+00
   14781,    1.780167e+00,   -2.000000e+01,   -7.799423e+00
   14782,    1.780167e+00,   -1.600000e+01,   -7.799423e+00
   14783,    1.780167e+00,   -1.200000e+01,   -7.799423e+00
   14784,    1.780167e+00,   -8.000000e+00,   -7.799423e+00
   14785,    1.780167e+00,   -4.000000e+00,   -7.799423e+00
   14786,   -1.780167e+00,   -9.600000e+01,   -7.799423e+00
   14787,   -1.780167e+00,   -9.200000e+01,   -7.799423e+00
   14788,   -1.780167e+00,   -8.800000e+01,   -7.799423e+00
   14789,   -1.780167e+00,   -8.400000e+01,   -7.799423e+00
   14790,   -1.780167e+00,   -8.000000e+01,   -7.799423e+00
   14791,   -1.780167e+00,   -7.600000e+01,   -7.799423e+00
   14792,   -1.780167e+00,   -7.200000e+01,   -7.799423e+00
   14793,   -1.780167e+00,   -6.800000e+01,   -7.799423e+00
   14794,   -1.780167e+00,   -6.400000e+01,   -7.799423e+00
   14795,   -1.780167e+00,   -6.000000e+01,   -7.799423e+00
   14796,   -1.780167e+00,   -5.600000e+01,   -7.799423e+00
   14797,   -1.780167e+00,   -5.200000e+01,   -7.799423e+00
   14798,   -1.780167e+00,   -4.800000e+01,   -7.799423e+00
   14799,   -1.780167e+00,   -4.400000e+01,   -7.799423e+00
   14800,   -1.780167e+00,   -4.000000e+01,   -7.799423e+00
   14801,   -1.780167e+00,   -3.600000e+01,   -7.799423e+00
   14802,   -1.780167e+00,   -3.200000e+01,   -7.799423e+00
   14803,   -1.780167e+00,   -2.800000e+01,   -7.799423e+00
   14804,   -1.780167e+00,   -2.400000e+01,   -7.799423e+00
   14805,   -1.780167e+00,   -2.000000e+01,   -7.799423e+00
   14806,   -1.780167e+00,   -1.600000e+01,   -7.799423e+00
   14807,   -1.780167e+00,   -1.200000e+01,   -7.799423e+00
   14808,   -1.780167e+00,   -8.000000e+00,   -7.799423e+00
   14809,   -1.780167e+00,   -4.000000e+00,   -7.799423e+00
   14810,   -4.987918e+00,   -9.600000e+01,   -6.254652e+00
   14811,   -4.987918e+00,   -9.200000e+01,   -6.254652e+00
   14812,   -4.987918e+00,   -8.800000e+01,   -6.254652e+00
   14813,   -4.987918e+00,   -8.400000e+01,   -6.254652e+00
   14814,   -4.987918e+00,   -8.000000e+01,   -6.254652e+00
   14815,   -4.987918e+00,   -7.600000e+01,   -6.254652e+00
   14816,   -4.987918e+00,   -7.200000e+01,   -6.254652e+00
   14817,   -4.987918e+00,   -6.800000e+01,   -6.254652e+00
   14818,   -4.987918e+00,   -6.400000e+01,   -6.254652e+00
   14819,   -4.987918e+00,   -6.000000e+01,   -6.254652e+00
   14820,   -4.987918e+00,   -5.600000e+01,   -6.254652e+00
   14821,   -4.987918e+00,   -5.200000e+01,   -6.254652e+00
   14822,   -4.987918e+00,   -4.800000e+01,   -6.254652e+00
   14823,   -4.987918e+00,   -4.400000e+01,   -6.254652e+00
   14824,   -4.987918e+00,   -4.000000e+01,   -6.254652e+00
   14825,   -4.987918e+00,   -3.600000e+01,   -6.254652e+00
   14826,   -4.987918e+00,   -3.200000e+01,   -6.254652e+00
   14827,   -4.987918e+00,   -2.800000e+01,   -6.254652e+00
   14828,   -4.987918e+00,   -2.400000e+01,   -6.254652e+00
   14829,   -4.987918e+00,   -2.000000e+01,   -6.254652e+00
   14830,   -4.987918e+00,   -1.600000e+01,   -6.254652e+00
   14831,   -4.987918e+00,   -1.200000e+01,   -6.254652e+00
   14832,   -4.987918e+00,   -8.000000e+00,   -6.254652e+00
   14833,   -4.987918e+00,   -4.000000e+00,   -6.254652e+00
   14834,   -7.207751e+00,   -9.600000e+01,   -3.471070e+00
   14835,   -7.207751e+00,   -9.200000e+01,   -3.471070e+00
   14836,   -7.207751e+00,   -8.800000e+01,   -3.471070e+00
   14837,   -7.207751e+00,   -8.400000e+01,   -3.471070e+00
   14838,   -7.207751e+00,   -8.000000e+01,   -3.471070e+00
   14839,   -7.207751e+00,   -7.600000e+01,   -3.471070e+00
   14840,   -7.207751e+00,   -7.200000e+01,   -3.471070e+00
   14841,   -7.207751e+00,   -6.800000e+01,   -3.471070e+00
   14842,   -7.207751e+00,   -6.400000e+01,   -3.471070e+00
   14843,   -7.207751e+00,   -6.000000e+01,   -3.471070e+00
   14844,   -7.207751e+00,   -5.600000e+01,   -3.471070e+00
   14845,   -7.207751e+00,   -5.200000e+01,   -3.471070e+00
   14846,   -7.207751e+00,   -4.800000e+01,   -3.471070e+00
   14847,   -7.207751e+00,   -4.400000e+01,   -3.471070e+00
   14848,   -7.207751e+00,   -4.000000e+01,   -3.471070e+00
   14849,   -7.207751e+00,   -3.600000e+01,   -3.471070e+00
   14850,   -7.207751e+00,   -3.200000e+01,   -3.471070e+00
   14851,   -7.207751e+00,   -2.800000e+01,   -3.471070e+00
   14852,   -7.207751e+00,   -2.400000e+01,   -3.471070e+00
   14853,   -7.207751e+00,   -2.000000e+01,   -3.471070e+00
   14854,   -7.207751e+00,   -1.600000e+01,   -3.471070e+00
   14855,   -7.207751e+00,   -1.200000e+01,   -3.471070e+00
   14856,   -7.207751e+00,   -8.000000e+00,   -3.471070e+00
   14857,   -7.207751e+00,   -4.000000e+00,   -3.471070e+00
********************************** E L E M E N T S ****************************
*ELEMENT, TYPE=C3D8I, ELSET=steel
       1,   10851,   10852,   10727,   10849,   10545,   10547,   10537,   10546
       2,   10846,   10847,   10852,   10851,   10541,   10542,   10547,   10545
       3,   10847,   10614,   10727,   10852,   10542,   10534,   10537,   10547
       4,   10845,   10849,   10848,   10844,   10540,   10546,   10543,   10539
       5,   10846,   10851,   10849,   10845,   10541,   10545,   10546,   10540
       6,   10843,   10844,   10848,   10850,   10538,   10539,   10543,   10544
       7,   10669,   10613,   10843,   10850,   10535,   10533,   10538,   10544
       8,   10698,   10669,   10850,   10848,   10536,   10535,   10544,   10543
       9,   10727,   10698,   10848,   10849,   10537,   10536,   10543,   10546
      10,   10856,   10857,   10726,   10854,   10851,   10852,   10727,   10849
      11,   10841,   10842,   10857,   10856,   10846,   10847,   10852,   10851
      12,   10842,   10615,   10726,   10857,   10847,   10614,   10727,   10852
      13,   10840,   10854,   10853,   10839,   10845,   10849,   10848,   10844
      14,   10841,   10856,   10854,   10840,   10846,   10851,   10849,   10845
      15,   10838,   10839,   10853,   10855,   10843,   10844,   10848,   10850
      16,   10668,   10612,   10838,   10855,   10669,   10613,   10843,   10850
      17,   10697,   10668,   10855,   10853,   10698,   10669,   10850,   10848
      18,   10726,   10697,   10853,   10854,   10727,   10698,   10848,   10849
      19,   10861,   10862,   10725,   10859,   10856,   10857,   10726,   10854
      20,   10836,   10837,   10862,   10861,   10841,   10842,   10857,   10856
      21,   10837,   10616,   10725,   10862,   10842,   10615,   10726,   10857
      22,   10835,   10859,   10858,   10834,   10840,   10854,   10853,   10839
      23,   10836,   10861,   10859,   10835,   10841,   10856,   10854,   10840
      24,   10833,   10834,   10858,   10860,   10838,   10839,   10853,   10855
      25,   10667,   10611,   10833,   10860,   10668,   10612,   10838,   10855
      26,   10696,   10667,   10860,   10858,   10697,   10668,   10855,   10853
      27,   10725,   10696,   10858,   10859,   10726,   10697,   10853,   10854
      28,   10866,   10867,   10724,   10864,   10861,   10862,   10725,   10859
      29,   10831,   10832,   10867,   10866,   10836,   10837,   10862,   10861
      30,   10832,   10617,   10724,   10867,   10837,   10616,   10725,   10862
      31,   10830,   10864,   10863,   10829,   10835,   10859,   10858,   10834
      32,   10831,   10866,   10864,   10830,   10836,   10861,   10859,   10835
      33,   10828,   10829,   10863,   10865,   10833,   10834,   10858,   10860
      34,   10666,   10610,   10828,   10865,   10667,   10611,   10833,   10860
      35,   10695,   10666,   10865,   10863,   10696,   10667,   10860,   10858
      36,   10724,   10695,   10863,   10864,   10725,   10696,   10858,   10859
      37,   10871,   10872,   10723,   10869,   10866,   10867,   10724,   10864
      38,   10826,   10827,   10872,   10871,   10831,   10832,   10867,   10866
      39,   10827,   10618,   10723,   10872,   10832,   10617,   10724,   10867
      40,   10825,   10869,   10868,   10824,   10830,   10864,   10863,   10829
      41,   10826,   10871,   10869,   10825,   10831,   10866,   10864,   10830
      42,   10823,   10824,   10868,   10870,   10828,   10829,   10863,   10865
      43,   10665,   10609,   10823,   10870,   10666,   10610,   10828,   10865
      44,   10694,   10665,   10870,   10868,   10695,   10666,   10865,   10863
      45,   10723,   10694,   10868,   10869,   10724,   10695,   10863,   10864
      46,   10876,   10877,   10722,   10874,   10871,   10872,   10723,   10869
      47,   10821,   10822,   10877,   10876,   10826,   10827,   10872,   10871
      48,   10822,   10619,   10722,   10877,   10827,   10618,   10723,   10872
      49,   10820,   10874,   10873,   10819,   10825,   10869,   10868,   10824
      50,   10821,   10876,   10874,   10820,   10826,   10871,   10869,   10825
      51,   10818,   10819,   10873,   10875,   10823,   10824,   10868,   10870
      52,   10664,   10608,   10818,   10875,   10665,   10609,   10823,   10870
      53,   10693,   10664,   10875,   10873,   10694,   10665,   10870,   10868
      54,   10722,   10693,   10873,   10874,   10723,   10694,   10868,   10869
      55,   10881,   10882,   10721,   10879,   10876,   10877,   10722,   10874
      56,   10816,   10817,   10882,   10881,   10821,   10822,   10877,   10876
      57,   10817,   10620,   10721,   10882,   10822,   10619,   10722,   10877
      58,   10815,   10879,   10878,   10814,   10820,   10874,   10873,   10819
      59,   10816,   10881,   10879,   10815,   10821,   10876,   10874,   10820
      60,   10813,   10814,   10878,   10880,   10818,   10819,   10873,   10875
      61,   10663,   10607,   10813,   10880,   10664,   10608,   10818,   10875
      62,   10692,   10663,   10880,   10878,   10693,   10664,   10875,   10873
      63,   10721,   10692,   10878,   10879,   10722,   10693,   10873,   10874
      64,   10886,   10887,   10720,   10884,   10881,   10882,   10721,   10879
      65,   10811,   10812,   10887,   10886,   10816,   10817,   10882,   10881
      66,   10812,   10621,   10720,   10887,   10817,   10620,   10721,   10882
      67,   10810,   10884,   10883,   10809,   10815,   10879,   10878,   10814
      68,   10811,   10886,   10884,   10810,   10816,   10881,   10879,   10815
      69,   10808,   10809,   10883,   10885,   10813,   10814,   10878,   10880
      70,   10662,   10606,   10808,   10885,   10663,   10607,   10813,   10880
      71,   10691,   10662,   10885,   10883,   10692,   10663,   10880,   10878
      72,   10720,   10691,   10883,   10884,   10721,   10692,   10878,   10879
      73,   10891,   10892,   10719,   10889,   10886,   10887,   10720,   10884
      74,   10806,   10807,   10892,   10891,   10811,   10812,   10887,   10886
      75,   10807,   10622,   10719,   10892,   10812,   10621,   10720,   10887
      76,   10805,   10889,   10888,   10804,   10810,   10884,   10883,   10809
      77,   10806,   10891,   10889,   10805,   10811,   10886,   10884,   10810
      78,   10803,   10804,   10888,   10890,   10808,   10809,   10883,   10885
      79,   10661,   10605,   10803,   10890,   10662,   10606,   10808,   10885
      80,   10690,   10661,   10890,   10888,   10691,   10662,   10885,   10883
      81,   10719,   10690,   10888,   10889,   10720,   10691,   10883,   10884
      82,   10896,   10897,   10718,   10894,   10891,   10892,   10719,   10889
      83,   10801,   10802,   10897,   10896,   10806,   10807,   10892,   10891
      84,   10802,   10623,   10718,   10897,   10807,   10622,   10719,   10892
      85,   10800,   10894,   10893,   10799,   10805,   10889,   10888,   10804
      86,   10801,   10896,   10894,   10800,   10806,   10891,   10889,   10805
      87,   10798,   10799,   10893,   10895,   10803,   10804,   10888,   10890
      88,   10660,   10604,   10798,   10895,   10661,   10605,   10803,   10890
      89,   10689,   10660,   10895,   10893,   10690,   10661,   10890,   10888
      90,   10718,   10689,   10893,   10894,   10719,   10690,   10888,   10889
      91,   10901,   10902,   10717,   10899,   10896,   10897,   10718,   10894
      92,   10796,   10797,   10902,   10901,   10801,   10802,   10897,   10896
      93,   10797,   10624,   10717,   10902,   10802,   10623,   10718,   10897
      94,   10795,   10899,   10898,   10794,   10800,   10894,   10893,   10799
      95,   10796,   10901,   10899,   10795,   10801,   10896,   10894,   10800
      96,   10793,   10794,   10898,   10900,   10798,   10799,   10893,   10895
      97,   10659,   10603,   10793,   10900,   10660,   10604,   10798,   10895
      98,   10688,   10659,   10900,   10898,   10689,   10660,   10895,   10893
      99,   10717,   10688,   10898,   10899,   10718,   10689,   10893,   10894
     100,   10906,   10907,   10716,   10904,   10901,   10902,   10717,   10899
     101,   10791,   10792,   10907,   10906,   10796,   10797,   10902,   10901
     102,   10792,   10625,   10716,   10907,   10797,   10624,   10717,   10902
     103,   10790,   10904,   10903,   10789,   10795,   10899,   10898,   10794
     104,   10791,   10906,   10904,   10790,   10796,   10901,   10899,   10795
     105,   10788,   10789,   10903,   10905,   10793,   10794,   10898,   10900
     106,   10658,   10602,   10788,   10905,   10659,   10603,   10793,   10900
     107,   10687,   10658,   10905,   10903,   10688,   10659,   10900,   10898
     108,   10716,   10687,   10903,   10904,   10717,   10688,   10898,   10899
     109,   10911,   10912,   10715,   10909,   10906,   10907,   10716,   10904
     110,   10786,   10787,   10912,   10911,   10791,   10792,   10907,   10906
     111,   10787,   10626,   10715,   10912,   10792,   10625,   10716,   10907
     112,   10785,   10909,   10908,   10784,   10790,   10904,   10903,   10789
     113,   10786,   10911,   10909,   10785,   10791,   10906,   10904,   10790
     114,   10783,   10784,   10908,   10910,   10788,   10789,   10903,   10905
     115,   10657,   10601,   10783,   10910,   10658,   10602,   10788,   10905
     116,   10686,   10657,   10910,   10908,   10687,   10658,   10905,   10903
     117,   10715,   10686,   10908,   10909,   10716,   10687,   10903,   10904
     118,   10916,   10917,   10714,   10914,   10911,   10912,   10715,   10909
     119,   10781,   10782,   10917,   10916,   10786,   10787,   10912,   10911
     120,   10782,   10627,   10714,   10917,   10787,   10626,   10715,   10912
     121,   10780,   10914,   10913,   10779,   10785,   10909,   10908,   10784
     122,   10781,   10916,   10914,   10780,   10786,   10911,   10909,   10785
     123,   10778,   10779,   10913,   10915,   10783,   10784,   10908,   10910
     124,   10656,   10600,   10778,   10915,   10657,   10601,   10783,   10910
     125,   10685,   10656,   10915,   10913,   10686,   10657,   10910,   10908
     126,   10714,   10685,   10913,   10914,   10715,   10686,   10908,   10909
     127,   10921,   10922,   10713,   10919,   10916,   10917,   10714,   10914
     128,   10776,   10777,   10922,   10921,   10781,   10782,   10917,   10916
     129,   10777,   10628,   10713,   10922,   10782,   10627,   10714,   10917
     130,   10775,   10919,   10918,   10774,   10780,   10914,   10913,   10779
     131,   10776,   10921,   10919,   10775,   10781,   10916,   10914,   10780
     132,   10773,   10774,   10918,   10920,   10778,   10779,   10913,   10915
     133,   10655,   10599,   10773,   10920,   10656,   10600,   10778,   10915
     134,   10684,   10655,   10920,   10918,   10685,   10656,   10915,   10913
     135,   10713,   10684,   10918,   10919,   10714,   10685,   10913,   10914
     136,   10926,   10927,   10712,   10924,   10921,   10922,   10713,   10919
     137,   10771,   10772,   10927,   10926,   10776,   10777,   10922,   10921
     138,   10772,   10629,   10712,   10927,   10777,   10628,   10713,   10922
     139,   10770,   10924,   10923,   10769,   10775,   10919,   10918,   10774
     140,   10771,   10926,   10924,   10770,   10776,   10921,   10919,   10775
     141,   10768,   10769,   10923,   10925,   10773,   10774,   10918,   10920
     142,   10654,   10598,   10768,   10925,   10655,   10599,   10773,   10920
     143,   10683,   10654,   10925,   10923,   10684,   10655,   10920,   10918
     144,   10712,   10683,   10923,   10924,   10713,   10684,   10918,   10919
     145,   10931,   10932,   10711,   10929,   10926,   10927,   10712,   10924
     146,   10766,   10767,   10932,   10931,   10771,   10772,   10927,   10926
     147,   10767,   10630,   10711,   10932,   10772,   10629,   10712,   10927
     148,   10765,   10929,   10928,   10764,   10770,   10924,   10923,   10769
     149,   10766,   10931,   10929,   10765,   10771,   10926,   10924,   10770
     150,   10763,   10764,   10928,   10930,   10768,   10769,   10923,   10925
     151,   10653,   10597,   10763,   10930,   10654,   10598,   10768,   10925
     152,   10682,   10653,   10930,   10928,   10683,   10654,   10925,   10923
     153,   10711,   10682,   10928,   10929,   10712,   10683,   10923,   10924
     154,   10936,   10937,   10710,   10934,   10931,   10932,   10711,   10929
     155,   10761,   10762,   10937,   10936,   10766,   10767,   10932,   10931
     156,   10762,   10631,   10710,   10937,   10767,   10630,   10711,   10932
     157,   10760,   10934,   10933,   10759,   10765,   10929,   10928,   10764
     158,   10761,   10936,   10934,   10760,   10766,   10931,   10929,   10765
     159,   10758,   10759,   10933,   10935,   10763,   10764,   10928,   10930
     160,   10652,   10596,   10758,   10935,   10653,   10597,   10763,   10930
     161,   10681,   10652,   10935,   10933,   10682,   10653,   10930,   10928
     162,   10710,   10681,   10933,   10934,   10711,   10682,   10928,   10929
     163,   10941,   10942,   10709,   10939,   10936,   10937,   10710,   10934
     164,   10756,   10757,   10942,   10941,   10761,   10762,   10937,   10936
     165,   10757,   10632,   10709,   10942,   10762,   10631,   10710,   10937
     166,   10755,   10939,   10938,   10754,   10760,   10934,   10933,   10759
     167,   10756,   10941,   10939,   10755,   10761,   10936,   10934,   10760
     168,   10753,   10754,   10938,   10940,   10758,   10759,   10933,   10935
     169,   10651,   10595,   10753,   10940,   10652,   10596,   10758,   10935
     170,   10680,   10651,   10940,   10938,   10681,   10652,   10935,   10933
     171,   10709,   10680,   10938,   10939,   10710,   10681,   10933,   10934
     172,   10946,   10947,   10708,   10944,   10941,   10942,   10709,   10939
     173,   10751,   10752,   10947,   10946,   10756,   10757,   10942,   10941
     174,   10752,   10633,   10708,   10947,   10757,   10632,   10709,   10942
     175,   10750,   10944,   10943,   10749,   10755,   10939,   10938,   10754
     176,   10751,   10946,   10944,   10750,   10756,   10941,   10939,   10755
     177,   10748,   10749,   10943,   10945,   10753,   10754,   10938,   10940
     178,   10650,   10594,   10748,   10945,   10651,   10595,   10753,   10940
     179,   10679,   10650,   10945,   10943,   10680,   10651,   10940,   10938
     180,   10708,   10679,   10943,   10944,   10709,   10680,   10938,   10939
     181,   10951,   10952,   10707,   10949,   10946,   10947,   10708,   10944
     182,   10746,   10747,   10952,   10951,   10751,   10752,   10947,   10946
     183,   10747,   10634,   10707,   10952,   10752,   10633,   10708,   10947
     184,   10745,   10949,   10948,   10744,   10750,   10944,   10943,   10749
     185,   10746,   10951,   10949,   10745,   10751,   10946,   10944,   10750
     186,   10743,   10744,   10948,   10950,   10748,   10749,   10943,   10945
     187,   10649,   10593,   10743,   10950,   10650,   10594,   10748,   10945
     188,   10678,   10649,   10950,   10948,   10679,   10650,   10945,   10943
     189,   10707,   10678,   10948,   10949,   10708,   10679,   10943,   10944
     190,   10956,   10957,   10706,   10954,   10951,   10952,   10707,   10949
     191,   10741,   10742,   10957,   10956,   10746,   10747,   10952,   10951
     192,   10742,   10635,   10706,   10957,   10747,   10634,   10707,   10952
     193,   10740,   10954,   10953,   10739,   10745,   10949,   10948,   10744
     194,   10741,   10956,   10954,   10740,   10746,   10951,   10949,   10745
     195,   10738,   10739,   10953,   10955,   10743,   10744,   10948,   10950
     196,   10648,   10592,   10738,   10955,   10649,   10593,   10743,   10950
     197,   10677,   10648,   10955,   10953,   10678,   10649,   10950,   10948
     198,   10706,   10677,   10953,   10954,   10707,   10678,   10948,   10949
     199,   10961,   10962,   10705,   10959,   10956,   10957,   10706,   10954
     200,   10736,   10737,   10962,   10961,   10741,   10742,   10957,   10956
     201,   10737,   10636,   10705,   10962,   10742,   10635,   10706,   10957
     202,   10735,   10959,   10958,   10734,   10740,   10954,   10953,   10739
     203,   10736,   10961,   10959,   10735,   10741,   10956,   10954,   10740
     204,   10733,   10734,   10958,   10960,   10738,   10739,   10953,   10955
     205,   10647,   10591,   10733,   10960,   10648,   10592,   10738,   10955
     206,   10676,   10647,   10960,   10958,   10677,   10648,   10955,   10953
     207,   10705,   10676,   10958,   10959,   10706,   10677,   10953,   10954
     208,   10966,   10967,   10704,   10964,   10961,   10962,   10705,   10959
     209,   10731,   10732,   10967,   10966,   10736,   10737,   10962,   10961
     210,   10732,   10637,   10704,   10967,   10737,   10636,   10705,   10962
     211,   10730,   10964,   10963,   10729,   10735,   10959,   10958,   10734
     212,   10731,   10966,   10964,   10730,   10736,   10961,   10959,   10735
     213,   10728,   10729,   10963,   10965,   10733,   10734,   10958,   10960
     214,   10646,   10590,   10728,   10965,   10647,   10591,   10733,   10960
     215,   10675,   10646,   10965,   10963,   10676,   10647,   10960,   10958
     216,   10704,   10675,   10963,   10964,   10705,   10676,   10958,   10959
     217,   10971,   10972,   10703,   10969,   10966,   10967,   10704,   10964
     218,   10581,   10580,   10972,   10971,   10731,   10732,   10967,   10966
     219,   10580,   10576,   10703,   10972,   10732,   10637,   10704,   10967
     220,   10582,   10969,   10968,   10583,   10730,   10964,   10963,   10729
     221,   10581,   10971,   10969,   10582,   10731,   10966,   10964,   10730
     222,   10584,   10583,   10968,   10970,   10728,   10729,   10963,   10965
     223,   10645,   10578,   10584,   10970,   10646,   10590,   10728,   10965
     224,   10674,   10645,   10970,   10968,   10675,   10646,   10965,   10963
     225,   10703,   10674,   10968,   10969,   10704,   10675,   10963,   10964
     226,   10976,   10977,   10702,   10974,   10971,   10972,   10703,   10969
     227,   10586,   10585,   10977,   10976,   10581,   10580,   10972,   10971
     228,   10585,   10577,   10702,   10977,   10580,   10576,   10703,   10972
     229,   10587,   10974,   10973,   10588,   10582,   10969,   10968,   10583
     230,   10586,   10976,   10974,   10587,   10581,   10971,   10969,   10582
     231,   10589,   10588,   10973,   10975,   10584,   10583,   10968,   10970
     232,   10644,   10579,   10589,   10975,   10645,   10578,   10584,   10970
     233,   10673,   10644,   10975,   10973,   10674,   10645,   10970,   10968
     234,   10702,   10673,   10973,   10974,   10703,   10674,   10968,   10969
     235,   10981,   10982,   10701,   10979,   10976,   10977,   10702,   10974
     236,   10554,   10553,   10982,   10981,   10586,   10585,   10977,   10976
     237,   10553,   10552,   10701,   10982,   10585,   10577,   10702,   10977
     238,   10555,   10979,   10978,   10556,   10587,   10974,   10973,   10588
     239,   10554,   10981,   10979,   10555,   10586,   10976,   10974,   10587
     240,   10557,   10556,   10978,   10980,   10589,   10588,   10973,   10975
     241,   10643,   10548,   10557,   10980,   10644,   10579,   10589,   10975
     242,   10672,   10643,   10980,   10978,   10673,   10644,   10975,   10973
     243,   10701,   10672,   10978,   10979,   10702,   10673,   10973,   10974
     244,   10986,   10987,   10700,   10984,   10981,   10982,   10701,   10979
     245,   10573,   10575,   10987,   10986,   10554,   10553,   10982,   10981
     246,   10575,   10560,   10700,   10987,   10553,   10552,   10701,   10982
     247,   10571,   10984,   10983,   10569,   10555,   10979,   10978,   10556
     248,   10573,   10986,   10984,   10571,   10554,   10981,   10979,   10555
     249,   10567,   10569,   10983,   10985,   10557,   10556,   10978,   10980
     250,   10642,   10550,   10567,   10985,   10643,   10548,   10557,   10980
     251,   10671,   10642,   10985,   10983,   10672,   10643,   10980,   10978
     252,   10700,   10671,   10983,   10984,   10701,   10672,   10978,   10979
     253,   10991,   10992,   10699,   10989,   10986,   10987,   10700,   10984
     254,   10572,   10574,   10992,   10991,   10573,   10575,   10987,   10986
     255,   10574,   10559,   10699,   10992,   10575,   10560,   10700,   10987
     256,   10570,   10989,   10988,   10568,   10571,   10984,   10983,   10569
     257,   10572,   10991,   10989,   10570,   10573,   10986,   10984,   10571
     258,   10566,   10568,   10988,   10990,   10567,   10569,   10983,   10985
     259,   10641,   10551,   10566,   10990,   10642,   10550,   10567,   10985
     260,   10670,   10641,   10990,   10988,   10671,   10642,   10985,   10983
     261,   10699,   10670,   10988,   10989,   10700,   10671,   10983,   10984
     262,   10996,   10997,   10638,   10994,   10991,   10992,   10699,   10989
     263,   10562,   10561,   10997,   10996,   10572,   10574,   10992,   10991
     264,   10561,   10558,   10638,   10997,   10574,   10559,   10699,   10992
     265,   10563,   10994,   10993,   10564,   10570,   10989,   10988,   10568
     266,   10562,   10996,   10994,   10563,   10572,   10991,   10989,   10570
     267,   10565,   10564,   10993,   10995,   10566,   10568,   10988,   10990
     268,   10640,   10549,   10565,   10995,   10641,   10551,   10566,   10990
     269,   10639,   10640,   10995,   10993,   10670,   10641,   10990,   10988
     270,   10638,   10639,   10993,   10994,   10699,   10670,   10988,   10989
     271,   12122,   12101,   12103,   12121,   11211,   11190,   11191,   11210
     272,   12121,   12117,   12118,   12122,   11210,   11203,   11204,   11211
     273,   12114,   12100,   12101,   12122,   11200,   11189,   11190,   11211
     274,   12113,   12114,   12122,   12118,   11199,   11200,   11211,   11204
     275,   12098,   12099,   12117,   12121,   11187,   11188,   11203,   11210
     276,   12097,   12098,   12121,   12103,   11186,   11187,   11210,   11191
     277,   12096,   12097,   12103,   12102,   11185,   11186,   11191,   11192
     278,   12095,   12096,   12102,   12104,   11184,   11185,   11192,   11193
     279,   12094,   12095,   12104,   12105,   11183,   11184,   11193,   11194
     280,   12093,   12094,   12105,   12106,   11182,   11183,   11194,   11195
     281,   12092,   12093,   12106,   12107,   11181,   11182,   11195,   11196
     282,   12110,   12111,   12120,   12119,   11206,   11197,   11209,   11205
     283,   12116,   12119,   12120,   12115,   11202,   11205,   11209,   11201
     284,   12112,   12115,   12120,   12111,   11198,   11201,   11209,   11197
     285,   12091,   12092,   12107,   12108,   11180,   11181,   11196,   11208
     286,   12090,   12091,   12108,   12109,   11179,   11180,   11208,   11207
     287,   12089,   12090,   12109,   12110,   11178,   11179,   11207,   11206
     288,   12088,   12089,   12110,   12119,   11177,   11178,   11206,   11205
     289,   12087,   12088,   12119,   12116,   11176,   11177,   11205,   11202
     290,   12081,   12082,   12113,   12118,   11170,   11171,   11199,   11204
     291,   12080,   12081,   12118,   12117,   11169,   11170,   11204,   11203
     292,   12079,   12080,   12117,   12099,   11168,   11169,   11203,   11188
     293,   12085,   12086,   12087,   12116,   11174,   11175,   11176,   11202
     294,   12084,   12085,   12116,   12115,   11173,   11174,   11202,   11201
     295,   12083,   12084,   12115,   12112,   11172,   11173,   11201,   11198
     296,   12064,   12065,   12100,   12114,   11153,   11154,   11189,   11200
     297,   12063,   12064,   12114,   12113,   11152,   11153,   11200,   11199
     298,   12062,   12063,   12113,   12082,   11151,   11152,   11199,   11171
     299,   12077,   12078,   12083,   12112,   11166,   11167,   11172,   11198
     300,   12076,   12077,   12112,   12111,   11165,   11166,   11198,   11197
     301,   12075,   12076,   12111,   12110,   11164,   11165,   11197,   11206
     302,   12074,   12075,   12110,   12109,   11163,   11164,   11206,   11207
     303,   12073,   12074,   12109,   12108,   11162,   11163,   11207,   11208
     304,   12072,   12073,   12108,   12107,   11161,   11162,   11208,   11196
     305,   12071,   12072,   12107,   12106,   11160,   11161,   11196,   11195
     306,   12070,   12071,   12106,   12105,   11159,   11160,   11195,   11194
     307,   12068,   12070,   12105,   12104,   11158,   11159,   11194,   11193
     308,   12069,   12068,   12104,   12102,   11157,   11158,   11193,   11192
     309,   12069,   12102,   12103,   12101,   11157,   11192,   11191,   11190
     310,   12067,   12069,   12101,   12100,   11156,   11157,   11190,   11189
     311,   12066,   12067,   12100,   12065,   11155,   11156,   11189,   11154
     312,   12060,   12061,   12079,   12099,   11149,   11150,   11168,   11188
     313,   12059,   12060,   12099,   12098,   11148,   11149,   11188,   11187
     314,   12058,   12059,   12098,   12097,   11147,   11148,   11187,   11186
     315,   12057,   12058,   12097,   12096,   11146,   11147,   11186,   11185
     316,   12056,   12057,   12096,   12095,   11145,   11146,   11185,   11184
     317,   12055,   12056,   12095,   12094,   11144,   11145,   11184,   11183
     318,   12054,   12055,   12094,   12093,   11143,   11144,   11183,   11182
     319,   12053,   12054,   12093,   12092,   11142,   11143,   11182,   11181
     320,   12052,   12053,   12092,   12091,   11141,   11142,   11181,   11180
     321,   12051,   12052,   12091,   12090,   11140,   11141,   11180,   11179
     322,   12050,   12051,   12090,   12089,   11139,   11140,   11179,   11178
     323,   12049,   12050,   12089,   12088,   11138,   11139,   11178,   11177
     324,   12048,   12049,   12088,   12087,   11137,   11138,   11177,   11176
     325,   12047,   12048,   12087,   12086,   11136,   11137,   11176,   11175
     326,   12045,   12046,   12047,   12086,   11134,   11135,   11136,   11175
     327,   12044,   12045,   12086,   12085,   11133,   11134,   11175,   11174
     328,   12043,   12044,   12085,   12084,   11132,   11133,   11174,   11173
     329,   12042,   12043,   12084,   12083,   11131,   11132,   11173,   11172
     330,   12041,   12042,   12083,   12078,   11130,   11131,   11172,   11167
     331,   12039,   12040,   12062,   12082,   11128,   11129,   11151,   11171
     332,   12038,   12039,   12082,   12081,   11127,   11128,   11171,   11170
     333,   12037,   12038,   12081,   12080,   11126,   11127,   11170,   11169
     334,   12036,   12037,   12080,   12079,   11125,   11126,   11169,   11168
     335,   12035,   12036,   12079,   12061,   11124,   11125,   11168,   11150
     336,   12033,   12034,   12041,   12078,   11122,   11123,   11130,   11167
     337,   12032,   12033,   12078,   12077,   11121,   11122,   11167,   11166
     338,   12031,   12032,   12077,   12076,   11120,   11121,   11166,   11165
     339,   12030,   12031,   12076,   12075,   11119,   11120,   11165,   11164
     340,   12029,   12030,   12075,   12074,   11118,   11119,   11164,   11163
     341,   12028,   12029,   12074,   12073,   11117,   11118,   11163,   11162
     342,   12027,   12028,   12073,   12072,   11116,   11117,   11162,   11161
     343,   12026,   12027,   12072,   12071,   11115,   11116,   11161,   11160
     344,   12024,   12026,   12071,   12070,   11114,   11115,   11160,   11159
     345,   12025,   12024,   12070,   12068,   11113,   11114,   11159,   11158
     346,   12025,   12068,   12069,   12067,   11113,   11158,   11157,   11156
     347,   12023,   12025,   12067,   12066,   11112,   11113,   11156,   11155
     348,   12021,   12022,   12023,   12066,   11110,   11111,   11112,   11155
     349,   12020,   12021,   12066,   12065,   11109,   11110,   11155,   11154
     350,   12019,   12020,   12065,   12064,   11108,   11109,   11154,   11153
     351,   12018,   12019,   12064,   12063,   11107,   11108,   11153,   11152
     352,   12017,   12018,   12063,   12062,   11106,   11107,   11152,   11151
     353,   12016,   12017,   12062,   12040,   11105,   11106,   11151,   11129
     354,   11987,   11988,   12035,   12061,   11076,   11077,   11124,   11150
     355,   11986,   11987,   12061,   12060,   11075,   11076,   11150,   11149
     356,   11985,   11986,   12060,   12059,   11074,   11075,   11149,   11148
     357,   11984,   11985,   12059,   12058,   11073,   11074,   11148,   11147
     358,   11983,   11984,   12058,   12057,   11072,   11073,   11147,   11146
     359,   11982,   11983,   12057,   12056,   11071,   11072,   11146,   11145
     360,   11981,   11982,   12056,   12055,   11070,   11071,   11145,   11144
     361,   11980,   11981,   12055,   12054,   11069,   11070,   11144,   11143
     362,   11979,   11980,   12054,   12053,   11068,   11069,   11143,   11142
     363,   11978,   11979,   12053,   12052,   11067,   11068,   11142,   11141
     364,   11977,   11978,   12052,   12051,   11066,   11067,   11141,   11140
     365,   11976,   11977,   12051,   12050,   11065,   11066,   11140,   11139
     366,   11975,   11976,   12050,   12049,   11064,   11065,   11139,   11138
     367,   11974,   11975,   12049,   12048,   11063,   11064,   11138,   11137
     368,   11973,   11974,   12048,   12047,   11062,   11063,   11137,   11136
     369,   11972,   11973,   12047,   12046,   11061,   11062,   11136,   11135
     370,   12003,   11971,   11972,   12046,   11092,   11060,   11061,   11135
     371,   12002,   12003,   12046,   12045,   11091,   11092,   11135,   11134
     372,   12001,   12002,   12045,   12044,   11090,   11091,   11134,   11133
     373,   12000,   12001,   12044,   12043,   11089,   11090,   11133,   11132
     374,   11999,   12000,   12043,   12042,   11088,   11089,   11132,   11131
     375,   11998,   11999,   12042,   12041,   11087,   11088,   11131,   11130
     376,   11997,   11998,   12041,   12034,   11086,   11087,   11130,   11123
     377,   12009,   12010,   12016,   12040,   11098,   11099,   11105,   11129
     378,   12008,   12009,   12040,   12039,   11097,   11098,   11129,   11128
     379,   12007,   12008,   12039,   12038,   11096,   11097,   11128,   11127
     380,   12006,   12007,   12038,   12037,   11095,   11096,   11127,   11126
     381,   12005,   12006,   12037,   12036,   11094,   11095,   11126,   11125
     382,   12004,   12005,   12036,   12035,   11093,   11094,   11125,   11124
     383,   11989,   12004,   12035,   11988,   11078,   11093,   11124,   11077
     384,   11969,   11970,   11997,   12034,   11058,   11059,   11086,   11123
     385,   11968,   11969,   12034,   12033,   11057,   11058,   11123,   11122
     386,   11967,   11968,   12033,   12032,   11056,   11057,   11122,   11121
     387,   11966,   11967,   12032,   12031,   11055,   11056,   11121,   11120
     388,   11965,   11966,   12031,   12030,   11054,   11055,   11120,   11119
     389,   11964,   11965,   12030,   12029,   11053,   11054,   11119,   11118
     390,   12015,   11964,   12029,   12028,   11104,   11053,   11118,   11117
     391,   12014,   12015,   12028,   12027,   11103,   11104,   11117,   11116
     392,   12012,   12014,   12027,   12026,   11102,   11103,   11116,   11115
     393,   12013,   12012,   12026,   12024,   11101,   11102,   11115,   11114
     394,   12013,   12024,   12025,   12023,   11101,   11114,   11113,   11112
     395,   12011,   12013,   12023,   12022,   11100,   11101,   11112,   11111
     396,   11996,   12011,   12022,   12021,   11085,   11100,   11111,   11110
     397,   11995,   11996,   12021,   12020,   11084,   11085,   11110,   11109
     398,   11994,   11995,   12020,   12019,   11083,   11084,   11109,   11108
     399,   11993,   11994,   12019,   12018,   11082,   11083,   11108,   11107
     400,   11992,   11993,   12018,   12017,   11081,   11082,   11107,   11106
     401,   11991,   11992,   12017,   12016,   11080,   11081,   11106,   11105
     402,   11990,   11991,   12016,   12010,   11079,   11080,   11105,   11099
     403,   10586,   10585,   11964,   12015,   10554,   10553,   11053,   11104
     404,   10587,   10586,   12015,   12014,   10555,   10554,   11104,   11103
     405,   10588,   10587,   12014,   12012,   10556,   10555,   11103,   11102
     406,   10588,   12012,   12013,   12011,   10556,   11102,   11101,   11100
     407,   10589,   10588,   12011,   11996,   10557,   10556,   11100,   11085
     408,   11898,   11897,   11990,   12010,   11038,   11037,   11079,   11099
     409,   11899,   11898,   12010,   12009,   11039,   11038,   11099,   11098
     410,   11900,   11899,   12009,   12008,   11040,   11039,   11098,   11097
     411,   11901,   11900,   12008,   12007,   11041,   11040,   11097,   11096
     412,   11902,   11901,   12007,   12006,   11042,   11041,   11096,   11095
     413,   11903,   11902,   12006,   12005,   11043,   11042,   11095,   11094
     414,   11904,   11903,   12005,   12004,   11044,   11043,   11094,   11093
     415,   11905,   11904,   12004,   11989,   11045,   11044,   11093,   11078
     416,   11962,   11963,   11971,   12003,   11008,   11007,   11060,   11092
     417,   11961,   11962,   12003,   12002,   11009,   11008,   11092,   11091
     418,   11960,   11961,   12002,   12001,   11010,   11009,   11091,   11090
     419,   11959,   11960,   12001,   12000,   11011,   11010,   11090,   11089
     420,   11958,   11959,   12000,   11999,   11012,   11011,   11089,   11088
     421,   11957,   11958,   11999,   11998,   11013,   11012,   11088,   11087
     422,   11956,   11957,   11998,   11997,   11014,   11013,   11087,   11086
     423,   11955,   11956,   11997,   11970,   11015,   11014,   11086,   11059
     424,   11863,   10579,   10589,   11996,   11046,   10548,   10557,   11085
     425,   11864,   11863,   11996,   11995,   11047,   11046,   11085,   11084
     426,   11865,   11864,   11995,   11994,   11048,   11047,   11084,   11083
     427,   11866,   11865,   11994,   11993,   11049,   11048,   11083,   11082
     428,   11867,   11866,   11993,   11992,   11050,   11049,   11082,   11081
     429,   11868,   11867,   11992,   11991,   11051,   11050,   11081,   11080
     430,   11869,   11868,   11991,   11990,   11052,   11051,   11080,   11079
     431,   11855,   11869,   11990,   11897,   11036,   11052,   11079,   11037
     432,   11927,   11887,   11905,   11989,   11017,   11016,   11045,   11078
     433,   11928,   11927,   11989,   11988,   11018,   11017,   11078,   11077
     434,   11929,   11928,   11988,   11987,   11019,   11018,   11077,   11076
     435,   11930,   11929,   11987,   11986,   11020,   11019,   11076,   11075
     436,   11931,   11930,   11986,   11985,   11021,   11020,   11075,   11074
     437,   11932,   11931,   11985,   11984,   11022,   11021,   11074,   11073
     438,   11933,   11932,   11984,   11983,   11023,   11022,   11073,   11072
     439,   11934,   11933,   11983,   11982,   11024,   11023,   11072,   11071
     440,   11935,   11934,   11982,   11981,   11025,   11024,   11071,   11070
     441,   11936,   11935,   11981,   11980,   11026,   11025,   11070,   11069
     442,   11937,   11936,   11980,   11979,   11027,   11026,   11069,   11068
     443,   11938,   11937,   11979,   11978,   11028,   11027,   11068,   11067
     444,   11939,   11938,   11978,   11977,   11029,   11028,   11067,   11066
     445,   11940,   11939,   11977,   11976,   11030,   11029,   11066,   11065
     446,   11941,   11940,   11976,   11975,   11031,   11030,   11065,   11064
     447,   11942,   11941,   11975,   11974,   11032,   11031,   11064,   11063
     448,   11943,   11942,   11974,   11973,   11033,   11032,   11063,   11062
     449,   11944,   11943,   11973,   11972,   11034,   11033,   11062,   11061
     450,   11945,   11944,   11972,   11971,   11035,   11034,   11061,   11060
     451,   11907,   11945,   11971,   11963,   11006,   11035,   11060,   11007
     452,   11879,   11878,   11955,   11970,   10999,   10998,   11015,   11059
     453,   11880,   11879,   11970,   11969,   11000,   10999,   11059,   11058
     454,   11881,   11880,   11969,   11968,   11001,   11000,   11058,   11057
     455,   11882,   11881,   11968,   11967,   11002,   11001,   11057,   11056
     456,   11883,   11882,   11967,   11966,   11003,   11002,   11056,   11055
     457,   11884,   11883,   11966,   11965,   11004,   11003,   11055,   11054
     458,   11885,   11884,   11965,   11964,   11005,   11004,   11054,   11053
     459,   10577,   11885,   11964,   10585,   10552,   11005,   11053,   10553
     460,   12281,   12260,   12262,   12280,   12122,   12101,   12103,   12121
     461,   12280,   12276,   12277,   12281,   12121,   12117,   12118,   12122
     462,   12273,   12259,   12260,   12281,   12114,   12100,   12101,   12122
     463,   12272,   12273,   12281,   12277,   12113,   12114,   12122,   12118
     464,   12257,   12258,   12276,   12280,   12098,   12099,   12117,   12121
     465,   12256,   12257,   12280,   12262,   12097,   12098,   12121,   12103
     466,   12255,   12256,   12262,   12261,   12096,   12097,   12103,   12102
     467,   12254,   12255,   12261,   12263,   12095,   12096,   12102,   12104
     468,   12253,   12254,   12263,   12264,   12094,   12095,   12104,   12105
     469,   12252,   12253,   12264,   12265,   12093,   12094,   12105,   12106
     470,   12251,   12252,   12265,   12266,   12092,   12093,   12106,   12107
     471,   12269,   12270,   12279,   12278,   12110,   12111,   12120,   12119
     472,   12275,   12278,   12279,   12274,   12116,   12119,   12120,   12115
     473,   12271,   12274,   12279,   12270,   12112,   12115,   12120,   12111
     474,   12250,   12251,   12266,   12267,   12091,   12092,   12107,   12108
     475,   12249,   12250,   12267,   12268,   12090,   12091,   12108,   12109
     476,   12248,   12249,   12268,   12269,   12089,   12090,   12109,   12110
     477,   12247,   12248,   12269,   12278,   12088,   12089,   12110,   12119
     478,   12246,   12247,   12278,   12275,   12087,   12088,   12119,   12116
     479,   12240,   12241,   12272,   12277,   12081,   12082,   12113,   12118
     480,   12239,   12240,   12277,   12276,   12080,   12081,   12118,   12117
     481,   12238,   12239,   12276,   12258,   12079,   12080,   12117,   12099
     482,   12244,   12245,   12246,   12275,   12085,   12086,   12087,   12116
     483,   12243,   12244,   12275,   12274,   12084,   12085,   12116,   12115
     484,   12242,   12243,   12274,   12271,   12083,   12084,   12115,   12112
     485,   12223,   12224,   12259,   12273,   12064,   12065,   12100,   12114
     486,   12222,   12223,   12273,   12272,   12063,   12064,   12114,   12113
     487,   12221,   12222,   12272,   12241,   12062,   12063,   12113,   12082
     488,   12236,   12237,   12242,   12271,   12077,   12078,   12083,   12112
     489,   12235,   12236,   12271,   12270,   12076,   12077,   12112,   12111
     490,   12234,   12235,   12270,   12269,   12075,   12076,   12111,   12110
     491,   12233,   12234,   12269,   12268,   12074,   12075,   12110,   12109
     492,   12232,   12233,   12268,   12267,   12073,   12074,   12109,   12108
     493,   12231,   12232,   12267,   12266,   12072,   12073,   12108,   12107
     494,   12230,   12231,   12266,   12265,   12071,   12072,   12107,   12106
     495,   12229,   12230,   12265,   12264,   12070,   12071,   12106,   12105
     496,   12227,   12229,   12264,   12263,   12068,   12070,   12105,   12104
     497,   12228,   12227,   12263,   12261,   12069,   12068,   12104,   12102
     498,   12228,   12261,   12262,   12260,   12069,   12102,   12103,   12101
     499,   12226,   12228,   12260,   12259,   12067,   12069,   12101,   12100
     500,   12225,   12226,   12259,   12224,   12066,   12067,   12100,   12065
     501,   12219,   12220,   12238,   12258,   12060,   12061,   12079,   12099
     502,   12218,   12219,   12258,   12257,   12059,   12060,   12099,   12098
     503,   12217,   12218,   12257,   12256,   12058,   12059,   12098,   12097
     504,   12216,   12217,   12256,   12255,   12057,   12058,   12097,   12096
     505,   12215,   12216,   12255,   12254,   12056,   12057,   12096,   12095
     506,   12214,   12215,   12254,   12253,   12055,   12056,   12095,   12094
     507,   12213,   12214,   12253,   12252,   12054,   12055,   12094,   12093
     508,   12212,   12213,   12252,   12251,   12053,   12054,   12093,   12092
     509,   12211,   12212,   12251,   12250,   12052,   12053,   12092,   12091
     510,   12210,   12211,   12250,   12249,   12051,   12052,   12091,   12090
     511,   12209,   12210,   12249,   12248,   12050,   12051,   12090,   12089
     512,   12208,   12209,   12248,   12247,   12049,   12050,   12089,   12088
     513,   12207,   12208,   12247,   12246,   12048,   12049,   12088,   12087
     514,   12206,   12207,   12246,   12245,   12047,   12048,   12087,   12086
     515,   12204,   12205,   12206,   12245,   12045,   12046,   12047,   12086
     516,   12203,   12204,   12245,   12244,   12044,   12045,   12086,   12085
     517,   12202,   12203,   12244,   12243,   12043,   12044,   12085,   12084
     518,   12201,   12202,   12243,   12242,   12042,   12043,   12084,   12083
     519,   12200,   12201,   12242,   12237,   12041,   12042,   12083,   12078
     520,   12198,   12199,   12221,   12241,   12039,   12040,   12062,   12082
     521,   12197,   12198,   12241,   12240,   12038,   12039,   12082,   12081
     522,   12196,   12197,   12240,   12239,   12037,   12038,   12081,   12080
     523,   12195,   12196,   12239,   12238,   12036,   12037,   12080,   12079
     524,   12194,   12195,   12238,   12220,   12035,   12036,   12079,   12061
     525,   12192,   12193,   12200,   12237,   12033,   12034,   12041,   12078
     526,   12191,   12192,   12237,   12236,   12032,   12033,   12078,   12077
     527,   12190,   12191,   12236,   12235,   12031,   12032,   12077,   12076
     528,   12189,   12190,   12235,   12234,   12030,   12031,   12076,   12075
     529,   12188,   12189,   12234,   12233,   12029,   12030,   12075,   12074
     530,   12187,   12188,   12233,   12232,   12028,   12029,   12074,   12073
     531,   12186,   12187,   12232,   12231,   12027,   12028,   12073,   12072
     532,   12185,   12186,   12231,   12230,   12026,   12027,   12072,   12071
     533,   12183,   12185,   12230,   12229,   12024,   12026,   12071,   12070
     534,   12184,   12183,   12229,   12227,   12025,   12024,   12070,   12068
     535,   12184,   12227,   12228,   12226,   12025,   12068,   12069,   12067
     536,   12182,   12184,   12226,   12225,   12023,   12025,   12067,   12066
     537,   12180,   12181,   12182,   12225,   12021,   12022,   12023,   12066
     538,   12179,   12180,   12225,   12224,   12020,   12021,   12066,   12065
     539,   12178,   12179,   12224,   12223,   12019,   12020,   12065,   12064
     540,   12177,   12178,   12223,   12222,   12018,   12019,   12064,   12063
     541,   12176,   12177,   12222,   12221,   12017,   12018,   12063,   12062
     542,   12175,   12176,   12221,   12199,   12016,   12017,   12062,   12040
     543,   12146,   12147,   12194,   12220,   11987,   11988,   12035,   12061
     544,   12145,   12146,   12220,   12219,   11986,   11987,   12061,   12060
     545,   12144,   12145,   12219,   12218,   11985,   11986,   12060,   12059
     546,   12143,   12144,   12218,   12217,   11984,   11985,   12059,   12058
     547,   12142,   12143,   12217,   12216,   11983,   11984,   12058,   12057
     548,   12141,   12142,   12216,   12215,   11982,   11983,   12057,   12056
     549,   12140,   12141,   12215,   12214,   11981,   11982,   12056,   12055
     550,   12139,   12140,   12214,   12213,   11980,   11981,   12055,   12054
     551,   12138,   12139,   12213,   12212,   11979,   11980,   12054,   12053
     552,   12137,   12138,   12212,   12211,   11978,   11979,   12053,   12052
     553,   12136,   12137,   12211,   12210,   11977,   11978,   12052,   12051
     554,   12135,   12136,   12210,   12209,   11976,   11977,   12051,   12050
     555,   12134,   12135,   12209,   12208,   11975,   11976,   12050,   12049
     556,   12133,   12134,   12208,   12207,   11974,   11975,   12049,   12048
     557,   12132,   12133,   12207,   12206,   11973,   11974,   12048,   12047
     558,   12131,   12132,   12206,   12205,   11972,   11973,   12047,   12046
     559,   12162,   12130,   12131,   12205,   12003,   11971,   11972,   12046
     560,   12161,   12162,   12205,   12204,   12002,   12003,   12046,   12045
     561,   12160,   12161,   12204,   12203,   12001,   12002,   12045,   12044
     562,   12159,   12160,   12203,   12202,   12000,   12001,   12044,   12043
     563,   12158,   12159,   12202,   12201,   11999,   12000,   12043,   12042
     564,   12157,   12158,   12201,   12200,   11998,   11999,   12042,   12041
     565,   12156,   12157,   12200,   12193,   11997,   11998,   12041,   12034
     566,   12168,   12169,   12175,   12199,   12009,   12010,   12016,   12040
     567,   12167,   12168,   12199,   12198,   12008,   12009,   12040,   12039
     568,   12166,   12167,   12198,   12197,   12007,   12008,   12039,   12038
     569,   12165,   12166,   12197,   12196,   12006,   12007,   12038,   12037
     570,   12164,   12165,   12196,   12195,   12005,   12006,   12037,   12036
     571,   12163,   12164,   12195,   12194,   12004,   12005,   12036,   12035
     572,   12148,   12163,   12194,   12147,   11989,   12004,   12035,   11988
     573,   12128,   12129,   12156,   12193,   11969,   11970,   11997,   12034
     574,   12127,   12128,   12193,   12192,   11968,   11969,   12034,   12033
     575,   12126,   12127,   12192,   12191,   11967,   11968,   12033,   12032
     576,   12125,   12126,   12191,   12190,   11966,   11967,   12032,   12031
     577,   12124,   12125,   12190,   12189,   11965,   11966,   12031,   12030
     578,   12123,   12124,   12189,   12188,   11964,   11965,   12030,   12029
     579,   12174,   12123,   12188,   12187,   12015,   11964,   12029,   12028
     580,   12173,   12174,   12187,   12186,   12014,   12015,   12028,   12027
     581,   12171,   12173,   12186,   12185,   12012,   12014,   12027,   12026
     582,   12172,   12171,   12185,   12183,   12013,   12012,   12026,   12024
     583,   12172,   12183,   12184,   12182,   12013,   12024,   12025,   12023
     584,   12170,   12172,   12182,   12181,   12011,   12013,   12023,   12022
     585,   12155,   12170,   12181,   12180,   11996,   12011,   12022,   12021
     586,   12154,   12155,   12180,   12179,   11995,   11996,   12021,   12020
     587,   12153,   12154,   12179,   12178,   11994,   11995,   12020,   12019
     588,   12152,   12153,   12178,   12177,   11993,   11994,   12019,   12018
     589,   12151,   12152,   12177,   12176,   11992,   11993,   12018,   12017
     590,   12150,   12151,   12176,   12175,   11991,   11992,   12017,   12016
     591,   12149,   12150,   12175,   12169,   11990,   11991,   12016,   12010
     592,   10581,   10580,   12123,   12174,   10586,   10585,   11964,   12015
     593,   10582,   10581,   12174,   12173,   10587,   10586,   12015,   12014
     594,   10583,   10582,   12173,   12171,   10588,   10587,   12014,   12012
     595,   10583,   12171,   12172,   12170,   10588,   12012,   12013,   12011
     596,   10584,   10583,   12170,   12155,   10589,   10588,   12011,   11996
     597,   11889,   11888,   12149,   12169,   11898,   11897,   11990,   12010
     598,   11890,   11889,   12169,   12168,   11899,   11898,   12010,   12009
     599,   11891,   11890,   12168,   12167,   11900,   11899,   12009,   12008
     600,   11892,   11891,   12167,   12166,   11901,   11900,   12008,   12007
     601,   11893,   11892,   12166,   12165,   11902,   11901,   12007,   12006
     602,   11894,   11893,   12165,   12164,   11903,   11902,   12006,   12005
     603,   11895,   11894,   12164,   12163,   11904,   11903,   12005,   12004
     604,   11896,   11895,   12163,   12148,   11905,   11904,   12004,   11989
     605,   11953,   11954,   12130,   12162,   11962,   11963,   11971,   12003
     606,   11952,   11953,   12162,   12161,   11961,   11962,   12003,   12002
     607,   11951,   11952,   12161,   12160,   11960,   11961,   12002,   12001
     608,   11950,   11951,   12160,   12159,   11959,   11960,   12001,   12000
     609,   11949,   11950,   12159,   12158,   11958,   11959,   12000,   11999
     610,   11948,   11949,   12158,   12157,   11957,   11958,   11999,   11998
     611,   11947,   11948,   12157,   12156,   11956,   11957,   11998,   11997
     612,   11946,   11947,   12156,   12129,   11955,   11956,   11997,   11970
     613,   11862,   10578,   10584,   12155,   11863,   10579,   10589,   11996
     614,   11861,   11862,   12155,   12154,   11864,   11863,   11996,   11995
     615,   11860,   11861,   12154,   12153,   11865,   11864,   11995,   11994
     616,   11859,   11860,   12153,   12152,   11866,   11865,   11994,   11993
     617,   11858,   11859,   12152,   12151,   11867,   11866,   11993,   11992
     618,   11857,   11858,   12151,   12150,   11868,   11867,   11992,   11991
     619,   11856,   11857,   12150,   12149,   11869,   11868,   11991,   11990
     620,   11854,   11856,   12149,   11888,   11855,   11869,   11990,   11897
     621,   11926,   11886,   11896,   12148,   11927,   11887,   11905,   11989
     622,   11925,   11926,   12148,   12147,   11928,   11927,   11989,   11988
     623,   11924,   11925,   12147,   12146,   11929,   11928,   11988,   11987
     624,   11923,   11924,   12146,   12145,   11930,   11929,   11987,   11986
     625,   11922,   11923,   12145,   12144,   11931,   11930,   11986,   11985
     626,   11921,   11922,   12144,   12143,   11932,   11931,   11985,   11984
     627,   11920,   11921,   12143,   12142,   11933,   11932,   11984,   11983
     628,   11919,   11920,   12142,   12141,   11934,   11933,   11983,   11982
     629,   11918,   11919,   12141,   12140,   11935,   11934,   11982,   11981
     630,   11917,   11918,   12140,   12139,   11936,   11935,   11981,   11980
     631,   11916,   11917,   12139,   12138,   11937,   11936,   11980,   11979
     632,   11915,   11916,   12138,   12137,   11938,   11937,   11979,   11978
     633,   11914,   11915,   12137,   12136,   11939,   11938,   11978,   11977
     634,   11913,   11914,   12136,   12135,   11940,   11939,   11977,   11976
     635,   11912,   11913,   12135,   12134,   11941,   11940,   11976,   11975
     636,   11911,   11912,   12134,   12133,   11942,   11941,   11975,   11974
     637,   11910,   11911,   12133,   12132,   11943,   11942,   11974,   11973
     638,   11909,   11910,   12132,   12131,   11944,   11943,   11973,   11972
     639,   11908,   11909,   12131,   12130,   11945,   11944,   11972,   11971
     640,   11906,   11908,   12130,   11954,   11907,   11945,   11971,   11963
     641,   11877,   11870,   11946,   12129,   11879,   11878,   11955,   11970
     642,   11876,   11877,   12129,   12128,   11880,   11879,   11970,   11969
     643,   11875,   11876,   12128,   12127,   11881,   11880,   11969,   11968
     644,   11874,   11875,   12127,   12126,   11882,   11881,   11968,   11967
     645,   11873,   11874,   12126,   12125,   11883,   11882,   11967,   11966
     646,   11872,   11873,   12125,   12124,   11884,   11883,   11966,   11965
     647,   11871,   11872,   12124,   12123,   11885,   11884,   11965,   11964
     648,   10576,   11871,   12123,   10580,   10577,   11885,   11964,   10585
     649,   11211,   11190,   11191,   11210,   11535,   11514,   11515,   11534
     650,   11210,   11203,   11204,   11211,   11534,   11530,   11531,   11535
     651,   11200,   11189,   11190,   11211,   11527,   11513,   11514,   11535
     652,   11199,   11200,   11211,   11204,   11526,   11527,   11535,   11531
     653,   11187,   11188,   11203,   11210,   11511,   11512,   11530,   11534
     654,   11186,   11187,   11210,   11191,   11510,   11511,   11534,   11515
     655,   11185,   11186,   11191,   11192,   11509,   11510,   11515,   11516
     656,   11184,   11185,   11192,   11193,   11508,   11509,   11516,   11517
     657,   11183,   11184,   11193,   11194,   11507,   11508,   11517,   11518
     658,   11182,   11183,   11194,   11195,   11506,   11507,   11518,   11519
     659,   11181,   11182,   11195,   11196,   11505,   11506,   11519,   11520
     660,   11206,   11197,   11209,   11205,   11523,   11524,   11533,   11532
     661,   11202,   11205,   11209,   11201,   11529,   11532,   11533,   11528
     662,   11198,   11201,   11209,   11197,   11525,   11528,   11533,   11524
     663,   11180,   11181,   11196,   11208,   11504,   11505,   11520,   11521
     664,   11179,   11180,   11208,   11207,   11503,   11504,   11521,   11522
     665,   11178,   11179,   11207,   11206,   11502,   11503,   11522,   11523
     666,   11177,   11178,   11206,   11205,   11501,   11502,   11523,   11532
     667,   11176,   11177,   11205,   11202,   11500,   11501,   11532,   11529
     668,   11170,   11171,   11199,   11204,   11494,   11495,   11526,   11531
     669,   11169,   11170,   11204,   11203,   11493,   11494,   11531,   11530
     670,   11168,   11169,   11203,   11188,   11492,   11493,   11530,   11512
     671,   11174,   11175,   11176,   11202,   11498,   11499,   11500,   11529
     672,   11173,   11174,   11202,   11201,   11497,   11498,   11529,   11528
     673,   11172,   11173,   11201,   11198,   11496,   11497,   11528,   11525
     674,   11153,   11154,   11189,   11200,   11477,   11478,   11513,   11527
     675,   11152,   11153,   11200,   11199,   11476,   11477,   11527,   11526
     676,   11151,   11152,   11199,   11171,   11475,   11476,   11526,   11495
     677,   11166,   11167,   11172,   11198,   11490,   11491,   11496,   11525
     678,   11165,   11166,   11198,   11197,   11489,   11490,   11525,   11524
     679,   11164,   11165,   11197,   11206,   11488,   11489,   11524,   11523
     680,   11163,   11164,   11206,   11207,   11487,   11488,   11523,   11522
     681,   11162,   11163,   11207,   11208,   11486,   11487,   11522,   11521
     682,   11161,   11162,   11208,   11196,   11485,   11486,   11521,   11520
     683,   11160,   11161,   11196,   11195,   11484,   11485,   11520,   11519
     684,   11159,   11160,   11195,   11194,   11483,   11484,   11519,   11518
     685,   11158,   11159,   11194,   11193,   11482,   11483,   11518,   11517
     686,   11157,   11158,   11193,   11192,   11481,   11482,   11517,   11516
     687,   11157,   11192,   11191,   11190,   11481,   11516,   11515,   11514
     688,   11156,   11157,   11190,   11189,   11480,   11481,   11514,   11513
     689,   11155,   11156,   11189,   11154,   11479,   11480,   11513,   11478
     690,   11149,   11150,   11168,   11188,   11473,   11474,   11492,   11512
     691,   11148,   11149,   11188,   11187,   11472,   11473,   11512,   11511
     692,   11147,   11148,   11187,   11186,   11471,   11472,   11511,   11510
     693,   11146,   11147,   11186,   11185,   11470,   11471,   11510,   11509
     694,   11145,   11146,   11185,   11184,   11469,   11470,   11509,   11508
     695,   11144,   11145,   11184,   11183,   11468,   11469,   11508,   11507
     696,   11143,   11144,   11183,   11182,   11467,   11468,   11507,   11506
     697,   11142,   11143,   11182,   11181,   11466,   11467,   11506,   11505
     698,   11141,   11142,   11181,   11180,   11465,   11466,   11505,   11504
     699,   11140,   11141,   11180,   11179,   11464,   11465,   11504,   11503
     700,   11139,   11140,   11179,   11178,   11463,   11464,   11503,   11502
     701,   11138,   11139,   11178,   11177,   11462,   11463,   11502,   11501
     702,   11137,   11138,   11177,   11176,   11461,   11462,   11501,   11500
     703,   11136,   11137,   11176,   11175,   11460,   11461,   11500,   11499
     704,   11134,   11135,   11136,   11175,   11458,   11459,   11460,   11499
     705,   11133,   11134,   11175,   11174,   11457,   11458,   11499,   11498
     706,   11132,   11133,   11174,   11173,   11456,   11457,   11498,   11497
     707,   11131,   11132,   11173,   11172,   11455,   11456,   11497,   11496
     708,   11130,   11131,   11172,   11167,   11454,   11455,   11496,   11491
     709,   11128,   11129,   11151,   11171,   11452,   11453,   11475,   11495
     710,   11127,   11128,   11171,   11170,   11451,   11452,   11495,   11494
     711,   11126,   11127,   11170,   11169,   11450,   11451,   11494,   11493
     712,   11125,   11126,   11169,   11168,   11449,   11450,   11493,   11492
     713,   11124,   11125,   11168,   11150,   11448,   11449,   11492,   11474
     714,   11122,   11123,   11130,   11167,   11446,   11447,   11454,   11491
     715,   11121,   11122,   11167,   11166,   11445,   11446,   11491,   11490
     716,   11120,   11121,   11166,   11165,   11444,   11445,   11490,   11489
     717,   11119,   11120,   11165,   11164,   11443,   11444,   11489,   11488
     718,   11118,   11119,   11164,   11163,   11442,   11443,   11488,   11487
     719,   11117,   11118,   11163,   11162,   11441,   11442,   11487,   11486
     720,   11116,   11117,   11162,   11161,   11440,   11441,   11486,   11485
     721,   11115,   11116,   11161,   11160,   11439,   11440,   11485,   11484
     722,   11114,   11115,   11160,   11159,   11438,   11439,   11484,   11483
     723,   11113,   11114,   11159,   11158,   11437,   11438,   11483,   11482
     724,   11113,   11158,   11157,   11156,   11437,   11482,   11481,   11480
     725,   11112,   11113,   11156,   11155,   11436,   11437,   11480,   11479
     726,   11110,   11111,   11112,   11155,   11434,   11435,   11436,   11479
     727,   11109,   11110,   11155,   11154,   11433,   11434,   11479,   11478
     728,   11108,   11109,   11154,   11153,   11432,   11433,   11478,   11477
     729,   11107,   11108,   11153,   11152,   11431,   11432,   11477,   11476
     730,   11106,   11107,   11152,   11151,   11430,   11431,   11476,   11475
     731,   11105,   11106,   11151,   11129,   11429,   11430,   11475,   11453
     732,   11076,   11077,   11124,   11150,   11400,   11401,   11448,   11474
     733,   11075,   11076,   11150,   11149,   11399,   11400,   11474,   11473
     734,   11074,   11075,   11149,   11148,   11398,   11399,   11473,   11472
     735,   11073,   11074,   11148,   11147,   11397,   11398,   11472,   11471
     736,   11072,   11073,   11147,   11146,   11396,   11397,   11471,   11470
     737,   11071,   11072,   11146,   11145,   11395,   11396,   11470,   11469
     738,   11070,   11071,   11145,   11144,   11394,   11395,   11469,   11468
     739,   11069,   11070,   11144,   11143,   11393,   11394,   11468,   11467
     740,   11068,   11069,   11143,   11142,   11392,   11393,   11467,   11466
     741,   11067,   11068,   11142,   11141,   11391,   11392,   11466,   11465
     742,   11066,   11067,   11141,   11140,   11390,   11391,   11465,   11464
     743,   11065,   11066,   11140,   11139,   11389,   11390,   11464,   11463
     744,   11064,   11065,   11139,   11138,   11388,   11389,   11463,   11462
     745,   11063,   11064,   11138,   11137,   11387,   11388,   11462,   11461
     746,   11062,   11063,   11137,   11136,   11386,   11387,   11461,   11460
     747,   11061,   11062,   11136,   11135,   11385,   11386,   11460,   11459
     748,   11092,   11060,   11061,   11135,   11416,   11384,   11385,   11459
     749,   11091,   11092,   11135,   11134,   11415,   11416,   11459,   11458
     750,   11090,   11091,   11134,   11133,   11414,   11415,   11458,   11457
     751,   11089,   11090,   11133,   11132,   11413,   11414,   11457,   11456
     752,   11088,   11089,   11132,   11131,   11412,   11413,   11456,   11455
     753,   11087,   11088,   11131,   11130,   11411,   11412,   11455,   11454
     754,   11086,   11087,   11130,   11123,   11410,   11411,   11454,   11447
     755,   11098,   11099,   11105,   11129,   11422,   11423,   11429,   11453
     756,   11097,   11098,   11129,   11128,   11421,   11422,   11453,   11452
     757,   11096,   11097,   11128,   11127,   11420,   11421,   11452,   11451
     758,   11095,   11096,   11127,   11126,   11419,   11420,   11451,   11450
     759,   11094,   11095,   11126,   11125,   11418,   11419,   11450,   11449
     760,   11093,   11094,   11125,   11124,   11417,   11418,   11449,   11448
     761,   11078,   11093,   11124,   11077,   11402,   11417,   11448,   11401
     762,   11058,   11059,   11086,   11123,   11382,   11383,   11410,   11447
     763,   11057,   11058,   11123,   11122,   11381,   11382,   11447,   11446
     764,   11056,   11057,   11122,   11121,   11380,   11381,   11446,   11445
     765,   11055,   11056,   11121,   11120,   11379,   11380,   11445,   11444
     766,   11054,   11055,   11120,   11119,   11378,   11379,   11444,   11443
     767,   11053,   11054,   11119,   11118,   11377,   11378,   11443,   11442
     768,   11104,   11053,   11118,   11117,   11428,   11377,   11442,   11441
     769,   11103,   11104,   11117,   11116,   11427,   11428,   11441,   11440
     770,   11102,   11103,   11116,   11115,   11426,   11427,   11440,   11439
     771,   11101,   11102,   11115,   11114,   11425,   11426,   11439,   11438
     772,   11101,   11114,   11113,   11112,   11425,   11438,   11437,   11436
     773,   11100,   11101,   11112,   11111,   11424,   11425,   11436,   11435
     774,   11085,   11100,   11111,   11110,   11409,   11424,   11435,   11434
     775,   11084,   11085,   11110,   11109,   11408,   11409,   11434,   11433
     776,   11083,   11084,   11109,   11108,   11407,   11408,   11433,   11432
     777,   11082,   11083,   11108,   11107,   11406,   11407,   11432,   11431
     778,   11081,   11082,   11107,   11106,   11405,   11406,   11431,   11430
     779,   11080,   11081,   11106,   11105,   11404,   11405,   11430,   11429
     780,   11079,   11080,   11105,   11099,   11403,   11404,   11429,   11423
     781,   10554,   10553,   11053,   11104,   10573,   10575,   11377,   11428
     782,   10555,   10554,   11104,   11103,   10571,   10573,   11428,   11427
     783,   10556,   10555,   11103,   11102,   10569,   10571,   11427,   11426
     784,   10556,   11102,   11101,   11100,   10569,   11426,   11425,   11424
     785,   10557,   10556,   11100,   11085,   10567,   10569,   11424,   11409
     786,   11038,   11037,   11079,   11099,   11361,   11359,   11403,   11423
     787,   11039,   11038,   11099,   11098,   11363,   11361,   11423,   11422
     788,   11040,   11039,   11098,   11097,   11365,   11363,   11422,   11421
     789,   11041,   11040,   11097,   11096,   11367,   11365,   11421,   11420
     790,   11042,   11041,   11096,   11095,   11369,   11367,   11420,   11419
     791,   11043,   11042,   11095,   11094,   11371,   11369,   11419,   11418
     792,   11044,   11043,   11094,   11093,   11373,   11371,   11418,   11417
     793,   11045,   11044,   11093,   11078,   11375,   11373,   11417,   11402
     794,   11008,   11007,   11060,   11092,   11287,   11289,   11384,   11416
     795,   11009,   11008,   11092,   11091,   11285,   11287,   11416,   11415
     796,   11010,   11009,   11091,   11090,   11283,   11285,   11415,   11414
     797,   11011,   11010,   11090,   11089,   11281,   11283,   11414,   11413
     798,   11012,   11011,   11089,   11088,   11279,   11281,   11413,   11412
     799,   11013,   11012,   11088,   11087,   11277,   11279,   11412,   11411
     800,   11014,   11013,   11087,   11086,   11275,   11277,   11411,   11410
     801,   11015,   11014,   11086,   11059,   11273,   11275,   11410,   11383
     802,   11046,   10548,   10557,   11085,   11252,   10550,   10567,   11409
     803,   11047,   11046,   11085,   11084,   11251,   11252,   11409,   11408
     804,   11048,   11047,   11084,   11083,   11250,   11251,   11408,   11407
     805,   11049,   11048,   11083,   11082,   11249,   11250,   11407,   11406
     806,   11050,   11049,   11082,   11081,   11248,   11249,   11406,   11405
     807,   11051,   11050,   11081,   11080,   11247,   11248,   11405,   11404
     808,   11052,   11051,   11080,   11079,   11246,   11247,   11404,   11403
     809,   11036,   11052,   11079,   11037,   11245,   11246,   11403,   11359
     810,   11017,   11016,   11045,   11078,   11330,   11291,   11375,   11402
     811,   11018,   11017,   11078,   11077,   11329,   11330,   11402,   11401
     812,   11019,   11018,   11077,   11076,   11328,   11329,   11401,   11400
     813,   11020,   11019,   11076,   11075,   11327,   11328,   11400,   11399
     814,   11021,   11020,   11075,   11074,   11326,   11327,   11399,   11398
     815,   11022,   11021,   11074,   11073,   11325,   11326,   11398,   11397
     816,   11023,   11022,   11073,   11072,   11324,   11325,   11397,   11396
     817,   11024,   11023,   11072,   11071,   11323,   11324,   11396,   11395
     818,   11025,   11024,   11071,   11070,   11322,   11323,   11395,   11394
     819,   11026,   11025,   11070,   11069,   11321,   11322,   11394,   11393
     820,   11027,   11026,   11069,   11068,   11320,   11321,   11393,   11392
     821,   11028,   11027,   11068,   11067,   11319,   11320,   11392,   11391
     822,   11029,   11028,   11067,   11066,   11318,   11319,   11391,   11390
     823,   11030,   11029,   11066,   11065,   11317,   11318,   11390,   11389
     824,   11031,   11030,   11065,   11064,   11316,   11317,   11389,   11388
     825,   11032,   11031,   11064,   11063,   11315,   11316,   11388,   11387
     826,   11033,   11032,   11063,   11062,   11314,   11315,   11387,   11386
     827,   11034,   11033,   11062,   11061,   11313,   11314,   11386,   11385
     828,   11035,   11034,   11061,   11060,   11312,   11313,   11385,   11384
     829,   11006,   11035,   11060,   11007,   11262,   11312,   11384,   11289
     830,   10999,   10998,   11015,   11059,   11228,   11213,   11273,   11383
     831,   11000,   10999,   11059,   11058,   11227,   11228,   11383,   11382
     832,   11001,   11000,   11058,   11057,   11226,   11227,   11382,   11381
     833,   11002,   11001,   11057,   11056,   11225,   11226,   11381,   11380
     834,   11003,   11002,   11056,   11055,   11224,   11225,   11380,   11379
     835,   11004,   11003,   11055,   11054,   11223,   11224,   11379,   11378
     836,   11005,   11004,   11054,   11053,   11222,   11223,   11378,   11377
     837,   10552,   11005,   11053,   10553,   10560,   11222,   11377,   10575
     838,   11535,   11514,   11515,   11534,   11694,   11673,   11674,   11693
     839,   11534,   11530,   11531,   11535,   11693,   11689,   11690,   11694
     840,   11527,   11513,   11514,   11535,   11686,   11672,   11673,   11694
     841,   11526,   11527,   11535,   11531,   11685,   11686,   11694,   11690
     842,   11511,   11512,   11530,   11534,   11670,   11671,   11689,   11693
     843,   11510,   11511,   11534,   11515,   11669,   11670,   11693,   11674
     844,   11509,   11510,   11515,   11516,   11668,   11669,   11674,   11675
     845,   11508,   11509,   11516,   11517,   11667,   11668,   11675,   11676
     846,   11507,   11508,   11517,   11518,   11666,   11667,   11676,   11677
     847,   11506,   11507,   11518,   11519,   11665,   11666,   11677,   11678
     848,   11505,   11506,   11519,   11520,   11664,   11665,   11678,   11679
     849,   11523,   11524,   11533,   11532,   11682,   11683,   11692,   11691
     850,   11529,   11532,   11533,   11528,   11688,   11691,   11692,   11687
     851,   11525,   11528,   11533,   11524,   11684,   11687,   11692,   11683
     852,   11504,   11505,   11520,   11521,   11663,   11664,   11679,   11680
     853,   11503,   11504,   11521,   11522,   11662,   11663,   11680,   11681
     854,   11502,   11503,   11522,   11523,   11661,   11662,   11681,   11682
     855,   11501,   11502,   11523,   11532,   11660,   11661,   11682,   11691
     856,   11500,   11501,   11532,   11529,   11659,   11660,   11691,   11688
     857,   11494,   11495,   11526,   11531,   11653,   11654,   11685,   11690
     858,   11493,   11494,   11531,   11530,   11652,   11653,   11690,   11689
     859,   11492,   11493,   11530,   11512,   11651,   11652,   11689,   11671
     860,   11498,   11499,   11500,   11529,   11657,   11658,   11659,   11688
     861,   11497,   11498,   11529,   11528,   11656,   11657,   11688,   11687
     862,   11496,   11497,   11528,   11525,   11655,   11656,   11687,   11684
     863,   11477,   11478,   11513,   11527,   11636,   11637,   11672,   11686
     864,   11476,   11477,   11527,   11526,   11635,   11636,   11686,   11685
     865,   11475,   11476,   11526,   11495,   11634,   11635,   11685,   11654
     866,   11490,   11491,   11496,   11525,   11649,   11650,   11655,   11684
     867,   11489,   11490,   11525,   11524,   11648,   11649,   11684,   11683
     868,   11488,   11489,   11524,   11523,   11647,   11648,   11683,   11682
     869,   11487,   11488,   11523,   11522,   11646,   11647,   11682,   11681
     870,   11486,   11487,   11522,   11521,   11645,   11646,   11681,   11680
     871,   11485,   11486,   11521,   11520,   11644,   11645,   11680,   11679
     872,   11484,   11485,   11520,   11519,   11643,   11644,   11679,   11678
     873,   11483,   11484,   11519,   11518,   11642,   11643,   11678,   11677
     874,   11482,   11483,   11518,   11517,   11641,   11642,   11677,   11676
     875,   11481,   11482,   11517,   11516,   11640,   11641,   11676,   11675
     876,   11481,   11516,   11515,   11514,   11640,   11675,   11674,   11673
     877,   11480,   11481,   11514,   11513,   11639,   11640,   11673,   11672
     878,   11479,   11480,   11513,   11478,   11638,   11639,   11672,   11637
     879,   11473,   11474,   11492,   11512,   11632,   11633,   11651,   11671
     880,   11472,   11473,   11512,   11511,   11631,   11632,   11671,   11670
     881,   11471,   11472,   11511,   11510,   11630,   11631,   11670,   11669
     882,   11470,   11471,   11510,   11509,   11629,   11630,   11669,   11668
     883,   11469,   11470,   11509,   11508,   11628,   11629,   11668,   11667
     884,   11468,   11469,   11508,   11507,   11627,   11628,   11667,   11666
     885,   11467,   11468,   11507,   11506,   11626,   11627,   11666,   11665
     886,   11466,   11467,   11506,   11505,   11625,   11626,   11665,   11664
     887,   11465,   11466,   11505,   11504,   11624,   11625,   11664,   11663
     888,   11464,   11465,   11504,   11503,   11623,   11624,   11663,   11662
     889,   11463,   11464,   11503,   11502,   11622,   11623,   11662,   11661
     890,   11462,   11463,   11502,   11501,   11621,   11622,   11661,   11660
     891,   11461,   11462,   11501,   11500,   11620,   11621,   11660,   11659
     892,   11460,   11461,   11500,   11499,   11619,   11620,   11659,   11658
     893,   11458,   11459,   11460,   11499,   11617,   11618,   11619,   11658
     894,   11457,   11458,   11499,   11498,   11616,   11617,   11658,   11657
     895,   11456,   11457,   11498,   11497,   11615,   11616,   11657,   11656
     896,   11455,   11456,   11497,   11496,   11614,   11615,   11656,   11655
     897,   11454,   11455,   11496,   11491,   11613,   11614,   11655,   11650
     898,   11452,   11453,   11475,   11495,   11611,   11612,   11634,   11654
     899,   11451,   11452,   11495,   11494,   11610,   11611,   11654,   11653
     900,   11450,   11451,   11494,   11493,   11609,   11610,   11653,   11652
     901,   11449,   11450,   11493,   11492,   11608,   11609,   11652,   11651
     902,   11448,   11449,   11492,   11474,   11607,   11608,   11651,   11633
     903,   11446,   11447,   11454,   11491,   11605,   11606,   11613,   11650
     904,   11445,   11446,   11491,   11490,   11604,   11605,   11650,   11649
     905,   11444,   11445,   11490,   11489,   11603,   11604,   11649,   11648
     906,   11443,   11444,   11489,   11488,   11602,   11603,   11648,   11647
     907,   11442,   11443,   11488,   11487,   11601,   11602,   11647,   11646
     908,   11441,   11442,   11487,   11486,   11600,   11601,   11646,   11645
     909,   11440,   11441,   11486,   11485,   11599,   11600,   11645,   11644
     910,   11439,   11440,   11485,   11484,   11598,   11599,   11644,   11643
     911,   11438,   11439,   11484,   11483,   11597,   11598,   11643,   11642
     912,   11437,   11438,   11483,   11482,   11596,   11597,   11642,   11641
     913,   11437,   11482,   11481,   11480,   11596,   11641,   11640,   11639
     914,   11436,   11437,   11480,   11479,   11595,   11596,   11639,   11638
     915,   11434,   11435,   11436,   11479,   11593,   11594,   11595,   11638
     916,   11433,   11434,   11479,   11478,   11592,   11593,   11638,   11637
     917,   11432,   11433,   11478,   11477,   11591,   11592,   11637,   11636
     918,   11431,   11432,   11477,   11476,   11590,   11591,   11636,   11635
     919,   11430,   11431,   11476,   11475,   11589,   11590,   11635,   11634
     920,   11429,   11430,   11475,   11453,   11588,   11589,   11634,   11612
     921,   11400,   11401,   11448,   11474,   11559,   11560,   11607,   11633
     922,   11399,   11400,   11474,   11473,   11558,   11559,   11633,   11632
     923,   11398,   11399,   11473,   11472,   11557,   11558,   11632,   11631
     924,   11397,   11398,   11472,   11471,   11556,   11557,   11631,   11630
     925,   11396,   11397,   11471,   11470,   11555,   11556,   11630,   11629
     926,   11395,   11396,   11470,   11469,   11554,   11555,   11629,   11628
     927,   11394,   11395,   11469,   11468,   11553,   11554,   11628,   11627
     928,   11393,   11394,   11468,   11467,   11552,   11553,   11627,   11626
     929,   11392,   11393,   11467,   11466,   11551,   11552,   11626,   11625
     930,   11391,   11392,   11466,   11465,   11550,   11551,   11625,   11624
     931,   11390,   11391,   11465,   11464,   11549,   11550,   11624,   11623
     932,   11389,   11390,   11464,   11463,   11548,   11549,   11623,   11622
     933,   11388,   11389,   11463,   11462,   11547,   11548,   11622,   11621
     934,   11387,   11388,   11462,   11461,   11546,   11547,   11621,   11620
     935,   11386,   11387,   11461,   11460,   11545,   11546,   11620,   11619
     936,   11385,   11386,   11460,   11459,   11544,   11545,   11619,   11618
     937,   11416,   11384,   11385,   11459,   11575,   11543,   11544,   11618
     938,   11415,   11416,   11459,   11458,   11574,   11575,   11618,   11617
     939,   11414,   11415,   11458,   11457,   11573,   11574,   11617,   11616
     940,   11413,   11414,   11457,   11456,   11572,   11573,   11616,   11615
     941,   11412,   11413,   11456,   11455,   11571,   11572,   11615,   11614
     942,   11411,   11412,   11455,   11454,   11570,   11571,   11614,   11613
     943,   11410,   11411,   11454,   11447,   11569,   11570,   11613,   11606
     944,   11422,   11423,   11429,   11453,   11581,   11582,   11588,   11612
     945,   11421,   11422,   11453,   11452,   11580,   11581,   11612,   11611
     946,   11420,   11421,   11452,   11451,   11579,   11580,   11611,   11610
     947,   11419,   11420,   11451,   11450,   11578,   11579,   11610,   11609
     948,   11418,   11419,   11450,   11449,   11577,   11578,   11609,   11608
     949,   11417,   11418,   11449,   11448,   11576,   11577,   11608,   11607
     950,   11402,   11417,   11448,   11401,   11561,   11576,   11607,   11560
     951,   11382,   11383,   11410,   11447,   11541,   11542,   11569,   11606
     952,   11381,   11382,   11447,   11446,   11540,   11541,   11606,   11605
     953,   11380,   11381,   11446,   11445,   11539,   11540,   11605,   11604
     954,   11379,   11380,   11445,   11444,   11538,   11539,   11604,   11603
     955,   11378,   11379,   11444,   11443,   11537,   11538,   11603,   11602
     956,   11377,   11378,   11443,   11442,   11536,   11537,   11602,   11601
     957,   11428,   11377,   11442,   11441,   11587,   11536,   11601,   11600
     958,   11427,   11428,   11441,   11440,   11586,   11587,   11600,   11599
     959,   11426,   11427,   11440,   11439,   11585,   11586,   11599,   11598
     960,   11425,   11426,   11439,   11438,   11584,   11585,   11598,   11597
     961,   11425,   11438,   11437,   11436,   11584,   11597,   11596,   11595
     962,   11424,   11425,   11436,   11435,   11583,   11584,   11595,   11594
     963,   11409,   11424,   11435,   11434,   11568,   11583,   11594,   11593
     964,   11408,   11409,   11434,   11433,   11567,   11568,   11593,   11592
     965,   11407,   11408,   11433,   11432,   11566,   11567,   11592,   11591
     966,   11406,   11407,   11432,   11431,   11565,   11566,   11591,   11590
     967,   11405,   11406,   11431,   11430,   11564,   11565,   11590,   11589
     968,   11404,   11405,   11430,   11429,   11563,   11564,   11589,   11588
     969,   11403,   11404,   11429,   11423,   11562,   11563,   11588,   11582
     970,   10573,   10575,   11377,   11428,   10572,   10574,   11536,   11587
     971,   10571,   10573,   11428,   11427,   10570,   10572,   11587,   11586
     972,   10569,   10571,   11427,   11426,   10568,   10570,   11586,   11585
     973,   10569,   11426,   11425,   11424,   10568,   11585,   11584,   11583
     974,   10567,   10569,   11424,   11409,   10566,   10568,   11583,   11568
     975,   11361,   11359,   11403,   11423,   11362,   11360,   11562,   11582
     976,   11363,   11361,   11423,   11422,   11364,   11362,   11582,   11581
     977,   11365,   11363,   11422,   11421,   11366,   11364,   11581,   11580
     978,   11367,   11365,   11421,   11420,   11368,   11366,   11580,   11579
     979,   11369,   11367,   11420,   11419,   11370,   11368,   11579,   11578
     980,   11371,   11369,   11419,   11418,   11372,   11370,   11578,   11577
     981,   11373,   11371,   11418,   11417,   11374,   11372,   11577,   11576
     982,   11375,   11373,   11417,   11402,   11376,   11374,   11576,   11561
     983,   11287,   11289,   11384,   11416,   11286,   11288,   11543,   11575
     984,   11285,   11287,   11416,   11415,   11284,   11286,   11575,   11574
     985,   11283,   11285,   11415,   11414,   11282,   11284,   11574,   11573
     986,   11281,   11283,   11414,   11413,   11280,   11282,   11573,   11572
     987,   11279,   11281,   11413,   11412,   11278,   11280,   11572,   11571
     988,   11277,   11279,   11412,   11411,   11276,   11278,   11571,   11570
     989,   11275,   11277,   11411,   11410,   11274,   11276,   11570,   11569
     990,   11273,   11275,   11410,   11383,   11272,   11274,   11569,   11542
     991,   11252,   10550,   10567,   11409,   11259,   10551,   10566,   11568
     992,   11251,   11252,   11409,   11408,   11258,   11259,   11568,   11567
     993,   11250,   11251,   11408,   11407,   11257,   11258,   11567,   11566
     994,   11249,   11250,   11407,   11406,   11256,   11257,   11566,   11565
     995,   11248,   11249,   11406,   11405,   11255,   11256,   11565,   11564
     996,   11247,   11248,   11405,   11404,   11254,   11255,   11564,   11563
     997,   11246,   11247,   11404,   11403,   11253,   11254,   11563,   11562
     998,   11245,   11246,   11403,   11359,   11244,   11253,   11562,   11360
     999,   11330,   11291,   11375,   11402,   11349,   11292,   11376,   11561
    1000,   11329,   11330,   11402,   11401,   11348,   11349,   11561,   11560
    1001,   11328,   11329,   11401,   11400,   11347,   11348,   11560,   11559
    1002,   11327,   11328,   11400,   11399,   11346,   11347,   11559,   11558
    1003,   11326,   11327,   11399,   11398,   11345,   11346,   11558,   11557
    1004,   11325,   11326,   11398,   11397,   11344,   11345,   11557,   11556
    1005,   11324,   11325,   11397,   11396,   11343,   11344,   11556,   11555
    1006,   11323,   11324,   11396,   11395,   11342,   11343,   11555,   11554
    1007,   11322,   11323,   11395,   11394,   11341,   11342,   11554,   11553
    1008,   11321,   11322,   11394,   11393,   11340,   11341,   11553,   11552
    1009,   11320,   11321,   11393,   11392,   11339,   11340,   11552,   11551
    1010,   11319,   11320,   11392,   11391,   11338,   11339,   11551,   11550
    1011,   11318,   11319,   11391,   11390,   11337,   11338,   11550,   11549
    1012,   11317,   11318,   11390,   11389,   11336,   11337,   11549,   11548
    1013,   11316,   11317,   11389,   11388,   11335,   11336,   11548,   11547
    1014,   11315,   11316,   11388,   11387,   11334,   11335,   11547,   11546
    1015,   11314,   11315,   11387,   11386,   11333,   11334,   11546,   11545
    1016,   11313,   11314,   11386,   11385,   11332,   11333,   11545,   11544
    1017,   11312,   11313,   11385,   11384,   11331,   11332,   11544,   11543
    1018,   11262,   11312,   11384,   11289,   11261,   11331,   11543,   11288
    1019,   11228,   11213,   11273,   11383,   11235,   11214,   11272,   11542
    1020,   11227,   11228,   11383,   11382,   11234,   11235,   11542,   11541
    1021,   11226,   11227,   11382,   11381,   11233,   11234,   11541,   11540
    1022,   11225,   11226,   11381,   11380,   11232,   11233,   11540,   11539
    1023,   11224,   11225,   11380,   11379,   11231,   11232,   11539,   11538
    1024,   11223,   11224,   11379,   11378,   11230,   11231,   11538,   11537
    1025,   11222,   11223,   11378,   11377,   11229,   11230,   11537,   11536
    1026,   10560,   11222,   11377,   10575,   10559,   11229,   11536,   10574
    1027,   11694,   11673,   11674,   11693,   11853,   11832,   11833,   11852
    1028,   11693,   11689,   11690,   11694,   11852,   11848,   11849,   11853
    1029,   11686,   11672,   11673,   11694,   11845,   11831,   11832,   11853
    1030,   11685,   11686,   11694,   11690,   11844,   11845,   11853,   11849
    1031,   11670,   11671,   11689,   11693,   11829,   11830,   11848,   11852
    1032,   11669,   11670,   11693,   11674,   11828,   11829,   11852,   11833
    1033,   11668,   11669,   11674,   11675,   11827,   11828,   11833,   11834
    1034,   11667,   11668,   11675,   11676,   11826,   11827,   11834,   11835
    1035,   11666,   11667,   11676,   11677,   11825,   11826,   11835,   11836
    1036,   11665,   11666,   11677,   11678,   11824,   11825,   11836,   11837
    1037,   11664,   11665,   11678,   11679,   11823,   11824,   11837,   11838
    1038,   11682,   11683,   11692,   11691,   11841,   11842,   11851,   11850
    1039,   11688,   11691,   11692,   11687,   11847,   11850,   11851,   11846
    1040,   11684,   11687,   11692,   11683,   11843,   11846,   11851,   11842
    1041,   11663,   11664,   11679,   11680,   11822,   11823,   11838,   11839
    1042,   11662,   11663,   11680,   11681,   11821,   11822,   11839,   11840
    1043,   11661,   11662,   11681,   11682,   11820,   11821,   11840,   11841
    1044,   11660,   11661,   11682,   11691,   11819,   11820,   11841,   11850
    1045,   11659,   11660,   11691,   11688,   11818,   11819,   11850,   11847
    1046,   11653,   11654,   11685,   11690,   11812,   11813,   11844,   11849
    1047,   11652,   11653,   11690,   11689,   11811,   11812,   11849,   11848
    1048,   11651,   11652,   11689,   11671,   11810,   11811,   11848,   11830
    1049,   11657,   11658,   11659,   11688,   11816,   11817,   11818,   11847
    1050,   11656,   11657,   11688,   11687,   11815,   11816,   11847,   11846
    1051,   11655,   11656,   11687,   11684,   11814,   11815,   11846,   11843
    1052,   11636,   11637,   11672,   11686,   11795,   11796,   11831,   11845
    1053,   11635,   11636,   11686,   11685,   11794,   11795,   11845,   11844
    1054,   11634,   11635,   11685,   11654,   11793,   11794,   11844,   11813
    1055,   11649,   11650,   11655,   11684,   11808,   11809,   11814,   11843
    1056,   11648,   11649,   11684,   11683,   11807,   11808,   11843,   11842
    1057,   11647,   11648,   11683,   11682,   11806,   11807,   11842,   11841
    1058,   11646,   11647,   11682,   11681,   11805,   11806,   11841,   11840
    1059,   11645,   11646,   11681,   11680,   11804,   11805,   11840,   11839
    1060,   11644,   11645,   11680,   11679,   11803,   11804,   11839,   11838
    1061,   11643,   11644,   11679,   11678,   11802,   11803,   11838,   11837
    1062,   11642,   11643,   11678,   11677,   11801,   11802,   11837,   11836
    1063,   11641,   11642,   11677,   11676,   11800,   11801,   11836,   11835
    1064,   11640,   11641,   11676,   11675,   11799,   11800,   11835,   11834
    1065,   11640,   11675,   11674,   11673,   11799,   11834,   11833,   11832
    1066,   11639,   11640,   11673,   11672,   11798,   11799,   11832,   11831
    1067,   11638,   11639,   11672,   11637,   11797,   11798,   11831,   11796
    1068,   11632,   11633,   11651,   11671,   11791,   11792,   11810,   11830
    1069,   11631,   11632,   11671,   11670,   11790,   11791,   11830,   11829
    1070,   11630,   11631,   11670,   11669,   11789,   11790,   11829,   11828
    1071,   11629,   11630,   11669,   11668,   11788,   11789,   11828,   11827
    1072,   11628,   11629,   11668,   11667,   11787,   11788,   11827,   11826
    1073,   11627,   11628,   11667,   11666,   11786,   11787,   11826,   11825
    1074,   11626,   11627,   11666,   11665,   11785,   11786,   11825,   11824
    1075,   11625,   11626,   11665,   11664,   11784,   11785,   11824,   11823
    1076,   11624,   11625,   11664,   11663,   11783,   11784,   11823,   11822
    1077,   11623,   11624,   11663,   11662,   11782,   11783,   11822,   11821
    1078,   11622,   11623,   11662,   11661,   11781,   11782,   11821,   11820
    1079,   11621,   11622,   11661,   11660,   11780,   11781,   11820,   11819
    1080,   11620,   11621,   11660,   11659,   11779,   11780,   11819,   11818
    1081,   11619,   11620,   11659,   11658,   11778,   11779,   11818,   11817
    1082,   11617,   11618,   11619,   11658,   11776,   11777,   11778,   11817
    1083,   11616,   11617,   11658,   11657,   11775,   11776,   11817,   11816
    1084,   11615,   11616,   11657,   11656,   11774,   11775,   11816,   11815
    1085,   11614,   11615,   11656,   11655,   11773,   11774,   11815,   11814
    1086,   11613,   11614,   11655,   11650,   11772,   11773,   11814,   11809
    1087,   11611,   11612,   11634,   11654,   11770,   11771,   11793,   11813
    1088,   11610,   11611,   11654,   11653,   11769,   11770,   11813,   11812
    1089,   11609,   11610,   11653,   11652,   11768,   11769,   11812,   11811
    1090,   11608,   11609,   11652,   11651,   11767,   11768,   11811,   11810
    1091,   11607,   11608,   11651,   11633,   11766,   11767,   11810,   11792
    1092,   11605,   11606,   11613,   11650,   11764,   11765,   11772,   11809
    1093,   11604,   11605,   11650,   11649,   11763,   11764,   11809,   11808
    1094,   11603,   11604,   11649,   11648,   11762,   11763,   11808,   11807
    1095,   11602,   11603,   11648,   11647,   11761,   11762,   11807,   11806
    1096,   11601,   11602,   11647,   11646,   11760,   11761,   11806,   11805
    1097,   11600,   11601,   11646,   11645,   11759,   11760,   11805,   11804
    1098,   11599,   11600,   11645,   11644,   11758,   11759,   11804,   11803
    1099,   11598,   11599,   11644,   11643,   11757,   11758,   11803,   11802
    1100,   11597,   11598,   11643,   11642,   11756,   11757,   11802,   11801
    1101,   11596,   11597,   11642,   11641,   11755,   11756,   11801,   11800
    1102,   11596,   11641,   11640,   11639,   11755,   11800,   11799,   11798
    1103,   11595,   11596,   11639,   11638,   11754,   11755,   11798,   11797
    1104,   11593,   11594,   11595,   11638,   11752,   11753,   11754,   11797
    1105,   11592,   11593,   11638,   11637,   11751,   11752,   11797,   11796
    1106,   11591,   11592,   11637,   11636,   11750,   11751,   11796,   11795
    1107,   11590,   11591,   11636,   11635,   11749,   11750,   11795,   11794
    1108,   11589,   11590,   11635,   11634,   11748,   11749,   11794,   11793
    1109,   11588,   11589,   11634,   11612,   11747,   11748,   11793,   11771
    1110,   11559,   11560,   11607,   11633,   11718,   11719,   11766,   11792
    1111,   11558,   11559,   11633,   11632,   11717,   11718,   11792,   11791
    1112,   11557,   11558,   11632,   11631,   11716,   11717,   11791,   11790
    1113,   11556,   11557,   11631,   11630,   11715,   11716,   11790,   11789
    1114,   11555,   11556,   11630,   11629,   11714,   11715,   11789,   11788
    1115,   11554,   11555,   11629,   11628,   11713,   11714,   11788,   11787
    1116,   11553,   11554,   11628,   11627,   11712,   11713,   11787,   11786
    1117,   11552,   11553,   11627,   11626,   11711,   11712,   11786,   11785
    1118,   11551,   11552,   11626,   11625,   11710,   11711,   11785,   11784
    1119,   11550,   11551,   11625,   11624,   11709,   11710,   11784,   11783
    1120,   11549,   11550,   11624,   11623,   11708,   11709,   11783,   11782
    1121,   11548,   11549,   11623,   11622,   11707,   11708,   11782,   11781
    1122,   11547,   11548,   11622,   11621,   11706,   11707,   11781,   11780
    1123,   11546,   11547,   11621,   11620,   11705,   11706,   11780,   11779
    1124,   11545,   11546,   11620,   11619,   11704,   11705,   11779,   11778
    1125,   11544,   11545,   11619,   11618,   11703,   11704,   11778,   11777
    1126,   11575,   11543,   11544,   11618,   11734,   11702,   11703,   11777
    1127,   11574,   11575,   11618,   11617,   11733,   11734,   11777,   11776
    1128,   11573,   11574,   11617,   11616,   11732,   11733,   11776,   11775
    1129,   11572,   11573,   11616,   11615,   11731,   11732,   11775,   11774
    1130,   11571,   11572,   11615,   11614,   11730,   11731,   11774,   11773
    1131,   11570,   11571,   11614,   11613,   11729,   11730,   11773,   11772
    1132,   11569,   11570,   11613,   11606,   11728,   11729,   11772,   11765
    1133,   11581,   11582,   11588,   11612,   11740,   11741,   11747,   11771
    1134,   11580,   11581,   11612,   11611,   11739,   11740,   11771,   11770
    1135,   11579,   11580,   11611,   11610,   11738,   11739,   11770,   11769
    1136,   11578,   11579,   11610,   11609,   11737,   11738,   11769,   11768
    1137,   11577,   11578,   11609,   11608,   11736,   11737,   11768,   11767
    1138,   11576,   11577,   11608,   11607,   11735,   11736,   11767,   11766
    1139,   11561,   11576,   11607,   11560,   11720,   11735,   11766,   11719
    1140,   11541,   11542,   11569,   11606,   11700,   11701,   11728,   11765
    1141,   11540,   11541,   11606,   11605,   11699,   11700,   11765,   11764
    1142,   11539,   11540,   11605,   11604,   11698,   11699,   11764,   11763
    1143,   11538,   11539,   11604,   11603,   11697,   11698,   11763,   11762
    1144,   11537,   11538,   11603,   11602,   11696,   11697,   11762,   11761
    1145,   11536,   11537,   11602,   11601,   11695,   11696,   11761,   11760
    1146,   11587,   11536,   11601,   11600,   11746,   11695,   11760,   11759
    1147,   11586,   11587,   11600,   11599,   11745,   11746,   11759,   11758
    1148,   11585,   11586,   11599,   11598,   11744,   11745,   11758,   11757
    1149,   11584,   11585,   11598,   11597,   11743,   11744,   11757,   11756
    1150,   11584,   11597,   11596,   11595,   11743,   11756,   11755,   11754
    1151,   11583,   11584,   11595,   11594,   11742,   11743,   11754,   11753
    1152,   11568,   11583,   11594,   11593,   11727,   11742,   11753,   11752
    1153,   11567,   11568,   11593,   11592,   11726,   11727,   11752,   11751
    1154,   11566,   11567,   11592,   11591,   11725,   11726,   11751,   11750
    1155,   11565,   11566,   11591,   11590,   11724,   11725,   11750,   11749
    1156,   11564,   11565,   11590,   11589,   11723,   11724,   11749,   11748
    1157,   11563,   11564,   11589,   11588,   11722,   11723,   11748,   11747
    1158,   11562,   11563,   11588,   11582,   11721,   11722,   11747,   11741
    1159,   10572,   10574,   11536,   11587,   10562,   10561,   11695,   11746
    1160,   10570,   10572,   11587,   11586,   10563,   10562,   11746,   11745
    1161,   10568,   10570,   11586,   11585,   10564,   10563,   11745,   11744
    1162,   10568,   11585,   11584,   11583,   10564,   11744,   11743,   11742
    1163,   10566,   10568,   11583,   11568,   10565,   10564,   11742,   11727
    1164,   11362,   11360,   11562,   11582,   11351,   11350,   11721,   11741
    1165,   11364,   11362,   11582,   11581,   11352,   11351,   11741,   11740
    1166,   11366,   11364,   11581,   11580,   11353,   11352,   11740,   11739
    1167,   11368,   11366,   11580,   11579,   11354,   11353,   11739,   11738
    1168,   11370,   11368,   11579,   11578,   11355,   11354,   11738,   11737
    1169,   11372,   11370,   11578,   11577,   11356,   11355,   11737,   11736
    1170,   11374,   11372,   11577,   11576,   11357,   11356,   11736,   11735
    1171,   11376,   11374,   11576,   11561,   11358,   11357,   11735,   11720
    1172,   11286,   11288,   11543,   11575,   11270,   11271,   11702,   11734
    1173,   11284,   11286,   11575,   11574,   11269,   11270,   11734,   11733
    1174,   11282,   11284,   11574,   11573,   11268,   11269,   11733,   11732
    1175,   11280,   11282,   11573,   11572,   11267,   11268,   11732,   11731
    1176,   11278,   11280,   11572,   11571,   11266,   11267,   11731,   11730
    1177,   11276,   11278,   11571,   11570,   11265,   11266,   11730,   11729
    1178,   11274,   11276,   11570,   11569,   11264,   11265,   11729,   11728
    1179,   11272,   11274,   11569,   11542,   11263,   11264,   11728,   11701
    1180,   11259,   10551,   10566,   11568,   11237,   10549,   10565,   11727
    1181,   11258,   11259,   11568,   11567,   11238,   11237,   11727,   11726
    1182,   11257,   11258,   11567,   11566,   11239,   11238,   11726,   11725
    1183,   11256,   11257,   11566,   11565,   11240,   11239,   11725,   11724
    1184,   11255,   11256,   11565,   11564,   11241,   11240,   11724,   11723
    1185,   11254,   11255,   11564,   11563,   11242,   11241,   11723,   11722
    1186,   11253,   11254,   11563,   11562,   11243,   11242,   11722,   11721
    1187,   11244,   11253,   11562,   11360,   11236,   11243,   11721,   11350
    1188,   11349,   11292,   11376,   11561,   11293,   11290,   11358,   11720
    1189,   11348,   11349,   11561,   11560,   11294,   11293,   11720,   11719
    1190,   11347,   11348,   11560,   11559,   11295,   11294,   11719,   11718
    1191,   11346,   11347,   11559,   11558,   11296,   11295,   11718,   11717
    1192,   11345,   11346,   11558,   11557,   11297,   11296,   11717,   11716
    1193,   11344,   11345,   11557,   11556,   11298,   11297,   11716,   11715
    1194,   11343,   11344,   11556,   11555,   11299,   11298,   11715,   11714
    1195,   11342,   11343,   11555,   11554,   11300,   11299,   11714,   11713
    1196,   11341,   11342,   11554,   11553,   11301,   11300,   11713,   11712
    1197,   11340,   11341,   11553,   11552,   11302,   11301,   11712,   11711
    1198,   11339,   11340,   11552,   11551,   11303,   11302,   11711,   11710
    1199,   11338,   11339,   11551,   11550,   11304,   11303,   11710,   11709
    1200,   11337,   11338,   11550,   11549,   11305,   11304,   11709,   11708
    1201,   11336,   11337,   11549,   11548,   11306,   11305,   11708,   11707
    1202,   11335,   11336,   11548,   11547,   11307,   11306,   11707,   11706
    1203,   11334,   11335,   11547,   11546,   11308,   11307,   11706,   11705
    1204,   11333,   11334,   11546,   11545,   11309,   11308,   11705,   11704
    1205,   11332,   11333,   11545,   11544,   11310,   11309,   11704,   11703
    1206,   11331,   11332,   11544,   11543,   11311,   11310,   11703,   11702
    1207,   11261,   11331,   11543,   11288,   11260,   11311,   11702,   11271
    1208,   11235,   11214,   11272,   11542,   11215,   11212,   11263,   11701
    1209,   11234,   11235,   11542,   11541,   11216,   11215,   11701,   11700
    1210,   11233,   11234,   11541,   11540,   11217,   11216,   11700,   11699
    1211,   11232,   11233,   11540,   11539,   11218,   11217,   11699,   11698
    1212,   11231,   11232,   11539,   11538,   11219,   11218,   11698,   11697
    1213,   11230,   11231,   11538,   11537,   11220,   11219,   11697,   11696
    1214,   11229,   11230,   11537,   11536,   11221,   11220,   11696,   11695
    1215,   10559,   11229,   11536,   10574,   10558,   11221,   11695,   10561
*ELEMENT, TYPE=COH3D8, ELSET=mortar
    1216,   14469,   14552,   14857,   14493,   14442,   14551,   14684,   14444
    1217,   14552,   14553,   14833,   14857,   14551,   14550,   14660,   14684
    1218,   14553,   14554,   14809,   14833,   14550,   14549,   14636,   14660
    1219,   14554,   14555,   14785,   14809,   14549,   14548,   14612,   14636
    1220,   14555,   14556,   14761,   14785,   14548,   14547,   14588,   14612
    1221,   14556,   14557,   14737,   14761,   14547,   14546,   14564,   14588
    1222,   14557,   14520,   14522,   14737,   14546,   14495,   14519,   14564
    1223,   14493,   14857,   14856,   14492,   14444,   14684,   14685,   14445
    1224,   14857,   14833,   14832,   14856,   14684,   14660,   14661,   14685
    1225,   14833,   14809,   14808,   14832,   14660,   14636,   14637,   14661
    1226,   14809,   14785,   14784,   14808,   14636,   14612,   14613,   14637
    1227,   14785,   14761,   14760,   14784,   14612,   14588,   14589,   14613
    1228,   14761,   14737,   14736,   14760,   14588,   14564,   14565,   14589
    1229,   14737,   14522,   14523,   14736,   14564,   14519,   14518,   14565
    1230,   14492,   14856,   14855,   14491,   14445,   14685,   14686,   14446
    1231,   14856,   14832,   14831,   14855,   14685,   14661,   14662,   14686
    1232,   14832,   14808,   14807,   14831,   14661,   14637,   14638,   14662
    1233,   14808,   14784,   14783,   14807,   14637,   14613,   14614,   14638
    1234,   14784,   14760,   14759,   14783,   14613,   14589,   14590,   14614
    1235,   14760,   14736,   14735,   14759,   14589,   14565,   14566,   14590
    1236,   14736,   14523,   14524,   14735,   14565,   14518,   14517,   14566
    1237,   14491,   14855,   14854,   14490,   14446,   14686,   14687,   14447
    1238,   14855,   14831,   14830,   14854,   14686,   14662,   14663,   14687
    1239,   14831,   14807,   14806,   14830,   14662,   14638,   14639,   14663
    1240,   14807,   14783,   14782,   14806,   14638,   14614,   14615,   14639
    1241,   14783,   14759,   14758,   14782,   14614,   14590,   14591,   14615
    1242,   14759,   14735,   14734,   14758,   14590,   14566,   14567,   14591
    1243,   14735,   14524,   14525,   14734,   14566,   14517,   14516,   14567
    1244,   14490,   14854,   14853,   14489,   14447,   14687,   14688,   14448
    1245,   14854,   14830,   14829,   14853,   14687,   14663,   14664,   14688
    1246,   14830,   14806,   14805,   14829,   14663,   14639,   14640,   14664
    1247,   14806,   14782,   14781,   14805,   14639,   14615,   14616,   14640
    1248,   14782,   14758,   14757,   14781,   14615,   14591,   14592,   14616
    1249,   14758,   14734,   14733,   14757,   14591,   14567,   14568,   14592
    1250,   14734,   14525,   14526,   14733,   14567,   14516,   14515,   14568
    1251,   14489,   14853,   14852,   14488,   14448,   14688,   14689,   14449
    1252,   14853,   14829,   14828,   14852,   14688,   14664,   14665,   14689
    1253,   14829,   14805,   14804,   14828,   14664,   14640,   14641,   14665
    1254,   14805,   14781,   14780,   14804,   14640,   14616,   14617,   14641
    1255,   14781,   14757,   14756,   14780,   14616,   14592,   14593,   14617
    1256,   14757,   14733,   14732,   14756,   14592,   14568,   14569,   14593
    1257,   14733,   14526,   14527,   14732,   14568,   14515,   14514,   14569
    1258,   14488,   14852,   14851,   14487,   14449,   14689,   14690,   14450
    1259,   14852,   14828,   14827,   14851,   14689,   14665,   14666,   14690
    1260,   14828,   14804,   14803,   14827,   14665,   14641,   14642,   14666
    1261,   14804,   14780,   14779,   14803,   14641,   14617,   14618,   14642
    1262,   14780,   14756,   14755,   14779,   14617,   14593,   14594,   14618
    1263,   14756,   14732,   14731,   14755,   14593,   14569,   14570,   14594
    1264,   14732,   14527,   14528,   14731,   14569,   14514,   14513,   14570
    1265,   14487,   14851,   14850,   14486,   14450,   14690,   14691,   14451
    1266,   14851,   14827,   14826,   14850,   14690,   14666,   14667,   14691
    1267,   14827,   14803,   14802,   14826,   14666,   14642,   14643,   14667
    1268,   14803,   14779,   14778,   14802,   14642,   14618,   14619,   14643
    1269,   14779,   14755,   14754,   14778,   14618,   14594,   14595,   14619
    1270,   14755,   14731,   14730,   14754,   14594,   14570,   14571,   14595
    1271,   14731,   14528,   14529,   14730,   14570,   14513,   14512,   14571
    1272,   14486,   14850,   14849,   14485,   14451,   14691,   14692,   14452
    1273,   14850,   14826,   14825,   14849,   14691,   14667,   14668,   14692
    1274,   14826,   14802,   14801,   14825,   14667,   14643,   14644,   14668
    1275,   14802,   14778,   14777,   14801,   14643,   14619,   14620,   14644
    1276,   14778,   14754,   14753,   14777,   14619,   14595,   14596,   14620
    1277,   14754,   14730,   14729,   14753,   14595,   14571,   14572,   14596
    1278,   14730,   14529,   14530,   14729,   14571,   14512,   14511,   14572
    1279,   14485,   14849,   14848,   14484,   14452,   14692,   14693,   14453
    1280,   14849,   14825,   14824,   14848,   14692,   14668,   14669,   14693
    1281,   14825,   14801,   14800,   14824,   14668,   14644,   14645,   14669
    1282,   14801,   14777,   14776,   14800,   14644,   14620,   14621,   14645
    1283,   14777,   14753,   14752,   14776,   14620,   14596,   14597,   14621
    1284,   14753,   14729,   14728,   14752,   14596,   14572,   14573,   14597
    1285,   14729,   14530,   14531,   14728,   14572,   14511,   14510,   14573
    1286,   14484,   14848,   14847,   14483,   14453,   14693,   14694,   14454
    1287,   14848,   14824,   14823,   14847,   14693,   14669,   14670,   14694
    1288,   14824,   14800,   14799,   14823,   14669,   14645,   14646,   14670
    1289,   14800,   14776,   14775,   14799,   14645,   14621,   14622,   14646
    1290,   14776,   14752,   14751,   14775,   14621,   14597,   14598,   14622
    1291,   14752,   14728,   14727,   14751,   14597,   14573,   14574,   14598
    1292,   14728,   14531,   14532,   14727,   14573,   14510,   14509,   14574
    1293,   14483,   14847,   14846,   14482,   14454,   14694,   14695,   14455
    1294,   14847,   14823,   14822,   14846,   14694,   14670,   14671,   14695
    1295,   14823,   14799,   14798,   14822,   14670,   14646,   14647,   14671
    1296,   14799,   14775,   14774,   14798,   14646,   14622,   14623,   14647
    1297,   14775,   14751,   14750,   14774,   14622,   14598,   14599,   14623
    1298,   14751,   14727,   14726,   14750,   14598,   14574,   14575,   14599
    1299,   14727,   14532,   14533,   14726,   14574,   14509,   14508,   14575
    1300,   14482,   14846,   14845,   14481,   14455,   14695,   14696,   14456
    1301,   14846,   14822,   14821,   14845,   14695,   14671,   14672,   14696
    1302,   14822,   14798,   14797,   14821,   14671,   14647,   14648,   14672
    1303,   14798,   14774,   14773,   14797,   14647,   14623,   14624,   14648
    1304,   14774,   14750,   14749,   14773,   14623,   14599,   14600,   14624
    1305,   14750,   14726,   14725,   14749,   14599,   14575,   14576,   14600
    1306,   14726,   14533,   14534,   14725,   14575,   14508,   14507,   14576
    1307,   14481,   14845,   14844,   14480,   14456,   14696,   14697,   14457
    1308,   14845,   14821,   14820,   14844,   14696,   14672,   14673,   14697
    1309,   14821,   14797,   14796,   14820,   14672,   14648,   14649,   14673
    1310,   14797,   14773,   14772,   14796,   14648,   14624,   14625,   14649
    1311,   14773,   14749,   14748,   14772,   14624,   14600,   14601,   14625
    1312,   14749,   14725,   14724,   14748,   14600,   14576,   14577,   14601
    1313,   14725,   14534,   14535,   14724,   14576,   14507,   14506,   14577
    1314,   14480,   14844,   14843,   14479,   14457,   14697,   14698,   14458
    1315,   14844,   14820,   14819,   14843,   14697,   14673,   14674,   14698
    1316,   14820,   14796,   14795,   14819,   14673,   14649,   14650,   14674
    1317,   14796,   14772,   14771,   14795,   14649,   14625,   14626,   14650
    1318,   14772,   14748,   14747,   14771,   14625,   14601,   14602,   14626
    1319,   14748,   14724,   14723,   14747,   14601,   14577,   14578,   14602
    1320,   14724,   14535,   14536,   14723,   14577,   14506,   14505,   14578
    1321,   14479,   14843,   14842,   14478,   14458,   14698,   14699,   14459
    1322,   14843,   14819,   14818,   14842,   14698,   14674,   14675,   14699
    1323,   14819,   14795,   14794,   14818,   14674,   14650,   14651,   14675
    1324,   14795,   14771,   14770,   14794,   14650,   14626,   14627,   14651
    1325,   14771,   14747,   14746,   14770,   14626,   14602,   14603,   14627
    1326,   14747,   14723,   14722,   14746,   14602,   14578,   14579,   14603
    1327,   14723,   14536,   14537,   14722,   14578,   14505,   14504,   14579
    1328,   14478,   14842,   14841,   14477,   14459,   14699,   14700,   14460
    1329,   14842,   14818,   14817,   14841,   14699,   14675,   14676,   14700
    1330,   14818,   14794,   14793,   14817,   14675,   14651,   14652,   14676
    1331,   14794,   14770,   14769,   14793,   14651,   14627,   14628,   14652
    1332,   14770,   14746,   14745,   14769,   14627,   14603,   14604,   14628
    1333,   14746,   14722,   14721,   14745,   14603,   14579,   14580,   14604
    1334,   14722,   14537,   14538,   14721,   14579,   14504,   14503,   14580
    1335,   14477,   14841,   14840,   14476,   14460,   14700,   14701,   14461
    1336,   14841,   14817,   14816,   14840,   14700,   14676,   14677,   14701
    1337,   14817,   14793,   14792,   14816,   14676,   14652,   14653,   14677
    1338,   14793,   14769,   14768,   14792,   14652,   14628,   14629,   14653
    1339,   14769,   14745,   14744,   14768,   14628,   14604,   14605,   14629
    1340,   14745,   14721,   14720,   14744,   14604,   14580,   14581,   14605
    1341,   14721,   14538,   14539,   14720,   14580,   14503,   14502,   14581
    1342,   14476,   14840,   14839,   14475,   14461,   14701,   14702,   14462
    1343,   14840,   14816,   14815,   14839,   14701,   14677,   14678,   14702
    1344,   14816,   14792,   14791,   14815,   14677,   14653,   14654,   14678
    1345,   14792,   14768,   14767,   14791,   14653,   14629,   14630,   14654
    1346,   14768,   14744,   14743,   14767,   14629,   14605,   14606,   14630
    1347,   14744,   14720,   14719,   14743,   14605,   14581,   14582,   14606
    1348,   14720,   14539,   14540,   14719,   14581,   14502,   14501,   14582
    1349,   14475,   14839,   14838,   14474,   14462,   14702,   14703,   14463
    1350,   14839,   14815,   14814,   14838,   14702,   14678,   14679,   14703
    1351,   14815,   14791,   14790,   14814,   14678,   14654,   14655,   14679
    1352,   14791,   14767,   14766,   14790,   14654,   14630,   14631,   14655
    1353,   14767,   14743,   14742,   14766,   14630,   14606,   14607,   14631
    1354,   14743,   14719,   14718,   14742,   14606,   14582,   14583,   14607
    1355,   14719,   14540,   14541,   14718,   14582,   14501,   14500,   14583
    1356,   14474,   14838,   14837,   14473,   14463,   14703,   14704,   14464
    1357,   14838,   14814,   14813,   14837,   14703,   14679,   14680,   14704
    1358,   14814,   14790,   14789,   14813,   14679,   14655,   14656,   14680
    1359,   14790,   14766,   14765,   14789,   14655,   14631,   14632,   14656
    1360,   14766,   14742,   14741,   14765,   14631,   14607,   14608,   14632
    1361,   14742,   14718,   14717,   14741,   14607,   14583,   14584,   14608
    1362,   14718,   14541,   14542,   14717,   14583,   14500,   14499,   14584
    1363,   14473,   14837,   14836,   14472,   14464,   14704,   14705,   14465
    1364,   14837,   14813,   14812,   14836,   14704,   14680,   14681,   14705
    1365,   14813,   14789,   14788,   14812,   14680,   14656,   14657,   14681
    1366,   14789,   14765,   14764,   14788,   14656,   14632,   14633,   14657
    1367,   14765,   14741,   14740,   14764,   14632,   14608,   14609,   14633
    1368,   14741,   14717,   14716,   14740,   14608,   14584,   14585,   14609
    1369,   14717,   14542,   14543,   14716,   14584,   14499,   14498,   14585
    1370,   14472,   14836,   14835,   14471,   14465,   14705,   14706,   14466
    1371,   14836,   14812,   14811,   14835,   14705,   14681,   14682,   14706
    1372,   14812,   14788,   14787,   14811,   14681,   14657,   14658,   14682
    1373,   14788,   14764,   14763,   14787,   14657,   14633,   14634,   14658
    1374,   14764,   14740,   14739,   14763,   14633,   14609,   14610,   14634
    1375,   14740,   14716,   14715,   14739,   14609,   14585,   14586,   14610
    1376,   14716,   14543,   14544,   14715,   14585,   14498,   14497,   14586
    1377,   14471,   14835,   14834,   14470,   14466,   14706,   14707,   14467
    1378,   14835,   14811,   14810,   14834,   14706,   14682,   14683,   14707
    1379,   14811,   14787,   14786,   14810,   14682,   14658,   14659,   14683
    1380,   14787,   14763,   14762,   14786,   14658,   14634,   14635,   14659
    1381,   14763,   14739,   14738,   14762,   14634,   14610,   14611,   14635
    1382,   14739,   14715,   14714,   14738,   14610,   14586,   14587,   14611
    1383,   14715,   14544,   14545,   14714,   14586,   14497,   14496,   14587
    1384,   14470,   14834,   14713,   14468,   14467,   14707,   14558,   14443
    1385,   14834,   14810,   14712,   14713,   14707,   14683,   14559,   14558
    1386,   14810,   14786,   14711,   14712,   14683,   14659,   14560,   14559
    1387,   14786,   14762,   14710,   14711,   14659,   14635,   14561,   14560
    1388,   14762,   14738,   14709,   14710,   14635,   14611,   14562,   14561
    1389,   14738,   14714,   14708,   14709,   14611,   14587,   14563,   14562
    1390,   14714,   14545,   14521,   14708,   14587,   14496,   14494,   14563
********************************** N O D E S E T S **********************************
*NSET, NSET=shear_loading
   11016,   11036,   11037,   11038,   11039,   11040,
   11041,   11042,   11043,   11044,   11045,   11236,
   11244,   11245,   11290,   11291,   11292,   11350,
   11351,   11352,   11353,   11354,   11355,   11356,
   11357,   11358,   11359,   11360,   11361,   11362,
   11363,   11364,   11365,   11366,   11367,   11368,
   11369,   11370,   11371,   11372,   11373,   11374,
   11375,   11376,   11854,   11855,   11886,   11887,
   11888,   11889,   11890,   11891,   11892,   11893,
   11894,   11895,   11896,   11897,   11898,   11899,
   11900,   11901,   11902,   11903,   11904,   11905,
*NSET, NSET=z_symm
   10533,   10535,   10536,   10537,   10549,   10552,
   10578,   10599,   10628,   10638,   10639,   10640,
   10641,   10642,   10643,   10644,   10645,   10646,
   10647,   10648,   10649,   10650,   10651,   10652,
   10653,   10654,   10655,   10656,   10657,   10658,
   10659,   10660,   10661,   10662,   10663,   10664,
   10665,   10666,   10667,   10668,   10669,   10670,
   10671,   10672,   10673,   10674,   10675,   10676,
   10677,   10678,   10679,   10680,   10681,   10682,
   10683,   10684,   10685,   10686,   10687,   10688,
   10689,   10690,   10691,   10692,   10693,   10694,
   10695,   10696,   10697,   10698,   10699,   10700,
   10701,   10702,   10703,   10704,   10705,   10706,
   10707,   10708,   10709,   10710,   10711,   10712,
   10713,   10714,   10715,   10716,   10717,   10718,
   10719,   10720,   10721,   10722,   10723,   10724,
   10725,   10726,   10727,   10998,   10999,   11000,
   11001,   11002,   11003,   11004,   11005,   11036,
   11046,   11047,   11048,   11049,   11050,   11051,
   11052,   11212,   11213,   11214,   11215,   11216,
   11217,   11218,   11219,   11220,   11221,   11222,
   11223,   11224,   11225,   11226,   11227,   11228,
   11229,   11230,   11231,   11232,   11233,   11234,
   11235,   11236,   11237,   11238,   11239,   11240,
   11241,   11242,   11243,   11244,   11245,   11246,
   11247,   11248,   11249,   11250,   11251,   11252,
   11253,   11254,   11255,   11256,   11257,   11258,
   11259,   11854,   11855,   11856,   11857,   11858,
   11859,   11860,   11861,   11862,   11863,   11864,
   11865,   11866,   11867,   11868,   11869,   11870,
   11871,   11872,   11873,   11874,   11875,   11876,
   11877,   11878,   11879,   11880,   11881,   11882,
   11883,   11884,   11885,   14442,   14443,   14468,
   14469,
********************************** S I D E S E T S **********************************
*ELSET, ELSET=plate_bottom_S1
     460,     461,     462,     463,     464,     465,     466,     467,     468,     469,
     470,     471,     472,     473,     474,     475,     476,     477,     478,     479,
     480,     481,     482,     483,     484,     485,     486,     487,     488,     489,
     490,     491,     492,     493,     494,     495,     496,     497,     498,     499,
     500,     501,     502,     503,     504,     505,     506,     507,     508,     509,
     510,     511,     512,     513,     514,     515,     516,     517,     518,     519,
     520,     521,     522,     523,     524,     525,     526,     527,     528,     529,
     530,     531,     532,     533,     534,     535,     536,     537,     538,     539,
     540,     541,     542,     543,     544,     545,     546,     547,     548,     549,
     550,     551,     552,     553,     554,     555,     556,     557,     558,     559,
     560,     561,     562,     563,     564,     565,     566,     567,     568,     569,
     570,     571,     572,     573,     574,     575,     576,     577,     578,     579,
     580,     581,     582,     583,     584,     585,     586,     587,     588,     589,
     590,     591,     592,     593,     594,     595,     596,     597,     598,     599,
     600,     601,     602,     603,     604,     605,     606,     607,     608,     609,
     610,     611,     612,     613,     614,     615,     616,     617,     618,     619,
     620,     621,     622,     623,     624,     625,     626,     627,     628,     629,
     630,     631,     632,     633,     634,     635,     636,     637,     638,     639,
     640,     641,     642,     643,     644,     645,     646,     647,     648
*SURFACE, NAME=plate_bottom
plate_bottom_S1, S1
*ELSET, ELSET=mortar_to_anchor_S1
    1216,    1217,    1218,    1219,    1220,    1221,    1222,    1223,    1224,    1225,
    1226,    1227,    1228,    1229,    1230,    1231,    1232,    1233,    1234,    1235,
    1236,    1237,    1238,    1239,    1240,    1241,    1242,    1243,    1244,    1245,
    1246,    1247,    1248,    1249,    1250,    1251,    1252,    1253,    1254,    1255,
    1256,    1257,    1258,    1259,    1260,    1261,    1262,    1263,    1264,    1265,
    1266,    1267,    1268,    1269,    1270,    1271,    1272,    1273,    1274,    1275,
    1276,    1277,    1278,    1279,    1280,    1281,    1282,    1283,    1284,    1285,
    1286,    1287,    1288,    1289,    1290,    1291,    1292,    1293,    1294,    1295,
    1296,    1297,    1298,    1299,    1300,    1301,    1302,    1303,    1304,    1305,
    1306,    1307,    1308,    1309,    1310,    1311,    1312,    1313,    1314,    1315,
    1316,    1317,    1318,    1319,    1320,    1321,    1322,    1323,    1324,    1325,
    1326,    1327,    1328,    1329,    1330,    1331,    1332,    1333,    1334,    1335,
    1336,    1337,    1338,    1339,    1340,    1341,    1342,    1343,    1344,    1345,
    1346,    1347,    1348,    1349,    1350,    1351,    1352,    1353,    1354,    1355,
    1356,    1357,    1358,    1359,    1360,    1361,    1362,    1363,    1364,    1365,
    1366,    1367,    1368,    1369,    1370,    1371,    1372,    1373,    1374,    1375,
    1376,    1377,    1378,    1379,    1380,    1381,    1382,    1383,    1384,    1385,
    1386,    1387,    1388,    1389,    1390
*SURFACE, NAME=mortar_to_anchor
mortar_to_anchor_S1, S1
*ELSET, ELSET=anchor_to_mortar_S3
       2,       3,       6,      11,      12,      15,      20,      21,      24,      29,
      30,      33,      38,      39,      42,      47,      48,      51,      56,      57,
      60,      65,      66,      69,      74,      75,      78,      83,      84,      87,
      92,      93,      96,     101,     102,     105,     110,     111,     114,     119,
     120,     123,     128,     129,     132,     137,     138,     141,     146,     147,
     150,     155,     156,     159,     164,     165,     168,     173,     174,     177,
     182,     183,     186,     191,     192,     195,     200,     201,     204,     209,
     210,     213,     218,     219,     222,     403,     404,     405,     407,     592,
     593,     594,     596,     781,     782,     783,     785,     970,     971,     972,
     974,    1159,    1160,    1161,    1163
*ELSET, ELSET=anchor_to_mortar_S4
       7,      16,      25,      34,      43,      52,      61,      70,      79,      88,
      97,     106,     115,     124,     133,     142,     151,     160,     169,     178,
     187,     196,     205,     214,     223,     424,     613,     802,     991,    1180
*ELSET, ELSET=anchor_to_mortar_S6
       4,       5,      13,      14,      22,      23,      31,      32,      40,      41,
      49,      50,      58,      59,      67,      68,      76,      77,      85,      86,
      94,      95,     103,     104,     112,     113,     121,     122,     130,     131,
     139,     140,     148,     149,     157,     158,     166,     167,     175,     176,
     184,     185,     193,     194,     202,     203,     211,     212,     220,     221,
     459,     648,     837,    1026,    1215
*SURFACE, NAME=anchor_to_mortar
anchor_to_mortar_S3, S3
anchor_to_mortar_S4, S4
anchor_to_mortar_S6, S6
*ELSET, ELSET=mortar_to_concrete_S2
    1216,    1217,    1218,    1219,    1220,    1221,    1222,    1223,    1224,    1225,
    1226,    1227,    1228,    1229,    1230,    1231,    1232,    1233,    1234,    1235,
    1236,    1237,    1238,    1239,    1240,    1241,    1242,    1243,    1244,    1245,
    1246,    1247,    1248,    1249,    1250,    1251,    1252,    1253,    1254,    1255,
    1256,    1257,    1258,    1259,    1260,    1261,    1262,    1263,    1264,    1265,
    1266,    1267,    1268,    1269,    1270,    1271,    1272,    1273,    1274,    1275,
    1276,    1277,    1278,    1279,    1280,    1281,    1282,    1283,    1284,    1285,
    1286,    1287,    1288,    1289,    1290,    1291,    1292,    1293,    1294,    1295,
    1296,    1297,    1298,    1299,    1300,    1301,    1302,    1303,    1304,    1305,
    1306,    1307,    1308,    1309,    1310,    1311,    1312,    1313,    1314,    1315,
    1316,    1317,    1318,    1319,    1320,    1321,    1322,    1323,    1324,    1325,
    1326,    1327,    1328,    1329,    1330,    1331,    1332,    1333,    1334,    1335,
    1336,    1337,    1338,    1339,    1340,    1341,    1342,    1343,    1344,    1345,
    1346,    1347,    1348,    1349,    1350,    1351,    1352,    1353,    1354,    1355,
    1356,    1357,    1358,    1359,    1360,    1361,    1362,    1363,    1364,    1365,
    1366,    1367,    1368,    1369,    1370,    1371,    1372,    1373,    1374,    1375,
    1376,    1377,    1378,    1379,    1380,    1381,    1382,    1383,    1384,    1385,
    1386,    1387,    1388,    1389,    1390
*SURFACE, NAME=mortar_to_concrete
mortar_to_concrete_S2, S2
