********************************** N O D E S **********************************
*NODE, NSET=ALLNODES
    4873,    0.000000e+00,    1.600000e+01,   -8.000000e+00
    4874,    0.000000e+00,    1.600000e+01,    0.000000e+00
    4875,    0.000000e+00,    1.600000e+01,   -4.000000e+00
    4876,    8.000000e+00,    1.600000e+01,   -2.020667e-15
    4877,    5.333333e+00,    1.600000e+01,    0.000000e+00
    4878,    2.666667e+00,    1.600000e+01,    0.000000e+00
    4879,    6.928203e+00,    1.600000e+01,   -4.000000e+00
    4880,    4.000000e+00,    1.600000e+01,   -6.928203e+00
    4881,    5.026854e+00,    1.600000e+01,   -2.413361e+00
    4882,    2.829203e+00,    1.600000e+01,   -3.243589e+00
    4883,    0.000000e+00,    5.333333e+00,   -8.000000e+00
    4884,    0.000000e+00,    1.244444e+01,   -8.000000e+00
    4885,    0.000000e+00,    8.888889e+00,   -8.000000e+00
    4886,    8.000000e+00,    5.333333e+00,    0.000000e+00
    4887,    6.928203e+00,    5.333333e+00,   -4.000000e+00
    4888,    4.000000e+00,    5.333333e+00,   -6.928203e+00
    4889,    8.000000e+00,    1.244444e+01,   -2.721437e-16
    4890,    8.000000e+00,    8.888889e+00,   -5.442875e-17
    4891,    4.000000e+00,    1.244444e+01,   -6.928203e+00
    4892,    4.000000e+00,    8.888889e+00,   -6.928203e+00
    4893,    6.928203e+00,    1.244444e+01,   -4.000000e+00
    4894,    6.928203e+00,    8.888889e+00,   -4.000000e+00
    4895,    0.000000e+00,    0.000000e+00,   -8.000000e+00
    4896,    8.000000e+00,    0.000000e+00,    4.898587e-16
    4897,    6.928203e+00,    0.000000e+00,   -4.000000e+00
    4898,    4.000000e+00,    0.000000e+00,   -6.928203e+00
    4899,    0.000000e+00,   -5.000000e+01,    0.000000e+00
    4900,    0.000000e+00,    1.211765e+01,    0.000000e+00
    4901,    0.000000e+00,    8.235294e+00,    0.000000e+00
    4902,    0.000000e+00,    4.352941e+00,    0.000000e+00
    4903,    0.000000e+00,    4.705882e-01,    0.000000e+00
    4904,    0.000000e+00,   -3.411765e+00,    0.000000e+00
    4905,    0.000000e+00,   -7.294118e+00,    0.000000e+00
    4906,    0.000000e+00,   -1.117647e+01,    0.000000e+00
    4907,    0.000000e+00,   -1.505882e+01,    0.000000e+00
    4908,    0.000000e+00,   -1.894118e+01,    0.000000e+00
    4909,    0.000000e+00,   -2.282353e+01,    0.000000e+00
    4910,    0.000000e+00,   -2.670588e+01,    0.000000e+00
    4911,    0.000000e+00,   -3.058824e+01,    0.000000e+00
    4912,    0.000000e+00,   -3.447059e+01,    0.000000e+00
    4913,    0.000000e+00,   -3.835294e+01,    0.000000e+00
    4914,    0.000000e+00,   -4.223529e+01,    0.000000e+00
    4915,    0.000000e+00,   -4.611765e+01,    0.000000e+00
    4916,    0.000000e+00,   -5.000000e+01,   -8.000000e+00
    4917,    0.000000e+00,   -4.615385e+01,   -8.000000e+00
    4918,    0.000000e+00,   -4.230769e+01,   -8.000000e+00
    4919,    0.000000e+00,   -3.846154e+01,   -8.000000e+00
    4920,    0.000000e+00,   -3.461538e+01,   -8.000000e+00
    4921,    0.000000e+00,   -3.076923e+01,   -8.000000e+00
    4922,    0.000000e+00,   -2.692308e+01,   -8.000000e+00
    4923,    0.000000e+00,   -2.307692e+01,   -8.000000e+00
    4924,    0.000000e+00,   -1.923077e+01,   -8.000000e+00
    4925,    0.000000e+00,   -1.538462e+01,   -8.000000e+00
    4926,    0.000000e+00,   -1.153846e+01,   -8.000000e+00
    4927,    0.000000e+00,   -7.692308e+00,   -8.000000e+00
    4928,    0.000000e+00,   -3.846154e+00,   -8.000000e+00
    4929,    0.000000e+00,   -5.000000e+01,   -4.000000e+00
    4930,    0.000000e+00,   -4.613575e+01,   -4.000000e+00
    4931,    0.000000e+00,   -4.227149e+01,   -4.000000e+00
    4932,    0.000000e+00,   -3.840724e+01,   -4.000000e+00
    4933,    0.000000e+00,   -3.454299e+01,   -4.000000e+00
    4934,    0.000000e+00,   -3.067873e+01,   -4.000000e+00
    4935,    0.000000e+00,   -2.681448e+01,   -4.000000e+00
    4936,    0.000000e+00,   -2.295023e+01,   -4.000000e+00
    4937,    0.000000e+00,   -1.908597e+01,   -4.000000e+00
    4938,    0.000000e+00,   -1.522172e+01,   -4.000000e+00
    4939,    0.000000e+00,   -1.135747e+01,   -4.000000e+00
    4940,    0.000000e+00,   -7.493213e+00,   -4.000000e+00
    4941,    0.000000e+00,   -3.628959e+00,   -4.000000e+00
    4942,    0.000000e+00,    2.352941e-01,   -4.000000e+00
    4943,    0.000000e+00,    4.843137e+00,   -4.000000e+00
    4944,    0.000000e+00,    8.562092e+00,   -4.000000e+00
    4945,    0.000000e+00,    1.228105e+01,   -4.000000e+00
    4946,    8.000000e+00,   -5.000000e+01,    2.020667e-15
    4947,    8.000000e+00,   -4.615385e+01,    1.785158e-15
    4948,    8.000000e+00,   -4.230769e+01,    1.549649e-15
    4949,    8.000000e+00,   -3.846154e+01,    1.314140e-15
    4950,    8.000000e+00,   -3.461538e+01,    1.078631e-15
    4951,    8.000000e+00,   -3.076923e+01,    8.431222e-16
    4952,    8.000000e+00,   -2.692308e+01,    6.076132e-16
    4953,    8.000000e+00,   -2.307692e+01,    3.721042e-16
    4954,    8.000000e+00,   -1.923077e+01,    1.365952e-16
    4955,    8.000000e+00,   -1.538462e+01,   -9.891378e-17
    4956,    8.000000e+00,   -1.153846e+01,   -3.344228e-16
    4957,    8.000000e+00,   -7.692308e+00,   -5.699318e-16
    4958,    8.000000e+00,   -3.846154e+00,   -8.054408e-16
    4959,    4.000000e+00,   -5.000000e+01,   -6.928203e+00
    4960,    6.928203e+00,   -5.000000e+01,   -4.000000e+00
    4961,    4.000000e+00,   -3.846154e+00,   -6.928203e+00
    4962,    6.928203e+00,   -3.846154e+00,   -4.000000e+00
    4963,    4.000000e+00,   -7.692308e+00,   -6.928203e+00
    4964,    6.928203e+00,   -7.692308e+00,   -4.000000e+00
    4965,    4.000000e+00,   -1.153846e+01,   -6.928203e+00
    4966,    6.928203e+00,   -1.153846e+01,   -4.000000e+00
    4967,    4.000000e+00,   -1.538462e+01,   -6.928203e+00
    4968,    6.928203e+00,   -1.538462e+01,   -4.000000e+00
    4969,    4.000000e+00,   -1.923077e+01,   -6.928203e+00
    4970,    6.928203e+00,   -1.923077e+01,   -4.000000e+00
    4971,    4.000000e+00,   -2.307692e+01,   -6.928203e+00
    4972,    6.928203e+00,   -2.307692e+01,   -4.000000e+00
    4973,    4.000000e+00,   -2.692308e+01,   -6.928203e+00
    4974,    6.928203e+00,   -2.692308e+01,   -4.000000e+00
    4975,    4.000000e+00,   -3.076923e+01,   -6.928203e+00
    4976,    6.928203e+00,   -3.076923e+01,   -4.000000e+00
    4977,    4.000000e+00,   -3.461538e+01,   -6.928203e+00
    4978,    6.928203e+00,   -3.461538e+01,   -4.000000e+00
    4979,    4.000000e+00,   -3.846154e+01,   -6.928203e+00
    4980,    6.928203e+00,   -3.846154e+01,   -4.000000e+00
    4981,    4.000000e+00,   -4.230769e+01,   -6.928203e+00
    4982,    6.928203e+00,   -4.230769e+01,   -4.000000e+00
    4983,    4.000000e+00,   -4.615385e+01,   -6.928203e+00
    4984,    6.928203e+00,   -4.615385e+01,   -4.000000e+00
    4985,    2.666667e+00,   -5.000000e+01,    0.000000e+00
    4986,    5.333333e+00,   -5.000000e+01,    0.000000e+00
    4987,    2.666667e+00,    1.222658e+01,    0.000000e+00
    4988,    2.666667e+00,    8.453159e+00,    0.000000e+00
    4989,    2.666667e+00,    4.679739e+00,    0.000000e+00
    4990,    2.666667e+00,    3.137255e-01,    0.000000e+00
    4991,    2.666667e+00,   -3.556561e+00,    0.000000e+00
    4992,    2.666667e+00,   -7.426848e+00,    0.000000e+00
    4993,    2.666667e+00,   -1.129713e+01,    0.000000e+00
    4994,    2.666667e+00,   -1.516742e+01,    0.000000e+00
    4995,    2.666667e+00,   -1.903771e+01,    0.000000e+00
    4996,    2.666667e+00,   -2.290799e+01,    0.000000e+00
    4997,    2.666667e+00,   -2.677828e+01,    0.000000e+00
    4998,    2.666667e+00,   -3.064857e+01,    0.000000e+00
    4999,    2.666667e+00,   -3.451885e+01,    0.000000e+00
    5000,    2.666667e+00,   -3.838914e+01,    0.000000e+00
    5001,    2.666667e+00,   -4.225943e+01,    0.000000e+00
    5002,    2.666667e+00,   -4.612971e+01,    0.000000e+00
    5003,    5.333333e+00,    1.233551e+01,    0.000000e+00
    5004,    5.333333e+00,    8.671024e+00,    0.000000e+00
    5005,    5.333333e+00,    5.006536e+00,    0.000000e+00
    5006,    5.333333e+00,    1.568627e-01,    0.000000e+00
    5007,    5.333333e+00,   -3.701357e+00,    0.000000e+00
    5008,    5.333333e+00,   -7.559578e+00,    0.000000e+00
    5009,    5.333333e+00,   -1.141780e+01,    0.000000e+00
    5010,    5.333333e+00,   -1.527602e+01,    0.000000e+00
    5011,    5.333333e+00,   -1.913424e+01,    0.000000e+00
    5012,    5.333333e+00,   -2.299246e+01,    0.000000e+00
    5013,    5.333333e+00,   -2.685068e+01,    0.000000e+00
    5014,    5.333333e+00,   -3.070890e+01,    0.000000e+00
    5015,    5.333333e+00,   -3.456712e+01,    0.000000e+00
    5016,    5.333333e+00,   -3.842534e+01,    0.000000e+00
    5017,    5.333333e+00,   -4.228356e+01,    0.000000e+00
    5018,    5.333333e+00,   -4.614178e+01,    0.000000e+00
    5019,    2.829203e+00,    1.233717e+01,   -3.243589e+00
    5020,    5.026854e+00,    1.237978e+01,   -2.413361e+00
    5021,    2.829203e+00,    8.663715e+00,   -3.243589e+00
    5022,    5.026854e+00,    8.750145e+00,   -2.413361e+00
    5023,    2.829203e+00,    4.995572e+00,   -3.243589e+00
    5024,    5.026854e+00,    5.125218e+00,   -2.413361e+00
    5025,    2.829203e+00,    1.621253e-01,   -3.243589e+00
    5026,    5.026854e+00,    9.989524e-02,   -2.413361e+00
    5027,    2.829203e+00,   -3.703567e+00,   -3.243589e+00
    5028,    5.026854e+00,   -3.760201e+00,   -2.413361e+00
    5029,    2.829203e+00,   -7.561603e+00,   -3.243589e+00
    5030,    5.026854e+00,   -7.613518e+00,   -2.413361e+00
    5031,    2.829203e+00,   -1.141964e+01,   -3.243589e+00
    5032,    5.026854e+00,   -1.146683e+01,   -2.413361e+00
    5033,    2.829203e+00,   -1.527768e+01,   -3.243589e+00
    5034,    5.026854e+00,   -1.532015e+01,   -2.413361e+00
    5035,    2.829203e+00,   -1.913571e+01,   -3.243589e+00
    5036,    5.026854e+00,   -1.917347e+01,   -2.413361e+00
    5037,    2.829203e+00,   -2.299375e+01,   -3.243589e+00
    5038,    5.026854e+00,   -2.302678e+01,   -2.413361e+00
    5039,    2.829203e+00,   -2.685178e+01,   -3.243589e+00
    5040,    5.026854e+00,   -2.688010e+01,   -2.413361e+00
    5041,    2.829203e+00,   -3.070982e+01,   -3.243589e+00
    5042,    5.026854e+00,   -3.073342e+01,   -2.413361e+00
    5043,    2.829203e+00,   -3.456786e+01,   -3.243589e+00
    5044,    5.026854e+00,   -3.458673e+01,   -2.413361e+00
    5045,    2.829203e+00,   -3.842589e+01,   -3.243589e+00
    5046,    5.026854e+00,   -3.844005e+01,   -2.413361e+00
    5047,    2.829203e+00,   -4.228393e+01,   -3.243589e+00
    5048,    5.026854e+00,   -4.229337e+01,   -2.413361e+00
    5049,    2.829203e+00,   -4.614196e+01,   -3.243589e+00
    5050,    5.026854e+00,   -4.614668e+01,   -2.413361e+00
    5051,    2.829203e+00,   -5.000000e+01,   -3.243589e+00
    5052,    5.026854e+00,   -5.000000e+01,   -2.413361e+00
    5053,    0.000000e+00,    5.333333e+00,   -3.200000e+01
    5054,    0.000000e+00,    5.333333e+00,   -2.800000e+01
    5055,    0.000000e+00,    5.333333e+00,   -2.400000e+01
    5056,    0.000000e+00,    5.333333e+00,   -2.000000e+01
    5057,    0.000000e+00,    5.333333e+00,   -1.600000e+01
    5058,    0.000000e+00,    5.333333e+00,   -1.200000e+01
    5059,    3.200000e+01,    5.333333e+00,    0.000000e+00
    5060,    2.800000e+01,    5.333333e+00,    0.000000e+00
    5061,    2.400000e+01,    5.333333e+00,    0.000000e+00
    5062,    2.000000e+01,    5.333333e+00,    0.000000e+00
    5063,    1.600000e+01,    5.333333e+00,    0.000000e+00
    5064,    1.200000e+01,    5.333333e+00,    0.000000e+00
    5065,    3.200000e+01,    5.333333e+00,   -3.200000e+01
    5066,    3.200000e+01,    5.333333e+00,   -2.844444e+01
    5067,    3.200000e+01,    5.333333e+00,   -2.488889e+01
    5068,    3.200000e+01,    5.333333e+00,   -2.133333e+01
    5069,    3.200000e+01,    5.333333e+00,   -1.777778e+01
    5070,    3.200000e+01,    5.333333e+00,   -1.422222e+01
    5071,    3.200000e+01,    5.333333e+00,   -1.066667e+01
    5072,    3.200000e+01,    5.333333e+00,   -7.111111e+00
    5073,    3.200000e+01,    5.333333e+00,   -3.555556e+00
    5074,    4.000000e+00,    5.333333e+00,   -3.200000e+01
    5075,    8.000000e+00,    5.333333e+00,   -3.200000e+01
    5076,    1.200000e+01,    5.333333e+00,   -3.200000e+01
    5077,    1.600000e+01,    5.333333e+00,   -3.200000e+01
    5078,    2.000000e+01,    5.333333e+00,   -3.200000e+01
    5079,    2.400000e+01,    5.333333e+00,   -3.200000e+01
    5080,    2.800000e+01,    5.333333e+00,   -3.200000e+01
    5081,    2.812003e+01,    5.333333e+00,   -3.414845e+00
    5082,    2.797864e+01,    5.333333e+00,   -6.754863e+00
    5083,    2.762910e+01,    5.333333e+00,   -1.020751e+01
    5084,    2.731317e+01,    5.333333e+00,   -1.384184e+01
    5085,    2.762424e+01,    5.333333e+00,   -1.759450e+01
    5086,    2.791641e+01,    5.333333e+00,   -2.121915e+01
    5087,    2.802649e+01,    5.333333e+00,   -2.481971e+01
    5088,    2.803102e+01,    5.333333e+00,   -2.841462e+01
    5089,    4.074691e+00,    5.333333e+00,   -2.807655e+01
    5090,    4.204790e+00,    5.333333e+00,   -2.411931e+01
    5091,    4.494764e+00,    5.333333e+00,   -2.007880e+01
    5092,    5.258743e+00,    5.333333e+00,   -1.591285e+01
    5093,    6.604932e+00,    5.333333e+00,   -1.086153e+01
    5094,    1.187342e+01,    5.333333e+00,   -5.738712e+00
    5095,    1.720166e+01,    5.333333e+00,   -4.149378e+00
    5096,    2.083400e+01,    5.333333e+00,   -3.187386e+00
    5097,    2.430850e+01,    5.333333e+00,   -3.213687e+00
    5098,    2.406667e+01,    5.333333e+00,   -2.843076e+01
    5099,    2.008566e+01,    5.333333e+00,   -2.850775e+01
    5100,    1.610483e+01,    5.333333e+00,   -2.851623e+01
    5101,    1.212834e+01,    5.333333e+00,   -2.838958e+01
    5102,    8.124210e+00,    5.333333e+00,   -2.821898e+01
    5103,    2.425294e+01,    5.333333e+00,   -6.270300e+00
    5104,    2.318170e+01,    5.333333e+00,   -9.374250e+00
    5105,    2.130020e+01,    5.333333e+00,   -1.325280e+01
    5106,    2.296177e+01,    5.333333e+00,   -1.759617e+01
    5107,    2.367202e+01,    5.333333e+00,   -2.133115e+01
    5108,    2.400709e+01,    5.333333e+00,   -2.490508e+01
    5109,    1.998169e+01,    5.333333e+00,   -2.506174e+01
    5110,    1.615924e+01,    5.333333e+00,   -2.512063e+01
    5111,    1.232558e+01,    5.333333e+00,   -2.481764e+01
    5112,    8.342438e+00,    5.333333e+00,   -2.443121e+01
    5113,    8.974009e+00,    5.333333e+00,   -2.067915e+01
    5114,    1.010391e+01,    5.333333e+00,   -1.687424e+01
    5115,    1.250144e+01,    5.333333e+00,   -1.314404e+01
    5116,    1.629642e+01,    5.333333e+00,   -9.961566e+00
    5117,    2.157232e+01,    5.333333e+00,   -5.658829e+00
    5118,    1.957326e+01,    5.333333e+00,   -7.453734e+00
    5119,    1.969011e+01,    5.333333e+00,   -2.169171e+01
    5120,    1.291311e+01,    5.333333e+00,   -2.142747e+01
    5121,    1.397717e+01,    5.333333e+00,   -1.825778e+01
    5122,    1.660092e+01,    5.333333e+00,   -1.559855e+01
    5123,    1.892839e+01,    5.333333e+00,   -1.842924e+01
    5124,    1.622813e+01,    5.333333e+00,   -2.198711e+01
    5125,    1.637790e+01,    5.333333e+00,   -1.955804e+01
    5126,    0.000000e+00,    1.600000e+01,   -3.200000e+01
    5127,    0.000000e+00,    1.600000e+01,   -2.800000e+01
    5128,    0.000000e+00,    1.600000e+01,   -2.400000e+01
    5129,    0.000000e+00,    1.600000e+01,   -2.000000e+01
    5130,    0.000000e+00,    1.600000e+01,   -1.600000e+01
    5131,    0.000000e+00,    1.600000e+01,   -1.200000e+01
    5132,    0.000000e+00,    8.888889e+00,   -3.200000e+01
    5133,    0.000000e+00,    1.244444e+01,   -3.200000e+01
    5134,    0.000000e+00,    8.888889e+00,   -1.200000e+01
    5135,    0.000000e+00,    1.244444e+01,   -1.200000e+01
    5136,    0.000000e+00,    8.888889e+00,   -1.600000e+01
    5137,    0.000000e+00,    1.244444e+01,   -1.600000e+01
    5138,    0.000000e+00,    8.888889e+00,   -2.000000e+01
    5139,    0.000000e+00,    1.244444e+01,   -2.000000e+01
    5140,    0.000000e+00,    8.888889e+00,   -2.400000e+01
    5141,    0.000000e+00,    1.244444e+01,   -2.400000e+01
    5142,    0.000000e+00,    8.888889e+00,   -2.800000e+01
    5143,    0.000000e+00,    1.244444e+01,   -2.800000e+01
    5144,    3.200000e+01,    1.600000e+01,   -3.200000e+01
    5145,    4.000000e+00,    1.600000e+01,   -3.200000e+01
    5146,    8.000000e+00,    1.600000e+01,   -3.200000e+01
    5147,    1.200000e+01,    1.600000e+01,   -3.200000e+01
    5148,    1.600000e+01,    1.600000e+01,   -3.200000e+01
    5149,    2.000000e+01,    1.600000e+01,   -3.200000e+01
    5150,    2.400000e+01,    1.600000e+01,   -3.200000e+01
    5151,    2.800000e+01,    1.600000e+01,   -3.200000e+01
    5152,    3.200000e+01,    1.244444e+01,   -3.200000e+01
    5153,    3.200000e+01,    8.888889e+00,   -3.200000e+01
    5154,    4.000000e+00,    8.888889e+00,   -3.200000e+01
    5155,    4.000000e+00,    1.244444e+01,   -3.200000e+01
    5156,    8.000000e+00,    8.888889e+00,   -3.200000e+01
    5157,    8.000000e+00,    1.244444e+01,   -3.200000e+01
    5158,    1.200000e+01,    8.888889e+00,   -3.200000e+01
    5159,    1.200000e+01,    1.244444e+01,   -3.200000e+01
    5160,    1.600000e+01,    8.888889e+00,   -3.200000e+01
    5161,    1.600000e+01,    1.244444e+01,   -3.200000e+01
    5162,    2.000000e+01,    8.888889e+00,   -3.200000e+01
    5163,    2.000000e+01,    1.244444e+01,   -3.200000e+01
    5164,    2.400000e+01,    8.888889e+00,   -3.200000e+01
    5165,    2.400000e+01,    1.244444e+01,   -3.200000e+01
    5166,    2.800000e+01,    8.888889e+00,   -3.200000e+01
    5167,    2.800000e+01,    1.244444e+01,   -3.200000e+01
    5168,    3.200000e+01,    1.600000e+01,    0.000000e+00
    5169,    3.200000e+01,    8.888889e+00,    0.000000e+00
    5170,    3.200000e+01,    1.244444e+01,    0.000000e+00
    5171,    2.800000e+01,    1.600000e+01,    0.000000e+00
    5172,    2.400000e+01,    1.600000e+01,    0.000000e+00
    5173,    2.000000e+01,    1.600000e+01,    0.000000e+00
    5174,    1.600000e+01,    1.600000e+01,    0.000000e+00
    5175,    1.200000e+01,    1.600000e+01,    0.000000e+00
    5176,    1.200000e+01,    8.888889e+00,    0.000000e+00
    5177,    1.600000e+01,    8.888889e+00,    0.000000e+00
    5178,    2.000000e+01,    8.888889e+00,    0.000000e+00
    5179,    2.400000e+01,    8.888889e+00,    0.000000e+00
    5180,    2.800000e+01,    8.888889e+00,    0.000000e+00
    5181,    1.200000e+01,    1.244444e+01,    0.000000e+00
    5182,    1.600000e+01,    1.244444e+01,    0.000000e+00
    5183,    2.000000e+01,    1.244444e+01,    0.000000e+00
    5184,    2.400000e+01,    1.244444e+01,    0.000000e+00
    5185,    2.800000e+01,    1.244444e+01,    0.000000e+00
    5186,    3.200000e+01,    1.600000e+01,   -3.555556e+00
    5187,    3.200000e+01,    1.600000e+01,   -7.111111e+00
    5188,    3.200000e+01,    1.600000e+01,   -1.066667e+01
    5189,    3.200000e+01,    1.600000e+01,   -1.422222e+01
    5190,    3.200000e+01,    1.600000e+01,   -1.777778e+01
    5191,    3.200000e+01,    1.600000e+01,   -2.133333e+01
    5192,    3.200000e+01,    1.600000e+01,   -2.488889e+01
    5193,    3.200000e+01,    1.600000e+01,   -2.844444e+01
    5194,    3.200000e+01,    1.244444e+01,   -3.555556e+00
    5195,    3.200000e+01,    8.888889e+00,   -3.555556e+00
    5196,    3.200000e+01,    1.244444e+01,   -7.111111e+00
    5197,    3.200000e+01,    8.888889e+00,   -7.111111e+00
    5198,    3.200000e+01,    1.244444e+01,   -1.066667e+01
    5199,    3.200000e+01,    8.888889e+00,   -1.066667e+01
    5200,    3.200000e+01,    1.244444e+01,   -1.422222e+01
    5201,    3.200000e+01,    8.888889e+00,   -1.422222e+01
    5202,    3.200000e+01,    1.244444e+01,   -1.777778e+01
    5203,    3.200000e+01,    8.888889e+00,   -1.777778e+01
    5204,    3.200000e+01,    1.244444e+01,   -2.133333e+01
    5205,    3.200000e+01,    8.888889e+00,   -2.133333e+01
    5206,    3.200000e+01,    1.244444e+01,   -2.488889e+01
    5207,    3.200000e+01,    8.888889e+00,   -2.488889e+01
    5208,    3.200000e+01,    1.244444e+01,   -2.844444e+01
    5209,    3.200000e+01,    8.888889e+00,   -2.844444e+01
    5210,    2.812003e+01,    8.888889e+00,   -3.414845e+00
    5211,    2.797864e+01,    8.888889e+00,   -6.754863e+00
    5212,    2.762910e+01,    8.888889e+00,   -1.020751e+01
    5213,    2.731317e+01,    8.888889e+00,   -1.384184e+01
    5214,    2.762424e+01,    8.888889e+00,   -1.759450e+01
    5215,    2.791641e+01,    8.888889e+00,   -2.121915e+01
    5216,    2.802649e+01,    8.888889e+00,   -2.481971e+01
    5217,    2.803102e+01,    8.888889e+00,   -2.841462e+01
    5218,    4.074691e+00,    8.888889e+00,   -2.807655e+01
    5219,    4.204790e+00,    8.888889e+00,   -2.411931e+01
    5220,    4.494764e+00,    8.888889e+00,   -2.007880e+01
    5221,    5.258743e+00,    8.888889e+00,   -1.591285e+01
    5222,    6.604932e+00,    8.888889e+00,   -1.086153e+01
    5223,    1.187342e+01,    8.888889e+00,   -5.738712e+00
    5224,    1.720166e+01,    8.888889e+00,   -4.149378e+00
    5225,    2.083400e+01,    8.888889e+00,   -3.187386e+00
    5226,    2.430850e+01,    8.888889e+00,   -3.213687e+00
    5227,    2.406667e+01,    8.888889e+00,   -2.843076e+01
    5228,    2.008566e+01,    8.888889e+00,   -2.850775e+01
    5229,    1.610483e+01,    8.888889e+00,   -2.851623e+01
    5230,    1.212834e+01,    8.888889e+00,   -2.838958e+01
    5231,    8.124210e+00,    8.888889e+00,   -2.821898e+01
    5232,    2.425294e+01,    8.888889e+00,   -6.270300e+00
    5233,    2.318170e+01,    8.888889e+00,   -9.374250e+00
    5234,    2.130020e+01,    8.888889e+00,   -1.325280e+01
    5235,    2.296177e+01,    8.888889e+00,   -1.759617e+01
    5236,    2.367202e+01,    8.888889e+00,   -2.133115e+01
    5237,    2.400709e+01,    8.888889e+00,   -2.490508e+01
    5238,    1.998169e+01,    8.888889e+00,   -2.506174e+01
    5239,    1.615924e+01,    8.888889e+00,   -2.512063e+01
    5240,    1.232558e+01,    8.888889e+00,   -2.481764e+01
    5241,    8.342438e+00,    8.888889e+00,   -2.443121e+01
    5242,    8.974009e+00,    8.888889e+00,   -2.067915e+01
    5243,    1.010391e+01,    8.888889e+00,   -1.687424e+01
    5244,    1.250144e+01,    8.888889e+00,   -1.314404e+01
    5245,    1.629642e+01,    8.888889e+00,   -9.961566e+00
    5246,    1.957326e+01,    8.888889e+00,   -7.453734e+00
    5247,    2.157232e+01,    8.888889e+00,   -5.658829e+00
    5248,    1.892839e+01,    8.888889e+00,   -1.842924e+01
    5249,    1.969011e+01,    8.888889e+00,   -2.169171e+01
    5250,    1.291311e+01,    8.888889e+00,   -2.142747e+01
    5251,    1.397717e+01,    8.888889e+00,   -1.825778e+01
    5252,    1.660092e+01,    8.888889e+00,   -1.559855e+01
    5253,    1.622813e+01,    8.888889e+00,   -2.198711e+01
    5254,    1.637790e+01,    8.888889e+00,   -1.955804e+01
    5255,    2.812003e+01,    1.244444e+01,   -3.414845e+00
    5256,    2.797864e+01,    1.244444e+01,   -6.754863e+00
    5257,    2.762910e+01,    1.244444e+01,   -1.020751e+01
    5258,    2.731317e+01,    1.244444e+01,   -1.384184e+01
    5259,    2.762424e+01,    1.244444e+01,   -1.759450e+01
    5260,    2.791641e+01,    1.244444e+01,   -2.121915e+01
    5261,    2.802649e+01,    1.244444e+01,   -2.481971e+01
    5262,    2.803102e+01,    1.244444e+01,   -2.841462e+01
    5263,    4.074691e+00,    1.244444e+01,   -2.807655e+01
    5264,    4.204790e+00,    1.244444e+01,   -2.411931e+01
    5265,    4.494764e+00,    1.244444e+01,   -2.007880e+01
    5266,    5.258743e+00,    1.244444e+01,   -1.591285e+01
    5267,    6.604932e+00,    1.244444e+01,   -1.086153e+01
    5268,    1.187342e+01,    1.244444e+01,   -5.738712e+00
    5269,    1.720166e+01,    1.244444e+01,   -4.149378e+00
    5270,    2.083400e+01,    1.244444e+01,   -3.187386e+00
    5271,    2.430850e+01,    1.244444e+01,   -3.213687e+00
    5272,    2.406667e+01,    1.244444e+01,   -2.843076e+01
    5273,    2.008566e+01,    1.244444e+01,   -2.850775e+01
    5274,    1.610483e+01,    1.244444e+01,   -2.851623e+01
    5275,    1.212834e+01,    1.244444e+01,   -2.838958e+01
    5276,    8.124210e+00,    1.244444e+01,   -2.821898e+01
    5277,    2.425294e+01,    1.244444e+01,   -6.270300e+00
    5278,    2.318170e+01,    1.244444e+01,   -9.374250e+00
    5279,    2.130020e+01,    1.244444e+01,   -1.325280e+01
    5280,    2.296177e+01,    1.244444e+01,   -1.759617e+01
    5281,    2.367202e+01,    1.244444e+01,   -2.133115e+01
    5282,    2.400709e+01,    1.244444e+01,   -2.490508e+01
    5283,    1.998169e+01,    1.244444e+01,   -2.506174e+01
    5284,    1.615924e+01,    1.244444e+01,   -2.512063e+01
    5285,    1.232558e+01,    1.244444e+01,   -2.481764e+01
    5286,    8.342438e+00,    1.244444e+01,   -2.443121e+01
    5287,    8.974009e+00,    1.244444e+01,   -2.067915e+01
    5288,    1.010391e+01,    1.244444e+01,   -1.687424e+01
    5289,    1.250144e+01,    1.244444e+01,   -1.314404e+01
    5290,    1.629642e+01,    1.244444e+01,   -9.961566e+00
    5291,    1.957326e+01,    1.244444e+01,   -7.453734e+00
    5292,    2.157232e+01,    1.244444e+01,   -5.658829e+00
    5293,    1.892839e+01,    1.244444e+01,   -1.842924e+01
    5294,    1.969011e+01,    1.244444e+01,   -2.169171e+01
    5295,    1.291311e+01,    1.244444e+01,   -2.142747e+01
    5296,    1.397717e+01,    1.244444e+01,   -1.825778e+01
    5297,    1.660092e+01,    1.244444e+01,   -1.559855e+01
    5298,    1.622813e+01,    1.244444e+01,   -2.198711e+01
    5299,    1.637790e+01,    1.244444e+01,   -1.955804e+01
    5300,    2.812003e+01,    1.600000e+01,   -3.414845e+00
    5301,    2.797864e+01,    1.600000e+01,   -6.754863e+00
    5302,    2.762910e+01,    1.600000e+01,   -1.020751e+01
    5303,    2.731317e+01,    1.600000e+01,   -1.384184e+01
    5304,    2.762424e+01,    1.600000e+01,   -1.759450e+01
    5305,    2.791641e+01,    1.600000e+01,   -2.121915e+01
    5306,    2.802649e+01,    1.600000e+01,   -2.481971e+01
    5307,    2.803102e+01,    1.600000e+01,   -2.841462e+01
    5308,    4.074691e+00,    1.600000e+01,   -2.807655e+01
    5309,    4.204790e+00,    1.600000e+01,   -2.411931e+01
    5310,    4.494764e+00,    1.600000e+01,   -2.007880e+01
    5311,    5.258743e+00,    1.600000e+01,   -1.591285e+01
    5312,    6.604932e+00,    1.600000e+01,   -1.086153e+01
    5313,    1.187342e+01,    1.600000e+01,   -5.738712e+00
    5314,    1.720166e+01,    1.600000e+01,   -4.149378e+00
    5315,    2.083400e+01,    1.600000e+01,   -3.187386e+00
    5316,    2.430850e+01,    1.600000e+01,   -3.213687e+00
    5317,    2.406667e+01,    1.600000e+01,   -2.843076e+01
    5318,    2.008566e+01,    1.600000e+01,   -2.850775e+01
    5319,    1.610483e+01,    1.600000e+01,   -2.851623e+01
    5320,    1.212834e+01,    1.600000e+01,   -2.838958e+01
    5321,    8.124210e+00,    1.600000e+01,   -2.821898e+01
    5322,    2.425294e+01,    1.600000e+01,   -6.270300e+00
    5323,    2.318170e+01,    1.600000e+01,   -9.374250e+00
    5324,    2.130020e+01,    1.600000e+01,   -1.325280e+01
    5325,    2.296177e+01,    1.600000e+01,   -1.759617e+01
    5326,    2.367202e+01,    1.600000e+01,   -2.133115e+01
    5327,    2.400709e+01,    1.600000e+01,   -2.490508e+01
    5328,    1.998169e+01,    1.600000e+01,   -2.506174e+01
    5329,    1.615924e+01,    1.600000e+01,   -2.512063e+01
    5330,    1.232558e+01,    1.600000e+01,   -2.481764e+01
    5331,    8.342438e+00,    1.600000e+01,   -2.443121e+01
    5332,    8.974009e+00,    1.600000e+01,   -2.067915e+01
    5333,    1.010391e+01,    1.600000e+01,   -1.687424e+01
    5334,    1.250144e+01,    1.600000e+01,   -1.314404e+01
    5335,    1.629642e+01,    1.600000e+01,   -9.961566e+00
    5336,    1.957326e+01,    1.600000e+01,   -7.453734e+00
    5337,    2.157232e+01,    1.600000e+01,   -5.658829e+00
    5338,    1.892839e+01,    1.600000e+01,   -1.842924e+01
    5339,    1.969011e+01,    1.600000e+01,   -2.169171e+01
    5340,    1.291311e+01,    1.600000e+01,   -2.142747e+01
    5341,    1.397717e+01,    1.600000e+01,   -1.825778e+01
    5342,    1.660092e+01,    1.600000e+01,   -1.559855e+01
    5343,    1.622813e+01,    1.600000e+01,   -2.198711e+01
    5344,    1.637790e+01,    1.600000e+01,   -1.955804e+01
    5345,    0.000000e+00,    0.000000e+00,   -3.200000e+01
    5346,    0.000000e+00,    0.000000e+00,   -1.200000e+01
    5347,    0.000000e+00,    0.000000e+00,   -1.600000e+01
    5348,    0.000000e+00,    0.000000e+00,   -2.000000e+01
    5349,    0.000000e+00,    0.000000e+00,   -2.400000e+01
    5350,    0.000000e+00,    0.000000e+00,   -2.800000e+01
    5351,    3.200000e+01,    0.000000e+00,   -3.200000e+01
    5352,    2.800000e+01,    0.000000e+00,   -3.200000e+01
    5353,    2.400000e+01,    0.000000e+00,   -3.200000e+01
    5354,    2.000000e+01,    0.000000e+00,   -3.200000e+01
    5355,    1.600000e+01,    0.000000e+00,   -3.200000e+01
    5356,    1.200000e+01,    0.000000e+00,   -3.200000e+01
    5357,    8.000000e+00,    0.000000e+00,   -3.200000e+01
    5358,    4.000000e+00,    0.000000e+00,   -3.200000e+01
    5359,    3.200000e+01,    0.000000e+00,    0.000000e+00
    5360,    1.200000e+01,    0.000000e+00,    0.000000e+00
    5361,    1.600000e+01,    0.000000e+00,    0.000000e+00
    5362,    2.000000e+01,    0.000000e+00,    0.000000e+00
    5363,    2.400000e+01,    0.000000e+00,    0.000000e+00
    5364,    2.800000e+01,    0.000000e+00,    0.000000e+00
    5365,    3.200000e+01,    0.000000e+00,   -3.555556e+00
    5366,    3.200000e+01,    0.000000e+00,   -7.111111e+00
    5367,    3.200000e+01,    0.000000e+00,   -1.066667e+01
    5368,    3.200000e+01,    0.000000e+00,   -1.422222e+01
    5369,    3.200000e+01,    0.000000e+00,   -1.777778e+01
    5370,    3.200000e+01,    0.000000e+00,   -2.133333e+01
    5371,    3.200000e+01,    0.000000e+00,   -2.488889e+01
    5372,    3.200000e+01,    0.000000e+00,   -2.844444e+01
    5373,    2.812003e+01,    0.000000e+00,   -3.414845e+00
    5374,    2.797864e+01,    0.000000e+00,   -6.754863e+00
    5375,    2.762910e+01,    0.000000e+00,   -1.020751e+01
    5376,    2.731317e+01,    0.000000e+00,   -1.384184e+01
    5377,    2.762424e+01,    0.000000e+00,   -1.759450e+01
    5378,    2.791641e+01,    0.000000e+00,   -2.121915e+01
    5379,    2.802649e+01,    0.000000e+00,   -2.481971e+01
    5380,    2.803102e+01,    0.000000e+00,   -2.841462e+01
    5381,    4.074691e+00,    0.000000e+00,   -2.807655e+01
    5382,    4.204790e+00,    0.000000e+00,   -2.411931e+01
    5383,    4.494764e+00,    0.000000e+00,   -2.007880e+01
    5384,    5.258743e+00,    0.000000e+00,   -1.591285e+01
    5385,    6.604932e+00,    0.000000e+00,   -1.086153e+01
    5386,    1.187342e+01,    0.000000e+00,   -5.738712e+00
    5387,    1.720166e+01,    0.000000e+00,   -4.149378e+00
    5388,    2.083400e+01,    0.000000e+00,   -3.187386e+00
    5389,    2.430850e+01,    0.000000e+00,   -3.213687e+00
    5390,    2.406667e+01,    0.000000e+00,   -2.843076e+01
    5391,    2.008566e+01,    0.000000e+00,   -2.850775e+01
    5392,    1.610483e+01,    0.000000e+00,   -2.851623e+01
    5393,    1.212834e+01,    0.000000e+00,   -2.838958e+01
    5394,    8.124210e+00,    0.000000e+00,   -2.821898e+01
    5395,    2.425294e+01,    0.000000e+00,   -6.270300e+00
    5396,    2.318170e+01,    0.000000e+00,   -9.374250e+00
    5397,    2.130020e+01,    0.000000e+00,   -1.325280e+01
    5398,    2.296177e+01,    0.000000e+00,   -1.759617e+01
    5399,    2.367202e+01,    0.000000e+00,   -2.133115e+01
    5400,    2.400709e+01,    0.000000e+00,   -2.490508e+01
    5401,    1.998169e+01,    0.000000e+00,   -2.506174e+01
    5402,    1.615924e+01,    0.000000e+00,   -2.512063e+01
    5403,    1.232558e+01,    0.000000e+00,   -2.481764e+01
    5404,    8.342438e+00,    0.000000e+00,   -2.443121e+01
    5405,    8.974009e+00,    0.000000e+00,   -2.067915e+01
    5406,    1.010391e+01,    0.000000e+00,   -1.687424e+01
    5407,    1.250144e+01,    0.000000e+00,   -1.314404e+01
    5408,    1.629642e+01,    0.000000e+00,   -9.961566e+00
    5409,    1.957326e+01,    0.000000e+00,   -7.453734e+00
    5410,    2.157232e+01,    0.000000e+00,   -5.658829e+00
    5411,    1.969011e+01,    0.000000e+00,   -2.169171e+01
    5412,    1.892839e+01,    0.000000e+00,   -1.842924e+01
    5413,    1.291311e+01,    0.000000e+00,   -2.142747e+01
    5414,    1.397717e+01,    0.000000e+00,   -1.825778e+01
    5415,    1.660092e+01,    0.000000e+00,   -1.559855e+01
    5416,    1.622813e+01,    0.000000e+00,   -2.198711e+01
    5417,    1.637790e+01,    0.000000e+00,   -1.955804e+01
   10290,   -8.000000e+00,   -5.000000e+01,    0.000000e+00
   10291,   -5.333333e+00,   -5.000000e+01,    0.000000e+00
   10292,   -2.666667e+00,   -5.000000e+01,    0.000000e+00
   10293,   -6.928203e+00,   -5.000000e+01,   -4.000000e+00
   10294,   -4.000000e+00,   -5.000000e+01,   -6.928203e+00
   10295,   -5.026854e+00,   -5.000000e+01,   -2.413361e+00
   10296,   -2.829203e+00,   -5.000000e+01,   -3.243589e+00
   10297,   -8.000000e+00,    1.600000e+01,    0.000000e+00
   10298,   -4.000000e+00,    1.600000e+01,   -6.928203e+00
   10299,   -6.928203e+00,    1.600000e+01,   -4.000000e+00
   10300,   -8.000000e+00,    5.333333e+00,    1.143004e-15
   10301,   -8.000000e+00,    8.888889e+00,   -5.442875e-17
   10302,   -8.000000e+00,    1.244444e+01,   -2.721437e-16
   10303,   -4.000000e+00,    5.333333e+00,   -6.928203e+00
   10304,   -6.928203e+00,    5.333333e+00,   -4.000000e+00
   10305,   -4.000000e+00,    8.888889e+00,   -6.928203e+00
   10306,   -4.000000e+00,    1.244444e+01,   -6.928203e+00
   10307,   -6.928203e+00,    8.888889e+00,   -4.000000e+00
   10308,   -6.928203e+00,    1.244444e+01,   -4.000000e+00
   10309,   -8.000000e+00,    0.000000e+00,    0.000000e+00
   10310,   -4.000000e+00,    0.000000e+00,   -6.928203e+00
   10311,   -6.928203e+00,    0.000000e+00,   -4.000000e+00
   10312,   -2.666667e+00,    1.600000e+01,    0.000000e+00
   10313,   -5.333333e+00,    1.600000e+01,    0.000000e+00
   10314,   -8.000000e+00,   -3.846154e+00,   -8.054408e-16
   10315,   -8.000000e+00,   -7.692308e+00,   -5.699318e-16
   10316,   -8.000000e+00,   -1.153846e+01,   -3.344228e-16
   10317,   -8.000000e+00,   -1.538462e+01,   -9.891378e-17
   10318,   -8.000000e+00,   -1.923077e+01,    1.365952e-16
   10319,   -8.000000e+00,   -2.307692e+01,    3.721042e-16
   10320,   -8.000000e+00,   -2.692308e+01,    6.076132e-16
   10321,   -8.000000e+00,   -3.076923e+01,    8.431222e-16
   10322,   -8.000000e+00,   -3.461538e+01,    1.078631e-15
   10323,   -8.000000e+00,   -3.846154e+01,    1.314140e-15
   10324,   -8.000000e+00,   -4.230769e+01,    1.549649e-15
   10325,   -8.000000e+00,   -4.615385e+01,    1.785158e-15
   10326,   -2.666667e+00,   -4.612971e+01,    0.000000e+00
   10327,   -2.666667e+00,   -4.225943e+01,    0.000000e+00
   10328,   -2.666667e+00,   -3.838914e+01,    0.000000e+00
   10329,   -2.666667e+00,   -3.451885e+01,    0.000000e+00
   10330,   -2.666667e+00,   -3.064857e+01,    0.000000e+00
   10331,   -2.666667e+00,   -2.677828e+01,    0.000000e+00
   10332,   -2.666667e+00,   -2.290799e+01,    0.000000e+00
   10333,   -2.666667e+00,   -1.903771e+01,    0.000000e+00
   10334,   -2.666667e+00,   -1.516742e+01,    0.000000e+00
   10335,   -2.666667e+00,   -1.129713e+01,    0.000000e+00
   10336,   -2.666667e+00,   -7.426848e+00,    0.000000e+00
   10337,   -2.666667e+00,   -3.556561e+00,    0.000000e+00
   10338,   -2.666667e+00,    3.137255e-01,    0.000000e+00
   10339,   -2.666667e+00,    4.679739e+00,    0.000000e+00
   10340,   -2.666667e+00,    8.453159e+00,    0.000000e+00
   10341,   -2.666667e+00,    1.222658e+01,    0.000000e+00
   10342,   -5.333333e+00,   -4.614178e+01,    0.000000e+00
   10343,   -5.333333e+00,   -4.228356e+01,    0.000000e+00
   10344,   -5.333333e+00,   -3.842534e+01,    0.000000e+00
   10345,   -5.333333e+00,   -3.456712e+01,    0.000000e+00
   10346,   -5.333333e+00,   -3.070890e+01,    0.000000e+00
   10347,   -5.333333e+00,   -2.685068e+01,    0.000000e+00
   10348,   -5.333333e+00,   -2.299246e+01,    0.000000e+00
   10349,   -5.333333e+00,   -1.913424e+01,    0.000000e+00
   10350,   -5.333333e+00,   -1.527602e+01,    0.000000e+00
   10351,   -5.333333e+00,   -1.141780e+01,    0.000000e+00
   10352,   -5.333333e+00,   -7.559578e+00,    0.000000e+00
   10353,   -5.333333e+00,   -3.701357e+00,    0.000000e+00
   10354,   -5.333333e+00,    1.568627e-01,    0.000000e+00
   10355,   -5.333333e+00,    5.006536e+00,    0.000000e+00
   10356,   -5.333333e+00,    8.671024e+00,    0.000000e+00
   10357,   -5.333333e+00,    1.233551e+01,    0.000000e+00
   10358,   -6.928203e+00,   -3.846154e+00,   -4.000000e+00
   10359,   -4.000000e+00,   -3.846154e+00,   -6.928203e+00
   10360,   -6.928203e+00,   -7.692308e+00,   -4.000000e+00
   10361,   -4.000000e+00,   -7.692308e+00,   -6.928203e+00
   10362,   -6.928203e+00,   -1.153846e+01,   -4.000000e+00
   10363,   -4.000000e+00,   -1.153846e+01,   -6.928203e+00
   10364,   -6.928203e+00,   -1.538462e+01,   -4.000000e+00
   10365,   -4.000000e+00,   -1.538462e+01,   -6.928203e+00
   10366,   -6.928203e+00,   -1.923077e+01,   -4.000000e+00
   10367,   -4.000000e+00,   -1.923077e+01,   -6.928203e+00
   10368,   -6.928203e+00,   -2.307692e+01,   -4.000000e+00
   10369,   -4.000000e+00,   -2.307692e+01,   -6.928203e+00
   10370,   -6.928203e+00,   -2.692308e+01,   -4.000000e+00
   10371,   -4.000000e+00,   -2.692308e+01,   -6.928203e+00
   10372,   -6.928203e+00,   -3.076923e+01,   -4.000000e+00
   10373,   -4.000000e+00,   -3.076923e+01,   -6.928203e+00
   10374,   -6.928203e+00,   -3.461538e+01,   -4.000000e+00
   10375,   -4.000000e+00,   -3.461538e+01,   -6.928203e+00
   10376,   -6.928203e+00,   -3.846154e+01,   -4.000000e+00
   10377,   -4.000000e+00,   -3.846154e+01,   -6.928203e+00
   10378,   -6.928203e+00,   -4.230769e+01,   -4.000000e+00
   10379,   -4.000000e+00,   -4.230769e+01,   -6.928203e+00
   10380,   -6.928203e+00,   -4.615385e+01,   -4.000000e+00
   10381,   -4.000000e+00,   -4.615385e+01,   -6.928203e+00
   10382,   -2.829203e+00,   -4.614196e+01,   -3.243589e+00
   10383,   -5.026854e+00,   -4.614668e+01,   -2.413361e+00
   10384,   -2.829203e+00,   -4.228393e+01,   -3.243589e+00
   10385,   -5.026854e+00,   -4.229337e+01,   -2.413361e+00
   10386,   -2.829203e+00,   -3.842589e+01,   -3.243589e+00
   10387,   -5.026854e+00,   -3.844005e+01,   -2.413361e+00
   10388,   -2.829203e+00,   -3.456786e+01,   -3.243589e+00
   10389,   -5.026854e+00,   -3.458673e+01,   -2.413361e+00
   10390,   -2.829203e+00,   -3.070982e+01,   -3.243589e+00
   10391,   -5.026854e+00,   -3.073342e+01,   -2.413361e+00
   10392,   -2.829203e+00,   -2.685178e+01,   -3.243589e+00
   10393,   -5.026854e+00,   -2.688010e+01,   -2.413361e+00
   10394,   -2.829203e+00,   -2.299375e+01,   -3.243589e+00
   10395,   -5.026854e+00,   -2.302678e+01,   -2.413361e+00
   10396,   -2.829203e+00,   -1.913571e+01,   -3.243589e+00
   10397,   -5.026854e+00,   -1.917347e+01,   -2.413361e+00
   10398,   -2.829203e+00,   -1.527768e+01,   -3.243589e+00
   10399,   -5.026854e+00,   -1.532015e+01,   -2.413361e+00
   10400,   -2.829203e+00,   -1.141964e+01,   -3.243589e+00
   10401,   -5.026854e+00,   -1.146683e+01,   -2.413361e+00
   10402,   -2.829203e+00,   -7.561603e+00,   -3.243589e+00
   10403,   -5.026854e+00,   -7.613518e+00,   -2.413361e+00
   10404,   -2.829203e+00,   -3.703567e+00,   -3.243589e+00
   10405,   -5.026854e+00,   -3.760201e+00,   -2.413361e+00
   10406,   -2.829203e+00,    1.621253e-01,   -3.243589e+00
   10407,   -5.026854e+00,    9.989524e-02,   -2.413361e+00
   10408,   -2.829203e+00,    4.995572e+00,   -3.243589e+00
   10409,   -5.026854e+00,    5.125218e+00,   -2.413361e+00
   10410,   -2.829203e+00,    8.663715e+00,   -3.243589e+00
   10411,   -5.026854e+00,    8.750145e+00,   -2.413361e+00
   10412,   -2.829203e+00,    1.233717e+01,   -3.243589e+00
   10413,   -5.026854e+00,    1.237978e+01,   -2.413361e+00
   10414,   -2.829203e+00,    1.600000e+01,   -3.243589e+00
   10415,   -5.026854e+00,    1.600000e+01,   -2.413361e+00
   10416,   -3.200000e+01,    5.333333e+00,   -3.200000e+01
   10417,   -2.800000e+01,    5.333333e+00,   -3.200000e+01
   10418,   -2.400000e+01,    5.333333e+00,   -3.200000e+01
   10419,   -2.000000e+01,    5.333333e+00,   -3.200000e+01
   10420,   -1.600000e+01,    5.333333e+00,   -3.200000e+01
   10421,   -1.200000e+01,    5.333333e+00,   -3.200000e+01
   10422,   -8.000000e+00,    5.333333e+00,   -3.200000e+01
   10423,   -4.000000e+00,    5.333333e+00,   -3.200000e+01
   10424,   -3.200000e+01,    5.333333e+00,    0.000000e+00
   10425,   -3.200000e+01,    5.333333e+00,   -3.555556e+00
   10426,   -3.200000e+01,    5.333333e+00,   -7.111111e+00
   10427,   -3.200000e+01,    5.333333e+00,   -1.066667e+01
   10428,   -3.200000e+01,    5.333333e+00,   -1.422222e+01
   10429,   -3.200000e+01,    5.333333e+00,   -1.777778e+01
   10430,   -3.200000e+01,    5.333333e+00,   -2.133333e+01
   10431,   -3.200000e+01,    5.333333e+00,   -2.488889e+01
   10432,   -3.200000e+01,    5.333333e+00,   -2.844444e+01
   10433,   -1.200000e+01,    5.333333e+00,    0.000000e+00
   10434,   -1.600000e+01,    5.333333e+00,    0.000000e+00
   10435,   -2.000000e+01,    5.333333e+00,    0.000000e+00
   10436,   -2.400000e+01,    5.333333e+00,    0.000000e+00
   10437,   -2.800000e+01,    5.333333e+00,    0.000000e+00
   10438,   -2.810168e+01,    5.333333e+00,   -2.842024e+01
   10439,   -2.817692e+01,    5.333333e+00,   -2.486734e+01
   10440,   -2.824521e+01,    5.333333e+00,   -2.133006e+01
   10441,   -2.832324e+01,    5.333333e+00,   -1.779648e+01
   10442,   -2.837608e+01,    5.333333e+00,   -1.427497e+01
   10443,   -2.835621e+01,    5.333333e+00,   -1.075696e+01
   10444,   -2.824476e+01,    5.333333e+00,   -7.218385e+00
   10445,   -2.809699e+01,    5.333333e+00,   -3.623012e+00
   10446,   -6.115298e+00,    5.333333e+00,   -1.074548e+01
   10447,   -4.971915e+00,    5.333333e+00,   -1.583653e+01
   10448,   -4.445702e+00,    5.333333e+00,   -2.009730e+01
   10449,   -4.191903e+00,    5.333333e+00,   -2.410085e+01
   10450,   -4.077926e+00,    5.333333e+00,   -2.806510e+01
   10451,   -2.415753e+01,    5.333333e+00,   -3.702511e+00
   10452,   -2.025184e+01,    5.333333e+00,   -3.836006e+00
   10453,   -1.611513e+01,    5.333333e+00,   -4.193864e+00
   10454,   -1.111514e+01,    5.333333e+00,   -5.459440e+00
   10455,   -8.141415e+00,    5.333333e+00,   -2.816118e+01
   10456,   -1.219346e+01,    5.333333e+00,   -2.827351e+01
   10457,   -1.623036e+01,    5.333333e+00,   -2.834176e+01
   10458,   -2.023601e+01,    5.333333e+00,   -2.836744e+01
   10459,   -2.417631e+01,    5.333333e+00,   -2.840096e+01
   10460,   -2.432790e+01,    5.333333e+00,   -2.483605e+01
   10461,   -2.448652e+01,    5.333333e+00,   -2.130537e+01
   10462,   -2.465907e+01,    5.333333e+00,   -1.780334e+01
   10463,   -2.478686e+01,    5.333333e+00,   -1.432356e+01
   10464,   -2.473746e+01,    5.333333e+00,   -1.084324e+01
   10465,   -2.445805e+01,    5.333333e+00,   -7.311066e+00
   10466,   -8.329470e+00,    5.333333e+00,   -2.432318e+01
   10467,   -1.242700e+01,    5.333333e+00,   -2.457638e+01
   10468,   -1.648244e+01,    5.333333e+00,   -2.471661e+01
   10469,   -2.044109e+01,    5.333333e+00,   -2.479215e+01
   10470,   -2.073794e+01,    5.333333e+00,   -7.472816e+00
   10471,   -1.701334e+01,    5.333333e+00,   -7.988912e+00
   10472,   -1.347176e+01,    5.333333e+00,   -9.289633e+00
   10473,   -1.091751e+01,    5.333333e+00,   -1.253857e+01
   10474,   -9.455376e+00,    5.333333e+00,   -1.650098e+01
   10475,   -8.771335e+00,    5.333333e+00,   -2.044300e+01
   10476,   -2.068547e+01,    5.333333e+00,   -2.126486e+01
   10477,   -2.098036e+01,    5.333333e+00,   -1.778614e+01
   10478,   -2.112516e+01,    5.333333e+00,   -1.432703e+01
   10479,   -2.112485e+01,    5.333333e+00,   -1.093143e+01
   10480,   -1.776305e+01,    5.333333e+00,   -1.107779e+01
   10481,   -1.516459e+01,    5.333333e+00,   -1.143430e+01
   10482,   -1.425895e+01,    5.333333e+00,   -1.393548e+01
   10483,   -1.345700e+01,    5.333333e+00,   -1.724809e+01
   10484,   -1.287449e+01,    5.333333e+00,   -2.085451e+01
   10485,   -1.680595e+01,    5.333333e+00,   -2.114977e+01
   10486,   -1.761916e+01,    5.333333e+00,   -1.425846e+01
   10487,   -1.722000e+01,    5.333333e+00,   -1.761839e+01
   10488,   -3.200000e+01,    1.600000e+01,    0.000000e+00
   10489,   -1.200000e+01,    1.600000e+01,    0.000000e+00
   10490,   -1.600000e+01,    1.600000e+01,    0.000000e+00
   10491,   -2.000000e+01,    1.600000e+01,    0.000000e+00
   10492,   -2.400000e+01,    1.600000e+01,    0.000000e+00
   10493,   -2.800000e+01,    1.600000e+01,    0.000000e+00
   10494,   -3.200000e+01,    1.244444e+01,    0.000000e+00
   10495,   -3.200000e+01,    8.888889e+00,    0.000000e+00
   10496,   -2.800000e+01,    8.888889e+00,    0.000000e+00
   10497,   -2.400000e+01,    8.888889e+00,    0.000000e+00
   10498,   -2.000000e+01,    8.888889e+00,    0.000000e+00
   10499,   -1.600000e+01,    8.888889e+00,    0.000000e+00
   10500,   -1.200000e+01,    8.888889e+00,    0.000000e+00
   10501,   -2.800000e+01,    1.244444e+01,    0.000000e+00
   10502,   -2.400000e+01,    1.244444e+01,    0.000000e+00
   10503,   -2.000000e+01,    1.244444e+01,    0.000000e+00
   10504,   -1.600000e+01,    1.244444e+01,    0.000000e+00
   10505,   -1.200000e+01,    1.244444e+01,    0.000000e+00
   10506,   -3.200000e+01,    1.600000e+01,   -3.200000e+01
   10507,   -3.200000e+01,    8.888889e+00,   -3.200000e+01
   10508,   -3.200000e+01,    1.244444e+01,   -3.200000e+01
   10509,   -2.800000e+01,    1.600000e+01,   -3.200000e+01
   10510,   -2.400000e+01,    1.600000e+01,   -3.200000e+01
   10511,   -2.000000e+01,    1.600000e+01,   -3.200000e+01
   10512,   -1.600000e+01,    1.600000e+01,   -3.200000e+01
   10513,   -1.200000e+01,    1.600000e+01,   -3.200000e+01
   10514,   -8.000000e+00,    1.600000e+01,   -3.200000e+01
   10515,   -4.000000e+00,    1.600000e+01,   -3.200000e+01
   10516,   -4.000000e+00,    1.244444e+01,   -3.200000e+01
   10517,   -4.000000e+00,    8.888889e+00,   -3.200000e+01
   10518,   -8.000000e+00,    1.244444e+01,   -3.200000e+01
   10519,   -8.000000e+00,    8.888889e+00,   -3.200000e+01
   10520,   -1.200000e+01,    1.244444e+01,   -3.200000e+01
   10521,   -1.200000e+01,    8.888889e+00,   -3.200000e+01
   10522,   -1.600000e+01,    1.244444e+01,   -3.200000e+01
   10523,   -1.600000e+01,    8.888889e+00,   -3.200000e+01
   10524,   -2.000000e+01,    1.244444e+01,   -3.200000e+01
   10525,   -2.000000e+01,    8.888889e+00,   -3.200000e+01
   10526,   -2.400000e+01,    1.244444e+01,   -3.200000e+01
   10527,   -2.400000e+01,    8.888889e+00,   -3.200000e+01
   10528,   -2.800000e+01,    1.244444e+01,   -3.200000e+01
   10529,   -2.800000e+01,    8.888889e+00,   -3.200000e+01
   10530,   -3.200000e+01,    1.600000e+01,   -3.555556e+00
   10531,   -3.200000e+01,    1.600000e+01,   -7.111111e+00
   10532,   -3.200000e+01,    1.600000e+01,   -1.066667e+01
   10533,   -3.200000e+01,    1.600000e+01,   -1.422222e+01
   10534,   -3.200000e+01,    1.600000e+01,   -1.777778e+01
   10535,   -3.200000e+01,    1.600000e+01,   -2.133333e+01
   10536,   -3.200000e+01,    1.600000e+01,   -2.488889e+01
   10537,   -3.200000e+01,    1.600000e+01,   -2.844444e+01
   10538,   -3.200000e+01,    8.888889e+00,   -3.555556e+00
   10539,   -3.200000e+01,    1.244444e+01,   -3.555556e+00
   10540,   -3.200000e+01,    8.888889e+00,   -7.111111e+00
   10541,   -3.200000e+01,    1.244444e+01,   -7.111111e+00
   10542,   -3.200000e+01,    8.888889e+00,   -1.066667e+01
   10543,   -3.200000e+01,    1.244444e+01,   -1.066667e+01
   10544,   -3.200000e+01,    8.888889e+00,   -1.422222e+01
   10545,   -3.200000e+01,    1.244444e+01,   -1.422222e+01
   10546,   -3.200000e+01,    8.888889e+00,   -1.777778e+01
   10547,   -3.200000e+01,    1.244444e+01,   -1.777778e+01
   10548,   -3.200000e+01,    8.888889e+00,   -2.133333e+01
   10549,   -3.200000e+01,    1.244444e+01,   -2.133333e+01
   10550,   -3.200000e+01,    8.888889e+00,   -2.488889e+01
   10551,   -3.200000e+01,    1.244444e+01,   -2.488889e+01
   10552,   -3.200000e+01,    8.888889e+00,   -2.844444e+01
   10553,   -3.200000e+01,    1.244444e+01,   -2.844444e+01
   10554,   -2.810168e+01,    8.888889e+00,   -2.842024e+01
   10555,   -2.817692e+01,    8.888889e+00,   -2.486734e+01
   10556,   -2.824521e+01,    8.888889e+00,   -2.133006e+01
   10557,   -2.832324e+01,    8.888889e+00,   -1.779648e+01
   10558,   -2.837608e+01,    8.888889e+00,   -1.427497e+01
   10559,   -2.835621e+01,    8.888889e+00,   -1.075696e+01
   10560,   -2.824476e+01,    8.888889e+00,   -7.218385e+00
   10561,   -2.809699e+01,    8.888889e+00,   -3.623012e+00
   10562,   -6.115298e+00,    8.888889e+00,   -1.074548e+01
   10563,   -4.971915e+00,    8.888889e+00,   -1.583653e+01
   10564,   -4.445702e+00,    8.888889e+00,   -2.009730e+01
   10565,   -4.191903e+00,    8.888889e+00,   -2.410085e+01
   10566,   -4.077926e+00,    8.888889e+00,   -2.806510e+01
   10567,   -2.415753e+01,    8.888889e+00,   -3.702511e+00
   10568,   -2.025184e+01,    8.888889e+00,   -3.836006e+00
   10569,   -1.611513e+01,    8.888889e+00,   -4.193864e+00
   10570,   -1.111514e+01,    8.888889e+00,   -5.459440e+00
   10571,   -8.141415e+00,    8.888889e+00,   -2.816118e+01
   10572,   -1.219346e+01,    8.888889e+00,   -2.827351e+01
   10573,   -1.623036e+01,    8.888889e+00,   -2.834176e+01
   10574,   -2.023601e+01,    8.888889e+00,   -2.836744e+01
   10575,   -2.417631e+01,    8.888889e+00,   -2.840096e+01
   10576,   -2.432790e+01,    8.888889e+00,   -2.483605e+01
   10577,   -2.448652e+01,    8.888889e+00,   -2.130537e+01
   10578,   -2.465907e+01,    8.888889e+00,   -1.780334e+01
   10579,   -2.478686e+01,    8.888889e+00,   -1.432356e+01
   10580,   -2.473746e+01,    8.888889e+00,   -1.084324e+01
   10581,   -2.445805e+01,    8.888889e+00,   -7.311066e+00
   10582,   -8.329470e+00,    8.888889e+00,   -2.432318e+01
   10583,   -1.242700e+01,    8.888889e+00,   -2.457638e+01
   10584,   -1.648244e+01,    8.888889e+00,   -2.471661e+01
   10585,   -2.044109e+01,    8.888889e+00,   -2.479215e+01
   10586,   -2.073794e+01,    8.888889e+00,   -7.472816e+00
   10587,   -1.701334e+01,    8.888889e+00,   -7.988912e+00
   10588,   -1.347176e+01,    8.888889e+00,   -9.289633e+00
   10589,   -1.091751e+01,    8.888889e+00,   -1.253857e+01
   10590,   -9.455376e+00,    8.888889e+00,   -1.650098e+01
   10591,   -8.771335e+00,    8.888889e+00,   -2.044300e+01
   10592,   -2.068547e+01,    8.888889e+00,   -2.126486e+01
   10593,   -2.098036e+01,    8.888889e+00,   -1.778614e+01
   10594,   -2.112516e+01,    8.888889e+00,   -1.432703e+01
   10595,   -2.112485e+01,    8.888889e+00,   -1.093143e+01
   10596,   -1.776305e+01,    8.888889e+00,   -1.107779e+01
   10597,   -1.516459e+01,    8.888889e+00,   -1.143430e+01
   10598,   -1.425895e+01,    8.888889e+00,   -1.393548e+01
   10599,   -1.345700e+01,    8.888889e+00,   -1.724809e+01
   10600,   -1.287449e+01,    8.888889e+00,   -2.085451e+01
   10601,   -1.680595e+01,    8.888889e+00,   -2.114977e+01
   10602,   -1.761916e+01,    8.888889e+00,   -1.425846e+01
   10603,   -1.722000e+01,    8.888889e+00,   -1.761839e+01
   10604,   -2.810168e+01,    1.244444e+01,   -2.842024e+01
   10605,   -2.817692e+01,    1.244444e+01,   -2.486734e+01
   10606,   -2.824521e+01,    1.244444e+01,   -2.133006e+01
   10607,   -2.832324e+01,    1.244444e+01,   -1.779648e+01
   10608,   -2.837608e+01,    1.244444e+01,   -1.427497e+01
   10609,   -2.835621e+01,    1.244444e+01,   -1.075696e+01
   10610,   -2.824476e+01,    1.244444e+01,   -7.218385e+00
   10611,   -2.809699e+01,    1.244444e+01,   -3.623012e+00
   10612,   -6.115298e+00,    1.244444e+01,   -1.074548e+01
   10613,   -4.971915e+00,    1.244444e+01,   -1.583653e+01
   10614,   -4.445702e+00,    1.244444e+01,   -2.009730e+01
   10615,   -4.191903e+00,    1.244444e+01,   -2.410085e+01
   10616,   -4.077926e+00,    1.244444e+01,   -2.806510e+01
   10617,   -2.415753e+01,    1.244444e+01,   -3.702511e+00
   10618,   -2.025184e+01,    1.244444e+01,   -3.836006e+00
   10619,   -1.611513e+01,    1.244444e+01,   -4.193864e+00
   10620,   -1.111514e+01,    1.244444e+01,   -5.459440e+00
   10621,   -8.141415e+00,    1.244444e+01,   -2.816118e+01
   10622,   -1.219346e+01,    1.244444e+01,   -2.827351e+01
   10623,   -1.623036e+01,    1.244444e+01,   -2.834176e+01
   10624,   -2.023601e+01,    1.244444e+01,   -2.836744e+01
   10625,   -2.417631e+01,    1.244444e+01,   -2.840096e+01
   10626,   -2.432790e+01,    1.244444e+01,   -2.483605e+01
   10627,   -2.448652e+01,    1.244444e+01,   -2.130537e+01
   10628,   -2.465907e+01,    1.244444e+01,   -1.780334e+01
   10629,   -2.478686e+01,    1.244444e+01,   -1.432356e+01
   10630,   -2.473746e+01,    1.244444e+01,   -1.084324e+01
   10631,   -2.445805e+01,    1.244444e+01,   -7.311066e+00
   10632,   -8.329470e+00,    1.244444e+01,   -2.432318e+01
   10633,   -1.242700e+01,    1.244444e+01,   -2.457638e+01
   10634,   -1.648244e+01,    1.244444e+01,   -2.471661e+01
   10635,   -2.044109e+01,    1.244444e+01,   -2.479215e+01
   10636,   -2.073794e+01,    1.244444e+01,   -7.472816e+00
   10637,   -1.701334e+01,    1.244444e+01,   -7.988912e+00
   10638,   -1.347176e+01,    1.244444e+01,   -9.289633e+00
   10639,   -1.091751e+01,    1.244444e+01,   -1.253857e+01
   10640,   -9.455376e+00,    1.244444e+01,   -1.650098e+01
   10641,   -8.771335e+00,    1.244444e+01,   -2.044300e+01
   10642,   -2.068547e+01,    1.244444e+01,   -2.126486e+01
   10643,   -2.098036e+01,    1.244444e+01,   -1.778614e+01
   10644,   -2.112516e+01,    1.244444e+01,   -1.432703e+01
   10645,   -2.112485e+01,    1.244444e+01,   -1.093143e+01
   10646,   -1.776305e+01,    1.244444e+01,   -1.107779e+01
   10647,   -1.516459e+01,    1.244444e+01,   -1.143430e+01
   10648,   -1.425895e+01,    1.244444e+01,   -1.393548e+01
   10649,   -1.345700e+01,    1.244444e+01,   -1.724809e+01
   10650,   -1.287449e+01,    1.244444e+01,   -2.085451e+01
   10651,   -1.680595e+01,    1.244444e+01,   -2.114977e+01
   10652,   -1.761916e+01,    1.244444e+01,   -1.425846e+01
   10653,   -1.722000e+01,    1.244444e+01,   -1.761839e+01
   10654,   -2.810168e+01,    1.600000e+01,   -2.842024e+01
   10655,   -2.817692e+01,    1.600000e+01,   -2.486734e+01
   10656,   -2.824521e+01,    1.600000e+01,   -2.133006e+01
   10657,   -2.832324e+01,    1.600000e+01,   -1.779648e+01
   10658,   -2.837608e+01,    1.600000e+01,   -1.427497e+01
   10659,   -2.835621e+01,    1.600000e+01,   -1.075696e+01
   10660,   -2.824476e+01,    1.600000e+01,   -7.218385e+00
   10661,   -2.809699e+01,    1.600000e+01,   -3.623012e+00
   10662,   -6.115298e+00,    1.600000e+01,   -1.074548e+01
   10663,   -4.971915e+00,    1.600000e+01,   -1.583653e+01
   10664,   -4.445702e+00,    1.600000e+01,   -2.009730e+01
   10665,   -4.191903e+00,    1.600000e+01,   -2.410085e+01
   10666,   -4.077926e+00,    1.600000e+01,   -2.806510e+01
   10667,   -2.415753e+01,    1.600000e+01,   -3.702511e+00
   10668,   -2.025184e+01,    1.600000e+01,   -3.836006e+00
   10669,   -1.611513e+01,    1.600000e+01,   -4.193864e+00
   10670,   -1.111514e+01,    1.600000e+01,   -5.459440e+00
   10671,   -8.141415e+00,    1.600000e+01,   -2.816118e+01
   10672,   -1.219346e+01,    1.600000e+01,   -2.827351e+01
   10673,   -1.623036e+01,    1.600000e+01,   -2.834176e+01
   10674,   -2.023601e+01,    1.600000e+01,   -2.836744e+01
   10675,   -2.417631e+01,    1.600000e+01,   -2.840096e+01
   10676,   -2.432790e+01,    1.600000e+01,   -2.483605e+01
   10677,   -2.448652e+01,    1.600000e+01,   -2.130537e+01
   10678,   -2.465907e+01,    1.600000e+01,   -1.780334e+01
   10679,   -2.478686e+01,    1.600000e+01,   -1.432356e+01
   10680,   -2.473746e+01,    1.600000e+01,   -1.084324e+01
   10681,   -2.445805e+01,    1.600000e+01,   -7.311066e+00
   10682,   -8.329470e+00,    1.600000e+01,   -2.432318e+01
   10683,   -1.242700e+01,    1.600000e+01,   -2.457638e+01
   10684,   -1.648244e+01,    1.600000e+01,   -2.471661e+01
   10685,   -2.044109e+01,    1.600000e+01,   -2.479215e+01
   10686,   -2.073794e+01,    1.600000e+01,   -7.472816e+00
   10687,   -1.701334e+01,    1.600000e+01,   -7.988912e+00
   10688,   -1.347176e+01,    1.600000e+01,   -9.289633e+00
   10689,   -1.091751e+01,    1.600000e+01,   -1.253857e+01
   10690,   -9.455376e+00,    1.600000e+01,   -1.650098e+01
   10691,   -8.771335e+00,    1.600000e+01,   -2.044300e+01
   10692,   -2.068547e+01,    1.600000e+01,   -2.126486e+01
   10693,   -2.098036e+01,    1.600000e+01,   -1.778614e+01
   10694,   -2.112516e+01,    1.600000e+01,   -1.432703e+01
   10695,   -2.112485e+01,    1.600000e+01,   -1.093143e+01
   10696,   -1.776305e+01,    1.600000e+01,   -1.107779e+01
   10697,   -1.516459e+01,    1.600000e+01,   -1.143430e+01
   10698,   -1.425895e+01,    1.600000e+01,   -1.393548e+01
   10699,   -1.345700e+01,    1.600000e+01,   -1.724809e+01
   10700,   -1.287449e+01,    1.600000e+01,   -2.085451e+01
   10701,   -1.680595e+01,    1.600000e+01,   -2.114977e+01
   10702,   -1.761916e+01,    1.600000e+01,   -1.425846e+01
   10703,   -1.722000e+01,    1.600000e+01,   -1.761839e+01
   10704,   -3.200000e+01,    0.000000e+00,    0.000000e+00
   10705,   -2.800000e+01,    0.000000e+00,    0.000000e+00
   10706,   -2.400000e+01,    0.000000e+00,    0.000000e+00
   10707,   -2.000000e+01,    0.000000e+00,    0.000000e+00
   10708,   -1.600000e+01,    0.000000e+00,    0.000000e+00
   10709,   -1.200000e+01,    0.000000e+00,    0.000000e+00
   10710,   -3.200000e+01,    0.000000e+00,   -3.200000e+01
   10711,   -3.200000e+01,    0.000000e+00,   -3.555556e+00
   10712,   -3.200000e+01,    0.000000e+00,   -7.111111e+00
   10713,   -3.200000e+01,    0.000000e+00,   -1.066667e+01
   10714,   -3.200000e+01,    0.000000e+00,   -1.422222e+01
   10715,   -3.200000e+01,    0.000000e+00,   -1.777778e+01
   10716,   -3.200000e+01,    0.000000e+00,   -2.133333e+01
   10717,   -3.200000e+01,    0.000000e+00,   -2.488889e+01
   10718,   -3.200000e+01,    0.000000e+00,   -2.844444e+01
   10719,   -4.000000e+00,    0.000000e+00,   -3.200000e+01
   10720,   -8.000000e+00,    0.000000e+00,   -3.200000e+01
   10721,   -1.200000e+01,    0.000000e+00,   -3.200000e+01
   10722,   -1.600000e+01,    0.000000e+00,   -3.200000e+01
   10723,   -2.000000e+01,    0.000000e+00,   -3.200000e+01
   10724,   -2.400000e+01,    0.000000e+00,   -3.200000e+01
   10725,   -2.800000e+01,    0.000000e+00,   -3.200000e+01
   10726,   -2.810168e+01,    0.000000e+00,   -2.842024e+01
   10727,   -2.817692e+01,    0.000000e+00,   -2.486734e+01
   10728,   -2.824521e+01,    0.000000e+00,   -2.133006e+01
   10729,   -2.832324e+01,    0.000000e+00,   -1.779648e+01
   10730,   -2.837608e+01,    0.000000e+00,   -1.427497e+01
   10731,   -2.835621e+01,    0.000000e+00,   -1.075696e+01
   10732,   -2.824476e+01,    0.000000e+00,   -7.218385e+00
   10733,   -2.809699e+01,    0.000000e+00,   -3.623012e+00
   10734,   -6.115298e+00,    0.000000e+00,   -1.074548e+01
   10735,   -4.971915e+00,    0.000000e+00,   -1.583653e+01
   10736,   -4.445702e+00,    0.000000e+00,   -2.009730e+01
   10737,   -4.191903e+00,    0.000000e+00,   -2.410085e+01
   10738,   -4.077926e+00,    0.000000e+00,   -2.806510e+01
   10739,   -2.415753e+01,    0.000000e+00,   -3.702511e+00
   10740,   -2.025184e+01,    0.000000e+00,   -3.836006e+00
   10741,   -1.611513e+01,    0.000000e+00,   -4.193864e+00
   10742,   -1.111514e+01,    0.000000e+00,   -5.459440e+00
   10743,   -8.141415e+00,    0.000000e+00,   -2.816118e+01
   10744,   -1.219346e+01,    0.000000e+00,   -2.827351e+01
   10745,   -1.623036e+01,    0.000000e+00,   -2.834176e+01
   10746,   -2.023601e+01,    0.000000e+00,   -2.836744e+01
   10747,   -2.417631e+01,    0.000000e+00,   -2.840096e+01
   10748,   -2.432790e+01,    0.000000e+00,   -2.483605e+01
   10749,   -2.448652e+01,    0.000000e+00,   -2.130537e+01
   10750,   -2.465907e+01,    0.000000e+00,   -1.780334e+01
   10751,   -2.478686e+01,    0.000000e+00,   -1.432356e+01
   10752,   -2.473746e+01,    0.000000e+00,   -1.084324e+01
   10753,   -2.445805e+01,    0.000000e+00,   -7.311066e+00
   10754,   -8.329470e+00,    0.000000e+00,   -2.432318e+01
   10755,   -1.242700e+01,    0.000000e+00,   -2.457638e+01
   10756,   -1.648244e+01,    0.000000e+00,   -2.471661e+01
   10757,   -2.044109e+01,    0.000000e+00,   -2.479215e+01
   10758,   -2.073794e+01,    0.000000e+00,   -7.472816e+00
   10759,   -1.701334e+01,    0.000000e+00,   -7.988912e+00
   10760,   -1.347176e+01,    0.000000e+00,   -9.289633e+00
   10761,   -1.091751e+01,    0.000000e+00,   -1.253857e+01
   10762,   -9.455376e+00,    0.000000e+00,   -1.650098e+01
   10763,   -8.771335e+00,    0.000000e+00,   -2.044300e+01
   10764,   -2.068547e+01,    0.000000e+00,   -2.126486e+01
   10765,   -2.098036e+01,    0.000000e+00,   -1.778614e+01
   10766,   -2.112516e+01,    0.000000e+00,   -1.432703e+01
   10767,   -2.112485e+01,    0.000000e+00,   -1.093143e+01
   10768,   -1.776305e+01,    0.000000e+00,   -1.107779e+01
   10769,   -1.516459e+01,    0.000000e+00,   -1.143430e+01
   10770,   -1.425895e+01,    0.000000e+00,   -1.393548e+01
   10771,   -1.345700e+01,    0.000000e+00,   -1.724809e+01
   10772,   -1.287449e+01,    0.000000e+00,   -2.085451e+01
   10773,   -1.680595e+01,    0.000000e+00,   -2.114977e+01
   10774,   -1.761916e+01,    0.000000e+00,   -1.425846e+01
   10775,   -1.722000e+01,    0.000000e+00,   -1.761839e+01
   10976,    0.000000e+00,   -5.510911e-16,   -9.000000e+00
   10977,    0.000000e+00,   -4.898587e-16,   -8.000000e+00
   10978,    0.000000e+00,   -5.000000e+01,   -9.000000e+00
   10979,    0.000000e+00,   -4.615385e+01,   -9.000000e+00
   10980,    0.000000e+00,   -4.230769e+01,   -9.000000e+00
   10981,    0.000000e+00,   -3.846154e+01,   -9.000000e+00
   10982,    0.000000e+00,   -3.461538e+01,   -9.000000e+00
   10983,    0.000000e+00,   -3.076923e+01,   -9.000000e+00
   10984,    0.000000e+00,   -2.692308e+01,   -9.000000e+00
   10985,    0.000000e+00,   -2.307692e+01,   -9.000000e+00
   10986,    0.000000e+00,   -1.923077e+01,   -9.000000e+00
   10987,    0.000000e+00,   -1.538462e+01,   -9.000000e+00
   10988,    0.000000e+00,   -1.153846e+01,   -9.000000e+00
   10989,    0.000000e+00,   -7.692308e+00,   -9.000000e+00
   10990,    0.000000e+00,   -3.846154e+00,   -9.000000e+00
   10991,    0.000000e+00,   -5.000000e+01,   -8.000000e+00
   10992,    0.000000e+00,   -3.846154e+00,   -8.000000e+00
   10993,    0.000000e+00,   -7.692308e+00,   -8.000000e+00
   10994,    0.000000e+00,   -1.153846e+01,   -8.000000e+00
   10995,    0.000000e+00,   -1.538462e+01,   -8.000000e+00
   10996,    0.000000e+00,   -1.923077e+01,   -8.000000e+00
   10997,    0.000000e+00,   -2.307692e+01,   -8.000000e+00
   10998,    0.000000e+00,   -2.692308e+01,   -8.000000e+00
   10999,    0.000000e+00,   -3.076923e+01,   -8.000000e+00
   11000,    0.000000e+00,   -3.461538e+01,   -8.000000e+00
   11001,    0.000000e+00,   -3.846154e+01,   -8.000000e+00
   11002,    0.000000e+00,   -4.230769e+01,   -8.000000e+00
   11003,    0.000000e+00,   -4.615385e+01,   -8.000000e+00
   11004,    9.000000e+00,   -5.000000e+01,    1.530808e-15
   11005,    4.500000e+00,   -5.000000e+01,   -7.794229e+00
   11006,    7.794229e+00,   -5.000000e+01,   -4.500000e+00
   11007,    8.000000e+00,   -5.000000e+01,    1.530808e-15
   11008,    6.928203e+00,   -5.000000e+01,   -4.000000e+00
   11009,    4.000000e+00,   -5.000000e+01,   -6.928203e+00
   11010,    9.000000e+00,    0.000000e+00,   -1.530808e-15
   11011,    7.794229e+00,   -2.755455e-16,   -4.500000e+00
   11012,    4.500000e+00,   -4.772589e-16,   -7.794229e+00
   11013,    9.000000e+00,   -4.615385e+01,    1.295299e-15
   11014,    9.000000e+00,   -4.230769e+01,    1.059790e-15
   11015,    9.000000e+00,   -3.846154e+01,    8.242815e-16
   11016,    9.000000e+00,   -3.461538e+01,    5.887725e-16
   11017,    9.000000e+00,   -3.076923e+01,    3.532635e-16
   11018,    9.000000e+00,   -2.692308e+01,    1.177545e-16
   11019,    9.000000e+00,   -2.307692e+01,   -1.177545e-16
   11020,    9.000000e+00,   -1.923077e+01,   -3.532635e-16
   11021,    9.000000e+00,   -1.538462e+01,   -5.887725e-16
   11022,    9.000000e+00,   -1.153846e+01,   -8.242815e-16
   11023,    9.000000e+00,   -7.692308e+00,   -1.059790e-15
   11024,    9.000000e+00,   -3.846154e+00,   -1.295299e-15
   11025,    4.500000e+00,   -4.615385e+01,   -7.794229e+00
   11026,    4.500000e+00,   -4.230769e+01,   -7.794229e+00
   11027,    4.500000e+00,   -3.846154e+01,   -7.794229e+00
   11028,    4.500000e+00,   -3.461538e+01,   -7.794229e+00
   11029,    4.500000e+00,   -3.076923e+01,   -7.794229e+00
   11030,    4.500000e+00,   -2.692308e+01,   -7.794229e+00
   11031,    4.500000e+00,   -2.307692e+01,   -7.794229e+00
   11032,    4.500000e+00,   -1.923077e+01,   -7.794229e+00
   11033,    4.500000e+00,   -1.538462e+01,   -7.794229e+00
   11034,    4.500000e+00,   -1.153846e+01,   -7.794229e+00
   11035,    4.500000e+00,   -7.692308e+00,   -7.794229e+00
   11036,    4.500000e+00,   -3.846154e+00,   -7.794229e+00
   11037,    7.794229e+00,   -4.615385e+01,   -4.500000e+00
   11038,    7.794229e+00,   -4.230769e+01,   -4.500000e+00
   11039,    7.794229e+00,   -3.846154e+01,   -4.500000e+00
   11040,    7.794229e+00,   -3.461538e+01,   -4.500000e+00
   11041,    7.794229e+00,   -3.076923e+01,   -4.500000e+00
   11042,    7.794229e+00,   -2.692308e+01,   -4.500000e+00
   11043,    7.794229e+00,   -2.307692e+01,   -4.500000e+00
   11044,    7.794229e+00,   -1.923077e+01,   -4.500000e+00
   11045,    7.794229e+00,   -1.538462e+01,   -4.500000e+00
   11046,    7.794229e+00,   -1.153846e+01,   -4.500000e+00
   11047,    7.794229e+00,   -7.692308e+00,   -4.500000e+00
   11048,    7.794229e+00,   -3.846154e+00,   -4.500000e+00
   11049,    8.000000e+00,    0.000000e+00,   -1.530808e-15
   11050,    8.000000e+00,   -3.846154e+00,   -1.295299e-15
   11051,    8.000000e+00,   -7.692308e+00,   -1.059790e-15
   11052,    8.000000e+00,   -1.153846e+01,   -8.242815e-16
   11053,    8.000000e+00,   -1.538462e+01,   -5.887725e-16
   11054,    8.000000e+00,   -1.923077e+01,   -3.532635e-16
   11055,    8.000000e+00,   -2.307692e+01,   -1.177545e-16
   11056,    8.000000e+00,   -2.692308e+01,    1.177545e-16
   11057,    8.000000e+00,   -3.076923e+01,    3.532635e-16
   11058,    8.000000e+00,   -3.461538e+01,    5.887725e-16
   11059,    8.000000e+00,   -3.846154e+01,    8.242815e-16
   11060,    8.000000e+00,   -4.230769e+01,    1.059790e-15
   11061,    8.000000e+00,   -4.615385e+01,    1.295299e-15
   11062,    4.000000e+00,   -4.242301e-16,   -6.928203e+00
   11063,    6.928203e+00,   -2.449294e-16,   -4.000000e+00
   11064,    4.000000e+00,   -3.846154e+00,   -6.928203e+00
   11065,    4.000000e+00,   -7.692308e+00,   -6.928203e+00
   11066,    4.000000e+00,   -1.153846e+01,   -6.928203e+00
   11067,    4.000000e+00,   -1.538462e+01,   -6.928203e+00
   11068,    4.000000e+00,   -1.923077e+01,   -6.928203e+00
   11069,    4.000000e+00,   -2.307692e+01,   -6.928203e+00
   11070,    4.000000e+00,   -2.692308e+01,   -6.928203e+00
   11071,    4.000000e+00,   -3.076923e+01,   -6.928203e+00
   11072,    4.000000e+00,   -3.461538e+01,   -6.928203e+00
   11073,    4.000000e+00,   -3.846154e+01,   -6.928203e+00
   11074,    4.000000e+00,   -4.230769e+01,   -6.928203e+00
   11075,    4.000000e+00,   -4.615385e+01,   -6.928203e+00
   11076,    6.928203e+00,   -3.846154e+00,   -4.000000e+00
   11077,    6.928203e+00,   -7.692308e+00,   -4.000000e+00
   11078,    6.928203e+00,   -1.153846e+01,   -4.000000e+00
   11079,    6.928203e+00,   -1.538462e+01,   -4.000000e+00
   11080,    6.928203e+00,   -1.923077e+01,   -4.000000e+00
   11081,    6.928203e+00,   -2.307692e+01,   -4.000000e+00
   11082,    6.928203e+00,   -2.692308e+01,   -4.000000e+00
   11083,    6.928203e+00,   -3.076923e+01,   -4.000000e+00
   11084,    6.928203e+00,   -3.461538e+01,   -4.000000e+00
   11085,    6.928203e+00,   -3.846154e+01,   -4.000000e+00
   11086,    6.928203e+00,   -4.230769e+01,   -4.000000e+00
   11087,    6.928203e+00,   -4.615385e+01,   -4.000000e+00
   12668,   -8.000000e+00,    9.373499e-32,    0.000000e+00
   12669,   -6.928203e+00,   -2.449294e-16,   -4.000000e+00
   12670,   -4.000000e+00,   -4.242301e-16,   -6.928203e+00
   12671,   -8.000000e+00,   -5.000000e+01,    0.000000e+00
   12672,   -8.000000e+00,   -4.615385e+01,    1.295299e-15
   12673,   -8.000000e+00,   -4.230769e+01,    1.059790e-15
   12674,   -8.000000e+00,   -3.846154e+01,    8.242815e-16
   12675,   -8.000000e+00,   -3.461538e+01,    5.887725e-16
   12676,   -8.000000e+00,   -3.076923e+01,    3.532635e-16
   12677,   -8.000000e+00,   -2.692308e+01,    1.177545e-16
   12678,   -8.000000e+00,   -2.307692e+01,   -1.177545e-16
   12679,   -8.000000e+00,   -1.923077e+01,   -3.532635e-16
   12680,   -8.000000e+00,   -1.538462e+01,   -5.887725e-16
   12681,   -8.000000e+00,   -1.153846e+01,   -8.242815e-16
   12682,   -8.000000e+00,   -7.692308e+00,   -1.059790e-15
   12683,   -8.000000e+00,   -3.846154e+00,   -1.295299e-15
   12684,   -4.000000e+00,   -5.000000e+01,   -6.928203e+00
   12685,   -6.928203e+00,   -5.000000e+01,   -4.000000e+00
   12686,   -4.000000e+00,   -4.615385e+01,   -6.928203e+00
   12687,   -4.000000e+00,   -4.230769e+01,   -6.928203e+00
   12688,   -4.000000e+00,   -3.846154e+01,   -6.928203e+00
   12689,   -4.000000e+00,   -3.461538e+01,   -6.928203e+00
   12690,   -4.000000e+00,   -3.076923e+01,   -6.928203e+00
   12691,   -4.000000e+00,   -2.692308e+01,   -6.928203e+00
   12692,   -4.000000e+00,   -2.307692e+01,   -6.928203e+00
   12693,   -4.000000e+00,   -1.923077e+01,   -6.928203e+00
   12694,   -4.000000e+00,   -1.538462e+01,   -6.928203e+00
   12695,   -4.000000e+00,   -1.153846e+01,   -6.928203e+00
   12696,   -4.000000e+00,   -7.692308e+00,   -6.928203e+00
   12697,   -4.000000e+00,   -3.846154e+00,   -6.928203e+00
   12698,   -6.928203e+00,   -4.615385e+01,   -4.000000e+00
   12699,   -6.928203e+00,   -4.230769e+01,   -4.000000e+00
   12700,   -6.928203e+00,   -3.846154e+01,   -4.000000e+00
   12701,   -6.928203e+00,   -3.461538e+01,   -4.000000e+00
   12702,   -6.928203e+00,   -3.076923e+01,   -4.000000e+00
   12703,   -6.928203e+00,   -2.692308e+01,   -4.000000e+00
   12704,   -6.928203e+00,   -2.307692e+01,   -4.000000e+00
   12705,   -6.928203e+00,   -1.923077e+01,   -4.000000e+00
   12706,   -6.928203e+00,   -1.538462e+01,   -4.000000e+00
   12707,   -6.928203e+00,   -1.153846e+01,   -4.000000e+00
   12708,   -6.928203e+00,   -7.692308e+00,   -4.000000e+00
   12709,   -6.928203e+00,   -3.846154e+00,   -4.000000e+00
   12710,   -9.000000e+00,    9.373499e-32,    0.000000e+00
   12711,   -4.500000e+00,   -4.772589e-16,   -7.794229e+00
   12712,   -7.794229e+00,   -2.755455e-16,   -4.500000e+00
   12713,   -9.000000e+00,   -5.000000e+01,    0.000000e+00
   12714,   -9.000000e+00,   -3.846154e+00,   -1.295299e-15
   12715,   -9.000000e+00,   -7.692308e+00,   -1.059790e-15
   12716,   -9.000000e+00,   -1.153846e+01,   -8.242815e-16
   12717,   -9.000000e+00,   -1.538462e+01,   -5.887725e-16
   12718,   -9.000000e+00,   -1.923077e+01,   -3.532635e-16
   12719,   -9.000000e+00,   -2.307692e+01,   -1.177545e-16
   12720,   -9.000000e+00,   -2.692308e+01,    1.177545e-16
   12721,   -9.000000e+00,   -3.076923e+01,    3.532635e-16
   12722,   -9.000000e+00,   -3.461538e+01,    5.887725e-16
   12723,   -9.000000e+00,   -3.846154e+01,    8.242815e-16
   12724,   -9.000000e+00,   -4.230769e+01,    1.059790e-15
   12725,   -9.000000e+00,   -4.615385e+01,    1.295299e-15
   12726,   -7.794229e+00,   -5.000000e+01,   -4.500000e+00
   12727,   -4.500000e+00,   -5.000000e+01,   -7.794229e+00
   12728,   -4.500000e+00,   -3.846154e+00,   -7.794229e+00
   12729,   -4.500000e+00,   -7.692308e+00,   -7.794229e+00
   12730,   -4.500000e+00,   -1.153846e+01,   -7.794229e+00
   12731,   -4.500000e+00,   -1.538462e+01,   -7.794229e+00
   12732,   -4.500000e+00,   -1.923077e+01,   -7.794229e+00
   12733,   -4.500000e+00,   -2.307692e+01,   -7.794229e+00
   12734,   -4.500000e+00,   -2.692308e+01,   -7.794229e+00
   12735,   -4.500000e+00,   -3.076923e+01,   -7.794229e+00
   12736,   -4.500000e+00,   -3.461538e+01,   -7.794229e+00
   12737,   -4.500000e+00,   -3.846154e+01,   -7.794229e+00
   12738,   -4.500000e+00,   -4.230769e+01,   -7.794229e+00
   12739,   -4.500000e+00,   -4.615385e+01,   -7.794229e+00
   12740,   -7.794229e+00,   -3.846154e+00,   -4.500000e+00
   12741,   -7.794229e+00,   -7.692308e+00,   -4.500000e+00
   12742,   -7.794229e+00,   -1.153846e+01,   -4.500000e+00
   12743,   -7.794229e+00,   -1.538462e+01,   -4.500000e+00
   12744,   -7.794229e+00,   -1.923077e+01,   -4.500000e+00
   12745,   -7.794229e+00,   -2.307692e+01,   -4.500000e+00
   12746,   -7.794229e+00,   -2.692308e+01,   -4.500000e+00
   12747,   -7.794229e+00,   -3.076923e+01,   -4.500000e+00
   12748,   -7.794229e+00,   -3.461538e+01,   -4.500000e+00
   12749,   -7.794229e+00,   -3.846154e+01,   -4.500000e+00
   12750,   -7.794229e+00,   -4.230769e+01,   -4.500000e+00
   12751,   -7.794229e+00,   -4.615385e+01,   -4.500000e+00
********************************** E L E M E N T S ****************************
*ELEMENT, TYPE=C3D8R, ELSET=steel
       1,    5003,    4889,    4893,    5020,    4877,    4876,    4879,    4881
       2,    5019,    4987,    5003,    5020,    4882,    4878,    4877,    4881
       3,    4945,    4900,    4987,    5019,    4875,    4874,    4878,    4882
       4,    4891,    4884,    4945,    5019,    4880,    4873,    4875,    4882
       5,    4893,    4891,    5019,    5020,    4879,    4880,    4882,    4881
       6,    5004,    4890,    4894,    5022,    5003,    4889,    4893,    5020
       7,    5021,    4988,    5004,    5022,    5019,    4987,    5003,    5020
       8,    4944,    4901,    4988,    5021,    4945,    4900,    4987,    5019
       9,    4892,    4885,    4944,    5021,    4891,    4884,    4945,    5019
      10,    4894,    4892,    5021,    5022,    4893,    4891,    5019,    5020
      11,    5005,    4886,    4887,    5024,    5004,    4890,    4894,    5022
      12,    5023,    4989,    5005,    5024,    5021,    4988,    5004,    5022
      13,    4943,    4902,    4989,    5023,    4944,    4901,    4988,    5021
      14,    4888,    4883,    4943,    5023,    4892,    4885,    4944,    5021
      15,    4887,    4888,    5023,    5024,    4894,    4892,    5021,    5022
      16,    5006,    4896,    4897,    5026,    5005,    4886,    4887,    5024
      17,    5025,    4990,    5006,    5026,    5023,    4989,    5005,    5024
      18,    4942,    4903,    4990,    5025,    4943,    4902,    4989,    5023
      19,    4898,    4895,    4942,    5025,    4888,    4883,    4943,    5023
      20,    4897,    4898,    5025,    5026,    4887,    4888,    5023,    5024
      21,    5007,    4958,    4962,    5028,    5006,    4896,    4897,    5026
      22,    5027,    4991,    5007,    5028,    5025,    4990,    5006,    5026
      23,    4941,    4904,    4991,    5027,    4942,    4903,    4990,    5025
      24,    4961,    4928,    4941,    5027,    4898,    4895,    4942,    5025
      25,    4962,    4961,    5027,    5028,    4897,    4898,    5025,    5026
      26,    5008,    4957,    4964,    5030,    5007,    4958,    4962,    5028
      27,    5029,    4992,    5008,    5030,    5027,    4991,    5007,    5028
      28,    4940,    4905,    4992,    5029,    4941,    4904,    4991,    5027
      29,    4963,    4927,    4940,    5029,    4961,    4928,    4941,    5027
      30,    4964,    4963,    5029,    5030,    4962,    4961,    5027,    5028
      31,    5009,    4956,    4966,    5032,    5008,    4957,    4964,    5030
      32,    5031,    4993,    5009,    5032,    5029,    4992,    5008,    5030
      33,    4939,    4906,    4993,    5031,    4940,    4905,    4992,    5029
      34,    4965,    4926,    4939,    5031,    4963,    4927,    4940,    5029
      35,    4966,    4965,    5031,    5032,    4964,    4963,    5029,    5030
      36,    5010,    4955,    4968,    5034,    5009,    4956,    4966,    5032
      37,    5033,    4994,    5010,    5034,    5031,    4993,    5009,    5032
      38,    4938,    4907,    4994,    5033,    4939,    4906,    4993,    5031
      39,    4967,    4925,    4938,    5033,    4965,    4926,    4939,    5031
      40,    4968,    4967,    5033,    5034,    4966,    4965,    5031,    5032
      41,    5011,    4954,    4970,    5036,    5010,    4955,    4968,    5034
      42,    5035,    4995,    5011,    5036,    5033,    4994,    5010,    5034
      43,    4937,    4908,    4995,    5035,    4938,    4907,    4994,    5033
      44,    4969,    4924,    4937,    5035,    4967,    4925,    4938,    5033
      45,    4970,    4969,    5035,    5036,    4968,    4967,    5033,    5034
      46,    5012,    4953,    4972,    5038,    5011,    4954,    4970,    5036
      47,    5037,    4996,    5012,    5038,    5035,    4995,    5011,    5036
      48,    4936,    4909,    4996,    5037,    4937,    4908,    4995,    5035
      49,    4971,    4923,    4936,    5037,    4969,    4924,    4937,    5035
      50,    4972,    4971,    5037,    5038,    4970,    4969,    5035,    5036
      51,    5013,    4952,    4974,    5040,    5012,    4953,    4972,    5038
      52,    5039,    4997,    5013,    5040,    5037,    4996,    5012,    5038
      53,    4935,    4910,    4997,    5039,    4936,    4909,    4996,    5037
      54,    4973,    4922,    4935,    5039,    4971,    4923,    4936,    5037
      55,    4974,    4973,    5039,    5040,    4972,    4971,    5037,    5038
      56,    5014,    4951,    4976,    5042,    5013,    4952,    4974,    5040
      57,    5041,    4998,    5014,    5042,    5039,    4997,    5013,    5040
      58,    4934,    4911,    4998,    5041,    4935,    4910,    4997,    5039
      59,    4975,    4921,    4934,    5041,    4973,    4922,    4935,    5039
      60,    4976,    4975,    5041,    5042,    4974,    4973,    5039,    5040
      61,    5015,    4950,    4978,    5044,    5014,    4951,    4976,    5042
      62,    5043,    4999,    5015,    5044,    5041,    4998,    5014,    5042
      63,    4933,    4912,    4999,    5043,    4934,    4911,    4998,    5041
      64,    4977,    4920,    4933,    5043,    4975,    4921,    4934,    5041
      65,    4978,    4977,    5043,    5044,    4976,    4975,    5041,    5042
      66,    5016,    4949,    4980,    5046,    5015,    4950,    4978,    5044
      67,    5045,    5000,    5016,    5046,    5043,    4999,    5015,    5044
      68,    4932,    4913,    5000,    5045,    4933,    4912,    4999,    5043
      69,    4979,    4919,    4932,    5045,    4977,    4920,    4933,    5043
      70,    4980,    4979,    5045,    5046,    4978,    4977,    5043,    5044
      71,    5017,    4948,    4982,    5048,    5016,    4949,    4980,    5046
      72,    5047,    5001,    5017,    5048,    5045,    5000,    5016,    5046
      73,    4931,    4914,    5001,    5047,    4932,    4913,    5000,    5045
      74,    4981,    4918,    4931,    5047,    4979,    4919,    4932,    5045
      75,    4982,    4981,    5047,    5048,    4980,    4979,    5045,    5046
      76,    5018,    4947,    4984,    5050,    5017,    4948,    4982,    5048
      77,    5049,    5002,    5018,    5050,    5047,    5001,    5017,    5048
      78,    4930,    4915,    5002,    5049,    4931,    4914,    5001,    5047
      79,    4983,    4917,    4930,    5049,    4981,    4918,    4931,    5047
      80,    4984,    4983,    5049,    5050,    4982,    4981,    5047,    5048
      81,    4986,    4946,    4960,    5052,    5018,    4947,    4984,    5050
      82,    5051,    4985,    4986,    5052,    5049,    5002,    5018,    5050
      83,    4929,    4899,    4985,    5051,    4930,    4915,    5002,    5049
      84,    4959,    4916,    4929,    5051,    4983,    4917,    4930,    5049
      85,    4960,    4959,    5051,    5052,    4984,    4983,    5049,    5050
      86,    5397,    5415,    5407,    5408,    5105,    5122,    5115,    5116
      87,    5397,    5398,    5412,    5415,    5105,    5106,    5123,    5122
      88,    5415,    5412,    5417,    5414,    5122,    5123,    5125,    5121
      89,    5413,    5414,    5417,    5416,    5120,    5121,    5125,    5124
      90,    5411,    5416,    5417,    5412,    5119,    5124,    5125,    5123
      91,    5402,    5403,    5413,    5416,    5110,    5111,    5120,    5124
      92,    5401,    5402,    5416,    5411,    5109,    5110,    5124,    5119
      93,    5406,    5407,    5415,    5414,    5114,    5115,    5122,    5121
      94,    5405,    5406,    5414,    5413,    5113,    5114,    5121,    5120
      95,    5404,    5405,    5413,    5403,    5112,    5113,    5120,    5111
      96,    5399,    5400,    5401,    5411,    5107,    5108,    5109,    5119
      97,    5398,    5399,    5411,    5412,    5106,    5107,    5119,    5123
      98,    5396,    5397,    5408,    5409,    5104,    5105,    5116,    5118
      99,    5395,    5396,    5409,    5410,    5103,    5104,    5118,    5117
     100,    5388,    5389,    5395,    5410,    5096,    5097,    5103,    5117
     101,    5387,    5388,    5410,    5409,    5095,    5096,    5117,    5118
     102,    5386,    5387,    5409,    5408,    5094,    5095,    5118,    5116
     103,    5385,    5386,    5408,    5407,    5093,    5094,    5116,    5115
     104,    5384,    5385,    5407,    5406,    5092,    5093,    5115,    5114
     105,    5383,    5384,    5406,    5405,    5091,    5092,    5114,    5113
     106,    5382,    5383,    5405,    5404,    5090,    5091,    5113,    5112
     107,    5394,    5381,    5382,    5404,    5102,    5089,    5090,    5112
     108,    5393,    5394,    5404,    5403,    5101,    5102,    5112,    5111
     109,    5392,    5393,    5403,    5402,    5100,    5101,    5111,    5110
     110,    5391,    5392,    5402,    5401,    5099,    5100,    5110,    5109
     111,    5390,    5391,    5401,    5400,    5098,    5099,    5109,    5108
     112,    5379,    5380,    5390,    5400,    5087,    5088,    5098,    5108
     113,    5378,    5379,    5400,    5399,    5086,    5087,    5108,    5107
     114,    5377,    5378,    5399,    5398,    5085,    5086,    5107,    5106
     115,    5376,    5377,    5398,    5397,    5084,    5085,    5106,    5105
     116,    5375,    5376,    5397,    5396,    5083,    5084,    5105,    5104
     117,    5374,    5375,    5396,    5395,    5082,    5083,    5104,    5103
     118,    5373,    5374,    5395,    5389,    5081,    5082,    5103,    5097
     119,    4898,    4897,    5386,    5385,    4888,    4887,    5094,    5093
     120,    5357,    5358,    5381,    5394,    5075,    5074,    5089,    5102
     121,    5356,    5357,    5394,    5393,    5076,    5075,    5102,    5101
     122,    5355,    5356,    5393,    5392,    5077,    5076,    5101,    5100
     123,    5354,    5355,    5392,    5391,    5078,    5077,    5100,    5099
     124,    5353,    5354,    5391,    5390,    5079,    5078,    5099,    5098
     125,    5352,    5353,    5390,    5380,    5080,    5079,    5098,    5088
     126,    5363,    5364,    5373,    5389,    5061,    5060,    5081,    5097
     127,    5362,    5363,    5389,    5388,    5062,    5061,    5097,    5096
     128,    5361,    5362,    5388,    5387,    5063,    5062,    5096,    5095
     129,    5360,    5361,    5387,    5386,    5064,    5063,    5095,    5094
     130,    4896,    5360,    5386,    4897,    4886,    5064,    5094,    4887
     131,    5346,    4895,    4898,    5385,    5058,    4883,    4888,    5093
     132,    5347,    5346,    5385,    5384,    5057,    5058,    5093,    5092
     133,    5348,    5347,    5384,    5383,    5056,    5057,    5092,    5091
     134,    5349,    5348,    5383,    5382,    5055,    5056,    5091,    5090
     135,    5350,    5349,    5382,    5381,    5054,    5055,    5090,    5089
     136,    5345,    5350,    5381,    5358,    5053,    5054,    5089,    5074
     137,    5372,    5351,    5352,    5380,    5066,    5065,    5080,    5088
     138,    5371,    5372,    5380,    5379,    5067,    5066,    5088,    5087
     139,    5370,    5371,    5379,    5378,    5068,    5067,    5087,    5086
     140,    5369,    5370,    5378,    5377,    5069,    5068,    5086,    5085
     141,    5368,    5369,    5377,    5376,    5070,    5069,    5085,    5084
     142,    5367,    5368,    5376,    5375,    5071,    5070,    5084,    5083
     143,    5366,    5367,    5375,    5374,    5072,    5071,    5083,    5082
     144,    5365,    5366,    5374,    5373,    5073,    5072,    5082,    5081
     145,    5359,    5365,    5373,    5364,    5059,    5073,    5081,    5060
     146,    5105,    5122,    5115,    5116,    5234,    5252,    5244,    5245
     147,    5105,    5106,    5123,    5122,    5234,    5235,    5248,    5252
     148,    5122,    5123,    5125,    5121,    5252,    5248,    5254,    5251
     149,    5120,    5121,    5125,    5124,    5250,    5251,    5254,    5253
     150,    5119,    5124,    5125,    5123,    5249,    5253,    5254,    5248
     151,    5110,    5111,    5120,    5124,    5239,    5240,    5250,    5253
     152,    5109,    5110,    5124,    5119,    5238,    5239,    5253,    5249
     153,    5114,    5115,    5122,    5121,    5243,    5244,    5252,    5251
     154,    5113,    5114,    5121,    5120,    5242,    5243,    5251,    5250
     155,    5112,    5113,    5120,    5111,    5241,    5242,    5250,    5240
     156,    5107,    5108,    5109,    5119,    5236,    5237,    5238,    5249
     157,    5106,    5107,    5119,    5123,    5235,    5236,    5249,    5248
     158,    5104,    5105,    5116,    5118,    5233,    5234,    5245,    5246
     159,    5103,    5104,    5118,    5117,    5232,    5233,    5246,    5247
     160,    5096,    5097,    5103,    5117,    5225,    5226,    5232,    5247
     161,    5095,    5096,    5117,    5118,    5224,    5225,    5247,    5246
     162,    5094,    5095,    5118,    5116,    5223,    5224,    5246,    5245
     163,    5093,    5094,    5116,    5115,    5222,    5223,    5245,    5244
     164,    5092,    5093,    5115,    5114,    5221,    5222,    5244,    5243
     165,    5091,    5092,    5114,    5113,    5220,    5221,    5243,    5242
     166,    5090,    5091,    5113,    5112,    5219,    5220,    5242,    5241
     167,    5102,    5089,    5090,    5112,    5231,    5218,    5219,    5241
     168,    5101,    5102,    5112,    5111,    5230,    5231,    5241,    5240
     169,    5100,    5101,    5111,    5110,    5229,    5230,    5240,    5239
     170,    5099,    5100,    5110,    5109,    5228,    5229,    5239,    5238
     171,    5098,    5099,    5109,    5108,    5227,    5228,    5238,    5237
     172,    5087,    5088,    5098,    5108,    5216,    5217,    5227,    5237
     173,    5086,    5087,    5108,    5107,    5215,    5216,    5237,    5236
     174,    5085,    5086,    5107,    5106,    5214,    5215,    5236,    5235
     175,    5084,    5085,    5106,    5105,    5213,    5214,    5235,    5234
     176,    5083,    5084,    5105,    5104,    5212,    5213,    5234,    5233
     177,    5082,    5083,    5104,    5103,    5211,    5212,    5233,    5232
     178,    5081,    5082,    5103,    5097,    5210,    5211,    5232,    5226
     179,    4888,    4887,    5094,    5093,    4892,    4894,    5223,    5222
     180,    5075,    5074,    5089,    5102,    5156,    5154,    5218,    5231
     181,    5076,    5075,    5102,    5101,    5158,    5156,    5231,    5230
     182,    5077,    5076,    5101,    5100,    5160,    5158,    5230,    5229
     183,    5078,    5077,    5100,    5099,    5162,    5160,    5229,    5228
     184,    5079,    5078,    5099,    5098,    5164,    5162,    5228,    5227
     185,    5080,    5079,    5098,    5088,    5166,    5164,    5227,    5217
     186,    5061,    5060,    5081,    5097,    5179,    5180,    5210,    5226
     187,    5062,    5061,    5097,    5096,    5178,    5179,    5226,    5225
     188,    5063,    5062,    5096,    5095,    5177,    5178,    5225,    5224
     189,    5064,    5063,    5095,    5094,    5176,    5177,    5224,    5223
     190,    4886,    5064,    5094,    4887,    4890,    5176,    5223,    4894
     191,    5058,    4883,    4888,    5093,    5134,    4885,    4892,    5222
     192,    5057,    5058,    5093,    5092,    5136,    5134,    5222,    5221
     193,    5056,    5057,    5092,    5091,    5138,    5136,    5221,    5220
     194,    5055,    5056,    5091,    5090,    5140,    5138,    5220,    5219
     195,    5054,    5055,    5090,    5089,    5142,    5140,    5219,    5218
     196,    5053,    5054,    5089,    5074,    5132,    5142,    5218,    5154
     197,    5066,    5065,    5080,    5088,    5209,    5153,    5166,    5217
     198,    5067,    5066,    5088,    5087,    5207,    5209,    5217,    5216
     199,    5068,    5067,    5087,    5086,    5205,    5207,    5216,    5215
     200,    5069,    5068,    5086,    5085,    5203,    5205,    5215,    5214
     201,    5070,    5069,    5085,    5084,    5201,    5203,    5214,    5213
     202,    5071,    5070,    5084,    5083,    5199,    5201,    5213,    5212
     203,    5072,    5071,    5083,    5082,    5197,    5199,    5212,    5211
     204,    5073,    5072,    5082,    5081,    5195,    5197,    5211,    5210
     205,    5059,    5073,    5081,    5060,    5169,    5195,    5210,    5180
     206,    5234,    5252,    5244,    5245,    5279,    5297,    5289,    5290
     207,    5234,    5235,    5248,    5252,    5279,    5280,    5293,    5297
     208,    5252,    5248,    5254,    5251,    5297,    5293,    5299,    5296
     209,    5250,    5251,    5254,    5253,    5295,    5296,    5299,    5298
     210,    5249,    5253,    5254,    5248,    5294,    5298,    5299,    5293
     211,    5239,    5240,    5250,    5253,    5284,    5285,    5295,    5298
     212,    5238,    5239,    5253,    5249,    5283,    5284,    5298,    5294
     213,    5243,    5244,    5252,    5251,    5288,    5289,    5297,    5296
     214,    5242,    5243,    5251,    5250,    5287,    5288,    5296,    5295
     215,    5241,    5242,    5250,    5240,    5286,    5287,    5295,    5285
     216,    5236,    5237,    5238,    5249,    5281,    5282,    5283,    5294
     217,    5235,    5236,    5249,    5248,    5280,    5281,    5294,    5293
     218,    5233,    5234,    5245,    5246,    5278,    5279,    5290,    5291
     219,    5232,    5233,    5246,    5247,    5277,    5278,    5291,    5292
     220,    5225,    5226,    5232,    5247,    5270,    5271,    5277,    5292
     221,    5224,    5225,    5247,    5246,    5269,    5270,    5292,    5291
     222,    5223,    5224,    5246,    5245,    5268,    5269,    5291,    5290
     223,    5222,    5223,    5245,    5244,    5267,    5268,    5290,    5289
     224,    5221,    5222,    5244,    5243,    5266,    5267,    5289,    5288
     225,    5220,    5221,    5243,    5242,    5265,    5266,    5288,    5287
     226,    5219,    5220,    5242,    5241,    5264,    5265,    5287,    5286
     227,    5231,    5218,    5219,    5241,    5276,    5263,    5264,    5286
     228,    5230,    5231,    5241,    5240,    5275,    5276,    5286,    5285
     229,    5229,    5230,    5240,    5239,    5274,    5275,    5285,    5284
     230,    5228,    5229,    5239,    5238,    5273,    5274,    5284,    5283
     231,    5227,    5228,    5238,    5237,    5272,    5273,    5283,    5282
     232,    5216,    5217,    5227,    5237,    5261,    5262,    5272,    5282
     233,    5215,    5216,    5237,    5236,    5260,    5261,    5282,    5281
     234,    5214,    5215,    5236,    5235,    5259,    5260,    5281,    5280
     235,    5213,    5214,    5235,    5234,    5258,    5259,    5280,    5279
     236,    5212,    5213,    5234,    5233,    5257,    5258,    5279,    5278
     237,    5211,    5212,    5233,    5232,    5256,    5257,    5278,    5277
     238,    5210,    5211,    5232,    5226,    5255,    5256,    5277,    5271
     239,    4892,    4894,    5223,    5222,    4891,    4893,    5268,    5267
     240,    5156,    5154,    5218,    5231,    5157,    5155,    5263,    5276
     241,    5158,    5156,    5231,    5230,    5159,    5157,    5276,    5275
     242,    5160,    5158,    5230,    5229,    5161,    5159,    5275,    5274
     243,    5162,    5160,    5229,    5228,    5163,    5161,    5274,    5273
     244,    5164,    5162,    5228,    5227,    5165,    5163,    5273,    5272
     245,    5166,    5164,    5227,    5217,    5167,    5165,    5272,    5262
     246,    5179,    5180,    5210,    5226,    5184,    5185,    5255,    5271
     247,    5178,    5179,    5226,    5225,    5183,    5184,    5271,    5270
     248,    5177,    5178,    5225,    5224,    5182,    5183,    5270,    5269
     249,    5176,    5177,    5224,    5223,    5181,    5182,    5269,    5268
     250,    4890,    5176,    5223,    4894,    4889,    5181,    5268,    4893
     251,    5134,    4885,    4892,    5222,    5135,    4884,    4891,    5267
     252,    5136,    5134,    5222,    5221,    5137,    5135,    5267,    5266
     253,    5138,    5136,    5221,    5220,    5139,    5137,    5266,    5265
     254,    5140,    5138,    5220,    5219,    5141,    5139,    5265,    5264
     255,    5142,    5140,    5219,    5218,    5143,    5141,    5264,    5263
     256,    5132,    5142,    5218,    5154,    5133,    5143,    5263,    5155
     257,    5209,    5153,    5166,    5217,    5208,    5152,    5167,    5262
     258,    5207,    5209,    5217,    5216,    5206,    5208,    5262,    5261
     259,    5205,    5207,    5216,    5215,    5204,    5206,    5261,    5260
     260,    5203,    5205,    5215,    5214,    5202,    5204,    5260,    5259
     261,    5201,    5203,    5214,    5213,    5200,    5202,    5259,    5258
     262,    5199,    5201,    5213,    5212,    5198,    5200,    5258,    5257
     263,    5197,    5199,    5212,    5211,    5196,    5198,    5257,    5256
     264,    5195,    5197,    5211,    5210,    5194,    5196,    5256,    5255
     265,    5169,    5195,    5210,    5180,    5170,    5194,    5255,    5185
     266,    5279,    5297,    5289,    5290,    5324,    5342,    5334,    5335
     267,    5279,    5280,    5293,    5297,    5324,    5325,    5338,    5342
     268,    5297,    5293,    5299,    5296,    5342,    5338,    5344,    5341
     269,    5295,    5296,    5299,    5298,    5340,    5341,    5344,    5343
     270,    5294,    5298,    5299,    5293,    5339,    5343,    5344,    5338
     271,    5284,    5285,    5295,    5298,    5329,    5330,    5340,    5343
     272,    5283,    5284,    5298,    5294,    5328,    5329,    5343,    5339
     273,    5288,    5289,    5297,    5296,    5333,    5334,    5342,    5341
     274,    5287,    5288,    5296,    5295,    5332,    5333,    5341,    5340
     275,    5286,    5287,    5295,    5285,    5331,    5332,    5340,    5330
     276,    5281,    5282,    5283,    5294,    5326,    5327,    5328,    5339
     277,    5280,    5281,    5294,    5293,    5325,    5326,    5339,    5338
     278,    5278,    5279,    5290,    5291,    5323,    5324,    5335,    5336
     279,    5277,    5278,    5291,    5292,    5322,    5323,    5336,    5337
     280,    5270,    5271,    5277,    5292,    5315,    5316,    5322,    5337
     281,    5269,    5270,    5292,    5291,    5314,    5315,    5337,    5336
     282,    5268,    5269,    5291,    5290,    5313,    5314,    5336,    5335
     283,    5267,    5268,    5290,    5289,    5312,    5313,    5335,    5334
     284,    5266,    5267,    5289,    5288,    5311,    5312,    5334,    5333
     285,    5265,    5266,    5288,    5287,    5310,    5311,    5333,    5332
     286,    5264,    5265,    5287,    5286,    5309,    5310,    5332,    5331
     287,    5276,    5263,    5264,    5286,    5321,    5308,    5309,    5331
     288,    5275,    5276,    5286,    5285,    5320,    5321,    5331,    5330
     289,    5274,    5275,    5285,    5284,    5319,    5320,    5330,    5329
     290,    5273,    5274,    5284,    5283,    5318,    5319,    5329,    5328
     291,    5272,    5273,    5283,    5282,    5317,    5318,    5328,    5327
     292,    5261,    5262,    5272,    5282,    5306,    5307,    5317,    5327
     293,    5260,    5261,    5282,    5281,    5305,    5306,    5327,    5326
     294,    5259,    5260,    5281,    5280,    5304,    5305,    5326,    5325
     295,    5258,    5259,    5280,    5279,    5303,    5304,    5325,    5324
     296,    5257,    5258,    5279,    5278,    5302,    5303,    5324,    5323
     297,    5256,    5257,    5278,    5277,    5301,    5302,    5323,    5322
     298,    5255,    5256,    5277,    5271,    5300,    5301,    5322,    5316
     299,    4891,    4893,    5268,    5267,    4880,    4879,    5313,    5312
     300,    5157,    5155,    5263,    5276,    5146,    5145,    5308,    5321
     301,    5159,    5157,    5276,    5275,    5147,    5146,    5321,    5320
     302,    5161,    5159,    5275,    5274,    5148,    5147,    5320,    5319
     303,    5163,    5161,    5274,    5273,    5149,    5148,    5319,    5318
     304,    5165,    5163,    5273,    5272,    5150,    5149,    5318,    5317
     305,    5167,    5165,    5272,    5262,    5151,    5150,    5317,    5307
     306,    5184,    5185,    5255,    5271,    5172,    5171,    5300,    5316
     307,    5183,    5184,    5271,    5270,    5173,    5172,    5316,    5315
     308,    5182,    5183,    5270,    5269,    5174,    5173,    5315,    5314
     309,    5181,    5182,    5269,    5268,    5175,    5174,    5314,    5313
     310,    4889,    5181,    5268,    4893,    4876,    5175,    5313,    4879
     311,    5135,    4884,    4891,    5267,    5131,    4873,    4880,    5312
     312,    5137,    5135,    5267,    5266,    5130,    5131,    5312,    5311
     313,    5139,    5137,    5266,    5265,    5129,    5130,    5311,    5310
     314,    5141,    5139,    5265,    5264,    5128,    5129,    5310,    5309
     315,    5143,    5141,    5264,    5263,    5127,    5128,    5309,    5308
     316,    5133,    5143,    5263,    5155,    5126,    5127,    5308,    5145
     317,    5208,    5152,    5167,    5262,    5193,    5144,    5151,    5307
     318,    5206,    5208,    5262,    5261,    5192,    5193,    5307,    5306
     319,    5204,    5206,    5261,    5260,    5191,    5192,    5306,    5305
     320,    5202,    5204,    5260,    5259,    5190,    5191,    5305,    5304
     321,    5200,    5202,    5259,    5258,    5189,    5190,    5304,    5303
     322,    5198,    5200,    5258,    5257,    5188,    5189,    5303,    5302
     323,    5196,    5198,    5257,    5256,    5187,    5188,    5302,    5301
     324,    5194,    5196,    5256,    5255,    5186,    5187,    5301,    5300
     325,    5170,    5194,    5255,    5185,    5168,    5186,    5300,    5171
     326,   10342,   10325,   10380,   10383,   10291,   10290,   10293,   10295
     327,   10382,   10326,   10342,   10383,   10296,   10292,   10291,   10295
     328,    4930,    4915,   10326,   10382,    4929,    4899,   10292,   10296
     329,   10381,    4917,    4930,   10382,   10294,    4916,    4929,   10296
     330,   10380,   10381,   10382,   10383,   10293,   10294,   10296,   10295
     331,   10343,   10324,   10378,   10385,   10342,   10325,   10380,   10383
     332,   10384,   10327,   10343,   10385,   10382,   10326,   10342,   10383
     333,    4931,    4914,   10327,   10384,    4930,    4915,   10326,   10382
     334,   10379,    4918,    4931,   10384,   10381,    4917,    4930,   10382
     335,   10378,   10379,   10384,   10385,   10380,   10381,   10382,   10383
     336,   10344,   10323,   10376,   10387,   10343,   10324,   10378,   10385
     337,   10386,   10328,   10344,   10387,   10384,   10327,   10343,   10385
     338,    4932,    4913,   10328,   10386,    4931,    4914,   10327,   10384
     339,   10377,    4919,    4932,   10386,   10379,    4918,    4931,   10384
     340,   10376,   10377,   10386,   10387,   10378,   10379,   10384,   10385
     341,   10345,   10322,   10374,   10389,   10344,   10323,   10376,   10387
     342,   10388,   10329,   10345,   10389,   10386,   10328,   10344,   10387
     343,    4933,    4912,   10329,   10388,    4932,    4913,   10328,   10386
     344,   10375,    4920,    4933,   10388,   10377,    4919,    4932,   10386
     345,   10374,   10375,   10388,   10389,   10376,   10377,   10386,   10387
     346,   10346,   10321,   10372,   10391,   10345,   10322,   10374,   10389
     347,   10390,   10330,   10346,   10391,   10388,   10329,   10345,   10389
     348,    4934,    4911,   10330,   10390,    4933,    4912,   10329,   10388
     349,   10373,    4921,    4934,   10390,   10375,    4920,    4933,   10388
     350,   10372,   10373,   10390,   10391,   10374,   10375,   10388,   10389
     351,   10347,   10320,   10370,   10393,   10346,   10321,   10372,   10391
     352,   10392,   10331,   10347,   10393,   10390,   10330,   10346,   10391
     353,    4935,    4910,   10331,   10392,    4934,    4911,   10330,   10390
     354,   10371,    4922,    4935,   10392,   10373,    4921,    4934,   10390
     355,   10370,   10371,   10392,   10393,   10372,   10373,   10390,   10391
     356,   10348,   10319,   10368,   10395,   10347,   10320,   10370,   10393
     357,   10394,   10332,   10348,   10395,   10392,   10331,   10347,   10393
     358,    4936,    4909,   10332,   10394,    4935,    4910,   10331,   10392
     359,   10369,    4923,    4936,   10394,   10371,    4922,    4935,   10392
     360,   10368,   10369,   10394,   10395,   10370,   10371,   10392,   10393
     361,   10349,   10318,   10366,   10397,   10348,   10319,   10368,   10395
     362,   10396,   10333,   10349,   10397,   10394,   10332,   10348,   10395
     363,    4937,    4908,   10333,   10396,    4936,    4909,   10332,   10394
     364,   10367,    4924,    4937,   10396,   10369,    4923,    4936,   10394
     365,   10366,   10367,   10396,   10397,   10368,   10369,   10394,   10395
     366,   10350,   10317,   10364,   10399,   10349,   10318,   10366,   10397
     367,   10398,   10334,   10350,   10399,   10396,   10333,   10349,   10397
     368,    4938,    4907,   10334,   10398,    4937,    4908,   10333,   10396
     369,   10365,    4925,    4938,   10398,   10367,    4924,    4937,   10396
     370,   10364,   10365,   10398,   10399,   10366,   10367,   10396,   10397
     371,   10351,   10316,   10362,   10401,   10350,   10317,   10364,   10399
     372,   10400,   10335,   10351,   10401,   10398,   10334,   10350,   10399
     373,    4939,    4906,   10335,   10400,    4938,    4907,   10334,   10398
     374,   10363,    4926,    4939,   10400,   10365,    4925,    4938,   10398
     375,   10362,   10363,   10400,   10401,   10364,   10365,   10398,   10399
     376,   10352,   10315,   10360,   10403,   10351,   10316,   10362,   10401
     377,   10402,   10336,   10352,   10403,   10400,   10335,   10351,   10401
     378,    4940,    4905,   10336,   10402,    4939,    4906,   10335,   10400
     379,   10361,    4927,    4940,   10402,   10363,    4926,    4939,   10400
     380,   10360,   10361,   10402,   10403,   10362,   10363,   10400,   10401
     381,   10353,   10314,   10358,   10405,   10352,   10315,   10360,   10403
     382,   10404,   10337,   10353,   10405,   10402,   10336,   10352,   10403
     383,    4941,    4904,   10337,   10404,    4940,    4905,   10336,   10402
     384,   10359,    4928,    4941,   10404,   10361,    4927,    4940,   10402
     385,   10358,   10359,   10404,   10405,   10360,   10361,   10402,   10403
     386,   10354,   10309,   10311,   10407,   10353,   10314,   10358,   10405
     387,   10406,   10338,   10354,   10407,   10404,   10337,   10353,   10405
     388,    4942,    4903,   10338,   10406,    4941,    4904,   10337,   10404
     389,   10310,    4895,    4942,   10406,   10359,    4928,    4941,   10404
     390,   10311,   10310,   10406,   10407,   10358,   10359,   10404,   10405
     391,   10355,   10300,   10304,   10409,   10354,   10309,   10311,   10407
     392,   10408,   10339,   10355,   10409,   10406,   10338,   10354,   10407
     393,    4943,    4902,   10339,   10408,    4942,    4903,   10338,   10406
     394,   10303,    4883,    4943,   10408,   10310,    4895,    4942,   10406
     395,   10304,   10303,   10408,   10409,   10311,   10310,   10406,   10407
     396,   10356,   10301,   10307,   10411,   10355,   10300,   10304,   10409
     397,   10410,   10340,   10356,   10411,   10408,   10339,   10355,   10409
     398,    4944,    4901,   10340,   10410,    4943,    4902,   10339,   10408
     399,   10305,    4885,    4944,   10410,   10303,    4883,    4943,   10408
     400,   10307,   10305,   10410,   10411,   10304,   10303,   10408,   10409
     401,   10357,   10302,   10308,   10413,   10356,   10301,   10307,   10411
     402,   10412,   10341,   10357,   10413,   10410,   10340,   10356,   10411
     403,    4945,    4900,   10341,   10412,    4944,    4901,   10340,   10410
     404,   10306,    4884,    4945,   10412,   10305,    4885,    4944,   10410
     405,   10308,   10306,   10412,   10413,   10307,   10305,   10410,   10411
     406,   10313,   10297,   10299,   10415,   10357,   10302,   10308,   10413
     407,   10414,   10312,   10313,   10415,   10412,   10341,   10357,   10413
     408,    4875,    4874,   10312,   10414,    4945,    4900,   10341,   10412
     409,   10298,    4873,    4875,   10414,   10306,    4884,    4945,   10412
     410,   10299,   10298,   10414,   10415,   10308,   10306,   10412,   10413
     411,   10773,   10775,   10771,   10772,   10485,   10487,   10483,   10484
     412,   10775,   10774,   10770,   10771,   10487,   10486,   10482,   10483
     413,   10765,   10766,   10774,   10775,   10477,   10478,   10486,   10487
     414,   10764,   10765,   10775,   10773,   10476,   10477,   10487,   10485
     415,   10768,   10769,   10770,   10774,   10480,   10481,   10482,   10486
     416,   10767,   10768,   10774,   10766,   10479,   10480,   10486,   10478
     417,   10756,   10757,   10764,   10773,   10468,   10469,   10476,   10485
     418,   10755,   10756,   10773,   10772,   10467,   10468,   10485,   10484
     419,   10763,   10754,   10755,   10772,   10475,   10466,   10467,   10484
     420,   10762,   10763,   10772,   10771,   10474,   10475,   10484,   10483
     421,   10761,   10762,   10771,   10770,   10473,   10474,   10483,   10482
     422,   10760,   10761,   10770,   10769,   10472,   10473,   10482,   10481
     423,   10759,   10760,   10769,   10768,   10471,   10472,   10481,   10480
     424,   10758,   10759,   10768,   10767,   10470,   10471,   10480,   10479
     425,   10752,   10753,   10758,   10767,   10464,   10465,   10470,   10479
     426,   10751,   10752,   10767,   10766,   10463,   10464,   10479,   10478
     427,   10750,   10751,   10766,   10765,   10462,   10463,   10478,   10477
     428,   10749,   10750,   10765,   10764,   10461,   10462,   10477,   10476
     429,   10748,   10749,   10764,   10757,   10460,   10461,   10476,   10469
     430,   10736,   10737,   10754,   10763,   10448,   10449,   10466,   10475
     431,   10735,   10736,   10763,   10762,   10447,   10448,   10475,   10474
     432,   10734,   10735,   10762,   10761,   10446,   10447,   10474,   10473
     433,   10742,   10734,   10761,   10760,   10454,   10446,   10473,   10472
     434,   10741,   10742,   10760,   10759,   10453,   10454,   10472,   10471
     435,   10740,   10741,   10759,   10758,   10452,   10453,   10471,   10470
     436,   10739,   10740,   10758,   10753,   10451,   10452,   10470,   10465
     437,   10746,   10747,   10748,   10757,   10458,   10459,   10460,   10469
     438,   10745,   10746,   10757,   10756,   10457,   10458,   10469,   10468
     439,   10744,   10745,   10756,   10755,   10456,   10457,   10468,   10467
     440,   10743,   10744,   10755,   10754,   10455,   10456,   10467,   10466
     441,   10738,   10743,   10754,   10737,   10450,   10455,   10466,   10449
     442,   10732,   10733,   10739,   10753,   10444,   10445,   10451,   10465
     443,   10731,   10732,   10753,   10752,   10443,   10444,   10465,   10464
     444,   10730,   10731,   10752,   10751,   10442,   10443,   10464,   10463
     445,   10729,   10730,   10751,   10750,   10441,   10442,   10463,   10462
     446,   10728,   10729,   10750,   10749,   10440,   10441,   10462,   10461
     447,   10727,   10728,   10749,   10748,   10439,   10440,   10461,   10460
     448,   10726,   10727,   10748,   10747,   10438,   10439,   10460,   10459
     449,   10311,   10310,   10734,   10742,   10304,   10303,   10446,   10454
     450,   10724,   10725,   10726,   10747,   10418,   10417,   10438,   10459
     451,   10723,   10724,   10747,   10746,   10419,   10418,   10459,   10458
     452,   10722,   10723,   10746,   10745,   10420,   10419,   10458,   10457
     453,   10721,   10722,   10745,   10744,   10421,   10420,   10457,   10456
     454,   10720,   10721,   10744,   10743,   10422,   10421,   10456,   10455
     455,   10719,   10720,   10743,   10738,   10423,   10422,   10455,   10450
     456,   10709,   10309,   10311,   10742,   10433,   10300,   10304,   10454
     457,   10708,   10709,   10742,   10741,   10434,   10433,   10454,   10453
     458,   10707,   10708,   10741,   10740,   10435,   10434,   10453,   10452
     459,   10706,   10707,   10740,   10739,   10436,   10435,   10452,   10451
     460,   10705,   10706,   10739,   10733,   10437,   10436,   10451,   10445
     461,    5350,    5345,   10719,   10738,    5054,    5053,   10423,   10450
     462,    5349,    5350,   10738,   10737,    5055,    5054,   10450,   10449
     463,    5348,    5349,   10737,   10736,    5056,    5055,   10449,   10448
     464,    5347,    5348,   10736,   10735,    5057,    5056,   10448,   10447
     465,    5346,    5347,   10735,   10734,    5058,    5057,   10447,   10446
     466,    4895,    5346,   10734,   10310,    4883,    5058,   10446,   10303
     467,   10711,   10704,   10705,   10733,   10425,   10424,   10437,   10445
     468,   10712,   10711,   10733,   10732,   10426,   10425,   10445,   10444
     469,   10713,   10712,   10732,   10731,   10427,   10426,   10444,   10443
     470,   10714,   10713,   10731,   10730,   10428,   10427,   10443,   10442
     471,   10715,   10714,   10730,   10729,   10429,   10428,   10442,   10441
     472,   10716,   10715,   10729,   10728,   10430,   10429,   10441,   10440
     473,   10717,   10716,   10728,   10727,   10431,   10430,   10440,   10439
     474,   10718,   10717,   10727,   10726,   10432,   10431,   10439,   10438
     475,   10710,   10718,   10726,   10725,   10416,   10432,   10438,   10417
     476,   10485,   10487,   10483,   10484,   10601,   10603,   10599,   10600
     477,   10487,   10486,   10482,   10483,   10603,   10602,   10598,   10599
     478,   10477,   10478,   10486,   10487,   10593,   10594,   10602,   10603
     479,   10476,   10477,   10487,   10485,   10592,   10593,   10603,   10601
     480,   10480,   10481,   10482,   10486,   10596,   10597,   10598,   10602
     481,   10479,   10480,   10486,   10478,   10595,   10596,   10602,   10594
     482,   10468,   10469,   10476,   10485,   10584,   10585,   10592,   10601
     483,   10467,   10468,   10485,   10484,   10583,   10584,   10601,   10600
     484,   10475,   10466,   10467,   10484,   10591,   10582,   10583,   10600
     485,   10474,   10475,   10484,   10483,   10590,   10591,   10600,   10599
     486,   10473,   10474,   10483,   10482,   10589,   10590,   10599,   10598
     487,   10472,   10473,   10482,   10481,   10588,   10589,   10598,   10597
     488,   10471,   10472,   10481,   10480,   10587,   10588,   10597,   10596
     489,   10470,   10471,   10480,   10479,   10586,   10587,   10596,   10595
     490,   10464,   10465,   10470,   10479,   10580,   10581,   10586,   10595
     491,   10463,   10464,   10479,   10478,   10579,   10580,   10595,   10594
     492,   10462,   10463,   10478,   10477,   10578,   10579,   10594,   10593
     493,   10461,   10462,   10477,   10476,   10577,   10578,   10593,   10592
     494,   10460,   10461,   10476,   10469,   10576,   10577,   10592,   10585
     495,   10448,   10449,   10466,   10475,   10564,   10565,   10582,   10591
     496,   10447,   10448,   10475,   10474,   10563,   10564,   10591,   10590
     497,   10446,   10447,   10474,   10473,   10562,   10563,   10590,   10589
     498,   10454,   10446,   10473,   10472,   10570,   10562,   10589,   10588
     499,   10453,   10454,   10472,   10471,   10569,   10570,   10588,   10587
     500,   10452,   10453,   10471,   10470,   10568,   10569,   10587,   10586
     501,   10451,   10452,   10470,   10465,   10567,   10568,   10586,   10581
     502,   10458,   10459,   10460,   10469,   10574,   10575,   10576,   10585
     503,   10457,   10458,   10469,   10468,   10573,   10574,   10585,   10584
     504,   10456,   10457,   10468,   10467,   10572,   10573,   10584,   10583
     505,   10455,   10456,   10467,   10466,   10571,   10572,   10583,   10582
     506,   10450,   10455,   10466,   10449,   10566,   10571,   10582,   10565
     507,   10444,   10445,   10451,   10465,   10560,   10561,   10567,   10581
     508,   10443,   10444,   10465,   10464,   10559,   10560,   10581,   10580
     509,   10442,   10443,   10464,   10463,   10558,   10559,   10580,   10579
     510,   10441,   10442,   10463,   10462,   10557,   10558,   10579,   10578
     511,   10440,   10441,   10462,   10461,   10556,   10557,   10578,   10577
     512,   10439,   10440,   10461,   10460,   10555,   10556,   10577,   10576
     513,   10438,   10439,   10460,   10459,   10554,   10555,   10576,   10575
     514,   10304,   10303,   10446,   10454,   10307,   10305,   10562,   10570
     515,   10418,   10417,   10438,   10459,   10527,   10529,   10554,   10575
     516,   10419,   10418,   10459,   10458,   10525,   10527,   10575,   10574
     517,   10420,   10419,   10458,   10457,   10523,   10525,   10574,   10573
     518,   10421,   10420,   10457,   10456,   10521,   10523,   10573,   10572
     519,   10422,   10421,   10456,   10455,   10519,   10521,   10572,   10571
     520,   10423,   10422,   10455,   10450,   10517,   10519,   10571,   10566
     521,   10433,   10300,   10304,   10454,   10500,   10301,   10307,   10570
     522,   10434,   10433,   10454,   10453,   10499,   10500,   10570,   10569
     523,   10435,   10434,   10453,   10452,   10498,   10499,   10569,   10568
     524,   10436,   10435,   10452,   10451,   10497,   10498,   10568,   10567
     525,   10437,   10436,   10451,   10445,   10496,   10497,   10567,   10561
     526,    5054,    5053,   10423,   10450,    5142,    5132,   10517,   10566
     527,    5055,    5054,   10450,   10449,    5140,    5142,   10566,   10565
     528,    5056,    5055,   10449,   10448,    5138,    5140,   10565,   10564
     529,    5057,    5056,   10448,   10447,    5136,    5138,   10564,   10563
     530,    5058,    5057,   10447,   10446,    5134,    5136,   10563,   10562
     531,    4883,    5058,   10446,   10303,    4885,    5134,   10562,   10305
     532,   10425,   10424,   10437,   10445,   10538,   10495,   10496,   10561
     533,   10426,   10425,   10445,   10444,   10540,   10538,   10561,   10560
     534,   10427,   10426,   10444,   10443,   10542,   10540,   10560,   10559
     535,   10428,   10427,   10443,   10442,   10544,   10542,   10559,   10558
     536,   10429,   10428,   10442,   10441,   10546,   10544,   10558,   10557
     537,   10430,   10429,   10441,   10440,   10548,   10546,   10557,   10556
     538,   10431,   10430,   10440,   10439,   10550,   10548,   10556,   10555
     539,   10432,   10431,   10439,   10438,   10552,   10550,   10555,   10554
     540,   10416,   10432,   10438,   10417,   10507,   10552,   10554,   10529
     541,   10601,   10603,   10599,   10600,   10651,   10653,   10649,   10650
     542,   10603,   10602,   10598,   10599,   10653,   10652,   10648,   10649
     543,   10593,   10594,   10602,   10603,   10643,   10644,   10652,   10653
     544,   10592,   10593,   10603,   10601,   10642,   10643,   10653,   10651
     545,   10596,   10597,   10598,   10602,   10646,   10647,   10648,   10652
     546,   10595,   10596,   10602,   10594,   10645,   10646,   10652,   10644
     547,   10584,   10585,   10592,   10601,   10634,   10635,   10642,   10651
     548,   10583,   10584,   10601,   10600,   10633,   10634,   10651,   10650
     549,   10591,   10582,   10583,   10600,   10641,   10632,   10633,   10650
     550,   10590,   10591,   10600,   10599,   10640,   10641,   10650,   10649
     551,   10589,   10590,   10599,   10598,   10639,   10640,   10649,   10648
     552,   10588,   10589,   10598,   10597,   10638,   10639,   10648,   10647
     553,   10587,   10588,   10597,   10596,   10637,   10638,   10647,   10646
     554,   10586,   10587,   10596,   10595,   10636,   10637,   10646,   10645
     555,   10580,   10581,   10586,   10595,   10630,   10631,   10636,   10645
     556,   10579,   10580,   10595,   10594,   10629,   10630,   10645,   10644
     557,   10578,   10579,   10594,   10593,   10628,   10629,   10644,   10643
     558,   10577,   10578,   10593,   10592,   10627,   10628,   10643,   10642
     559,   10576,   10577,   10592,   10585,   10626,   10627,   10642,   10635
     560,   10564,   10565,   10582,   10591,   10614,   10615,   10632,   10641
     561,   10563,   10564,   10591,   10590,   10613,   10614,   10641,   10640
     562,   10562,   10563,   10590,   10589,   10612,   10613,   10640,   10639
     563,   10570,   10562,   10589,   10588,   10620,   10612,   10639,   10638
     564,   10569,   10570,   10588,   10587,   10619,   10620,   10638,   10637
     565,   10568,   10569,   10587,   10586,   10618,   10619,   10637,   10636
     566,   10567,   10568,   10586,   10581,   10617,   10618,   10636,   10631
     567,   10574,   10575,   10576,   10585,   10624,   10625,   10626,   10635
     568,   10573,   10574,   10585,   10584,   10623,   10624,   10635,   10634
     569,   10572,   10573,   10584,   10583,   10622,   10623,   10634,   10633
     570,   10571,   10572,   10583,   10582,   10621,   10622,   10633,   10632
     571,   10566,   10571,   10582,   10565,   10616,   10621,   10632,   10615
     572,   10560,   10561,   10567,   10581,   10610,   10611,   10617,   10631
     573,   10559,   10560,   10581,   10580,   10609,   10610,   10631,   10630
     574,   10558,   10559,   10580,   10579,   10608,   10609,   10630,   10629
     575,   10557,   10558,   10579,   10578,   10607,   10608,   10629,   10628
     576,   10556,   10557,   10578,   10577,   10606,   10607,   10628,   10627
     577,   10555,   10556,   10577,   10576,   10605,   10606,   10627,   10626
     578,   10554,   10555,   10576,   10575,   10604,   10605,   10626,   10625
     579,   10307,   10305,   10562,   10570,   10308,   10306,   10612,   10620
     580,   10527,   10529,   10554,   10575,   10526,   10528,   10604,   10625
     581,   10525,   10527,   10575,   10574,   10524,   10526,   10625,   10624
     582,   10523,   10525,   10574,   10573,   10522,   10524,   10624,   10623
     583,   10521,   10523,   10573,   10572,   10520,   10522,   10623,   10622
     584,   10519,   10521,   10572,   10571,   10518,   10520,   10622,   10621
     585,   10517,   10519,   10571,   10566,   10516,   10518,   10621,   10616
     586,   10500,   10301,   10307,   10570,   10505,   10302,   10308,   10620
     587,   10499,   10500,   10570,   10569,   10504,   10505,   10620,   10619
     588,   10498,   10499,   10569,   10568,   10503,   10504,   10619,   10618
     589,   10497,   10498,   10568,   10567,   10502,   10503,   10618,   10617
     590,   10496,   10497,   10567,   10561,   10501,   10502,   10617,   10611
     591,    5142,    5132,   10517,   10566,    5143,    5133,   10516,   10616
     592,    5140,    5142,   10566,   10565,    5141,    5143,   10616,   10615
     593,    5138,    5140,   10565,   10564,    5139,    5141,   10615,   10614
     594,    5136,    5138,   10564,   10563,    5137,    5139,   10614,   10613
     595,    5134,    5136,   10563,   10562,    5135,    5137,   10613,   10612
     596,    4885,    5134,   10562,   10305,    4884,    5135,   10612,   10306
     597,   10538,   10495,   10496,   10561,   10539,   10494,   10501,   10611
     598,   10540,   10538,   10561,   10560,   10541,   10539,   10611,   10610
     599,   10542,   10540,   10560,   10559,   10543,   10541,   10610,   10609
     600,   10544,   10542,   10559,   10558,   10545,   10543,   10609,   10608
     601,   10546,   10544,   10558,   10557,   10547,   10545,   10608,   10607
     602,   10548,   10546,   10557,   10556,   10549,   10547,   10607,   10606
     603,   10550,   10548,   10556,   10555,   10551,   10549,   10606,   10605
     604,   10552,   10550,   10555,   10554,   10553,   10551,   10605,   10604
     605,   10507,   10552,   10554,   10529,   10508,   10553,   10604,   10528
     606,   10651,   10653,   10649,   10650,   10701,   10703,   10699,   10700
     607,   10653,   10652,   10648,   10649,   10703,   10702,   10698,   10699
     608,   10643,   10644,   10652,   10653,   10693,   10694,   10702,   10703
     609,   10642,   10643,   10653,   10651,   10692,   10693,   10703,   10701
     610,   10646,   10647,   10648,   10652,   10696,   10697,   10698,   10702
     611,   10645,   10646,   10652,   10644,   10695,   10696,   10702,   10694
     612,   10634,   10635,   10642,   10651,   10684,   10685,   10692,   10701
     613,   10633,   10634,   10651,   10650,   10683,   10684,   10701,   10700
     614,   10641,   10632,   10633,   10650,   10691,   10682,   10683,   10700
     615,   10640,   10641,   10650,   10649,   10690,   10691,   10700,   10699
     616,   10639,   10640,   10649,   10648,   10689,   10690,   10699,   10698
     617,   10638,   10639,   10648,   10647,   10688,   10689,   10698,   10697
     618,   10637,   10638,   10647,   10646,   10687,   10688,   10697,   10696
     619,   10636,   10637,   10646,   10645,   10686,   10687,   10696,   10695
     620,   10630,   10631,   10636,   10645,   10680,   10681,   10686,   10695
     621,   10629,   10630,   10645,   10644,   10679,   10680,   10695,   10694
     622,   10628,   10629,   10644,   10643,   10678,   10679,   10694,   10693
     623,   10627,   10628,   10643,   10642,   10677,   10678,   10693,   10692
     624,   10626,   10627,   10642,   10635,   10676,   10677,   10692,   10685
     625,   10614,   10615,   10632,   10641,   10664,   10665,   10682,   10691
     626,   10613,   10614,   10641,   10640,   10663,   10664,   10691,   10690
     627,   10612,   10613,   10640,   10639,   10662,   10663,   10690,   10689
     628,   10620,   10612,   10639,   10638,   10670,   10662,   10689,   10688
     629,   10619,   10620,   10638,   10637,   10669,   10670,   10688,   10687
     630,   10618,   10619,   10637,   10636,   10668,   10669,   10687,   10686
     631,   10617,   10618,   10636,   10631,   10667,   10668,   10686,   10681
     632,   10624,   10625,   10626,   10635,   10674,   10675,   10676,   10685
     633,   10623,   10624,   10635,   10634,   10673,   10674,   10685,   10684
     634,   10622,   10623,   10634,   10633,   10672,   10673,   10684,   10683
     635,   10621,   10622,   10633,   10632,   10671,   10672,   10683,   10682
     636,   10616,   10621,   10632,   10615,   10666,   10671,   10682,   10665
     637,   10610,   10611,   10617,   10631,   10660,   10661,   10667,   10681
     638,   10609,   10610,   10631,   10630,   10659,   10660,   10681,   10680
     639,   10608,   10609,   10630,   10629,   10658,   10659,   10680,   10679
     640,   10607,   10608,   10629,   10628,   10657,   10658,   10679,   10678
     641,   10606,   10607,   10628,   10627,   10656,   10657,   10678,   10677
     642,   10605,   10606,   10627,   10626,   10655,   10656,   10677,   10676
     643,   10604,   10605,   10626,   10625,   10654,   10655,   10676,   10675
     644,   10308,   10306,   10612,   10620,   10299,   10298,   10662,   10670
     645,   10526,   10528,   10604,   10625,   10510,   10509,   10654,   10675
     646,   10524,   10526,   10625,   10624,   10511,   10510,   10675,   10674
     647,   10522,   10524,   10624,   10623,   10512,   10511,   10674,   10673
     648,   10520,   10522,   10623,   10622,   10513,   10512,   10673,   10672
     649,   10518,   10520,   10622,   10621,   10514,   10513,   10672,   10671
     650,   10516,   10518,   10621,   10616,   10515,   10514,   10671,   10666
     651,   10505,   10302,   10308,   10620,   10489,   10297,   10299,   10670
     652,   10504,   10505,   10620,   10619,   10490,   10489,   10670,   10669
     653,   10503,   10504,   10619,   10618,   10491,   10490,   10669,   10668
     654,   10502,   10503,   10618,   10617,   10492,   10491,   10668,   10667
     655,   10501,   10502,   10617,   10611,   10493,   10492,   10667,   10661
     656,    5143,    5133,   10516,   10616,    5127,    5126,   10515,   10666
     657,    5141,    5143,   10616,   10615,    5128,    5127,   10666,   10665
     658,    5139,    5141,   10615,   10614,    5129,    5128,   10665,   10664
     659,    5137,    5139,   10614,   10613,    5130,    5129,   10664,   10663
     660,    5135,    5137,   10613,   10612,    5131,    5130,   10663,   10662
     661,    4884,    5135,   10612,   10306,    4873,    5131,   10662,   10298
     662,   10539,   10494,   10501,   10611,   10530,   10488,   10493,   10661
     663,   10541,   10539,   10611,   10610,   10531,   10530,   10661,   10660
     664,   10543,   10541,   10610,   10609,   10532,   10531,   10660,   10659
     665,   10545,   10543,   10609,   10608,   10533,   10532,   10659,   10658
     666,   10547,   10545,   10608,   10607,   10534,   10533,   10658,   10657
     667,   10549,   10547,   10607,   10606,   10535,   10534,   10657,   10656
     668,   10551,   10549,   10606,   10605,   10536,   10535,   10656,   10655
     669,   10553,   10551,   10605,   10604,   10537,   10536,   10655,   10654
     670,   10508,   10553,   10604,   10528,   10506,   10537,   10654,   10509
*ELEMENT, TYPE=COH3D8, ELSET=mortar
     671,   11010,   11024,   11050,   11049,   11011,   11048,   11076,   11063
     672,   11024,   11023,   11051,   11050,   11048,   11047,   11077,   11076
     673,   11023,   11022,   11052,   11051,   11047,   11046,   11078,   11077
     674,   11022,   11021,   11053,   11052,   11046,   11045,   11079,   11078
     675,   11021,   11020,   11054,   11053,   11045,   11044,   11080,   11079
     676,   11020,   11019,   11055,   11054,   11044,   11043,   11081,   11080
     677,   11019,   11018,   11056,   11055,   11043,   11042,   11082,   11081
     678,   11018,   11017,   11057,   11056,   11042,   11041,   11083,   11082
     679,   11017,   11016,   11058,   11057,   11041,   11040,   11084,   11083
     680,   11016,   11015,   11059,   11058,   11040,   11039,   11085,   11084
     681,   11015,   11014,   11060,   11059,   11039,   11038,   11086,   11085
     682,   11014,   11013,   11061,   11060,   11038,   11037,   11087,   11086
     683,   11013,   11004,   11007,   11061,   11037,   11006,   11008,   11087
     684,   11011,   11048,   11076,   11063,   11012,   11036,   11064,   11062
     685,   11048,   11047,   11077,   11076,   11036,   11035,   11065,   11064
     686,   11047,   11046,   11078,   11077,   11035,   11034,   11066,   11065
     687,   11046,   11045,   11079,   11078,   11034,   11033,   11067,   11066
     688,   11045,   11044,   11080,   11079,   11033,   11032,   11068,   11067
     689,   11044,   11043,   11081,   11080,   11032,   11031,   11069,   11068
     690,   11043,   11042,   11082,   11081,   11031,   11030,   11070,   11069
     691,   11042,   11041,   11083,   11082,   11030,   11029,   11071,   11070
     692,   11041,   11040,   11084,   11083,   11029,   11028,   11072,   11071
     693,   11040,   11039,   11085,   11084,   11028,   11027,   11073,   11072
     694,   11039,   11038,   11086,   11085,   11027,   11026,   11074,   11073
     695,   11038,   11037,   11087,   11086,   11026,   11025,   11075,   11074
     696,   11037,   11006,   11008,   11087,   11025,   11005,   11009,   11075
     697,   11012,   11036,   11064,   11062,   10976,   10990,   10992,   10977
     698,   11036,   11035,   11065,   11064,   10990,   10989,   10993,   10992
     699,   11035,   11034,   11066,   11065,   10989,   10988,   10994,   10993
     700,   11034,   11033,   11067,   11066,   10988,   10987,   10995,   10994
     701,   11033,   11032,   11068,   11067,   10987,   10986,   10996,   10995
     702,   11032,   11031,   11069,   11068,   10986,   10985,   10997,   10996
     703,   11031,   11030,   11070,   11069,   10985,   10984,   10998,   10997
     704,   11030,   11029,   11071,   11070,   10984,   10983,   10999,   10998
     705,   11029,   11028,   11072,   11071,   10983,   10982,   11000,   10999
     706,   11028,   11027,   11073,   11072,   10982,   10981,   11001,   11000
     707,   11027,   11026,   11074,   11073,   10981,   10980,   11002,   11001
     708,   11026,   11025,   11075,   11074,   10980,   10979,   11003,   11002
     709,   11025,   11005,   11009,   11075,   10979,   10978,   10991,   11003
     710,   10978,   12727,   12684,   10991,   10979,   12739,   12686,   11003
     711,   12727,   12726,   12685,   12684,   12739,   12751,   12698,   12686
     712,   12726,   12713,   12671,   12685,   12751,   12725,   12672,   12698
     713,   10979,   12739,   12686,   11003,   10980,   12738,   12687,   11002
     714,   12739,   12751,   12698,   12686,   12738,   12750,   12699,   12687
     715,   12751,   12725,   12672,   12698,   12750,   12724,   12673,   12699
     716,   10980,   12738,   12687,   11002,   10981,   12737,   12688,   11001
     717,   12738,   12750,   12699,   12687,   12737,   12749,   12700,   12688
     718,   12750,   12724,   12673,   12699,   12749,   12723,   12674,   12700
     719,   10981,   12737,   12688,   11001,   10982,   12736,   12689,   11000
     720,   12737,   12749,   12700,   12688,   12736,   12748,   12701,   12689
     721,   12749,   12723,   12674,   12700,   12748,   12722,   12675,   12701
     722,   10982,   12736,   12689,   11000,   10983,   12735,   12690,   10999
     723,   12736,   12748,   12701,   12689,   12735,   12747,   12702,   12690
     724,   12748,   12722,   12675,   12701,   12747,   12721,   12676,   12702
     725,   10983,   12735,   12690,   10999,   10984,   12734,   12691,   10998
     726,   12735,   12747,   12702,   12690,   12734,   12746,   12703,   12691
     727,   12747,   12721,   12676,   12702,   12746,   12720,   12677,   12703
     728,   10984,   12734,   12691,   10998,   10985,   12733,   12692,   10997
     729,   12734,   12746,   12703,   12691,   12733,   12745,   12704,   12692
     730,   12746,   12720,   12677,   12703,   12745,   12719,   12678,   12704
     731,   10985,   12733,   12692,   10997,   10986,   12732,   12693,   10996
     732,   12733,   12745,   12704,   12692,   12732,   12744,   12705,   12693
     733,   12745,   12719,   12678,   12704,   12744,   12718,   12679,   12705
     734,   10986,   12732,   12693,   10996,   10987,   12731,   12694,   10995
     735,   12732,   12744,   12705,   12693,   12731,   12743,   12706,   12694
     736,   12744,   12718,   12679,   12705,   12743,   12717,   12680,   12706
     737,   10987,   12731,   12694,   10995,   10988,   12730,   12695,   10994
     738,   12731,   12743,   12706,   12694,   12730,   12742,   12707,   12695
     739,   12743,   12717,   12680,   12706,   12742,   12716,   12681,   12707
     740,   10988,   12730,   12695,   10994,   10989,   12729,   12696,   10993
     741,   12730,   12742,   12707,   12695,   12729,   12741,   12708,   12696
     742,   12742,   12716,   12681,   12707,   12741,   12715,   12682,   12708
     743,   10989,   12729,   12696,   10993,   10990,   12728,   12697,   10992
     744,   12729,   12741,   12708,   12696,   12728,   12740,   12709,   12697
     745,   12741,   12715,   12682,   12708,   12740,   12714,   12683,   12709
     746,   10990,   12728,   12697,   10992,   10976,   12711,   12670,   10977
     747,   12728,   12740,   12709,   12697,   12711,   12712,   12669,   12670
     748,   12740,   12714,   12683,   12709,   12712,   12710,   12668,   12669
********************************** N O D E S E T S **********************************
*NSET, NSET=plate_bottom
    4895,    4896,    4897,    4898,    5345,    5346,
    5347,    5348,    5349,    5350,    5351,    5352,
    5353,    5354,    5355,    5356,    5357,    5358,
    5359,    5360,    5361,    5362,    5363,    5364,
    5365,    5366,    5367,    5368,    5369,    5370,
    5371,    5372,    5373,    5374,    5375,    5376,
    5377,    5378,    5379,    5380,    5381,    5382,
    5383,    5384,    5385,    5386,    5387,    5388,
    5389,    5390,    5391,    5392,    5393,    5394,
    5395,    5396,    5397,    5398,    5399,    5400,
    5401,    5402,    5403,    5404,    5405,    5406,
    5407,    5408,    5409,    5410,    5411,    5412,
    5413,    5414,    5415,    5416,    5417,   10309,
   10310,   10311,   10704,   10705,   10706,   10707,
   10708,   10709,   10710,   10711,   10712,   10713,
   10714,   10715,   10716,   10717,   10718,   10719,
   10720,   10721,   10722,   10723,   10724,   10725,
   10726,   10727,   10728,   10729,   10730,   10731,
   10732,   10733,   10734,   10735,   10736,   10737,
   10738,   10739,   10740,   10741,   10742,   10743,
   10744,   10745,   10746,   10747,   10748,   10749,
   10750,   10751,   10752,   10753,   10754,   10755,
   10756,   10757,   10758,   10759,   10760,   10761,
   10762,   10763,   10764,   10765,   10766,   10767,
   10768,   10769,   10770,   10771,   10772,   10773,
   10774,   10775,
*NSET, NSET=plate_left_loading
   10416,   10424,   10425,   10426,   10427,   10428,
   10429,   10430,   10431,   10432,
*NSET, NSET=z_symm
    4874,    4877,    4878,    4886,    4899,    4900,
    4901,    4902,    4903,    4904,    4905,    4906,
    4907,    4908,    4909,    4910,    4911,    4912,
    4913,    4914,    4915,    4985,    4986,    4987,
    4988,    4989,    4990,    4991,    4992,    4993,
    4994,    4995,    4996,    4997,    4998,    4999,
    5000,    5001,    5002,    5003,    5004,    5005,
    5006,    5007,    5008,    5009,    5010,    5011,
    5012,    5013,    5014,    5015,    5016,    5017,
    5018,    5059,    5060,    5061,    5062,    5063,
    5064,    5168,    5169,    5170,    5171,    5172,
    5173,    5174,    5175,    5176,    5177,    5178,
    5179,    5180,    5181,    5182,    5183,    5184,
    5185,    5359,    5360,    5361,    5362,    5363,
    5364,   10290,   10291,   10292,   10297,   10309,
   10312,   10313,   10326,   10327,   10328,   10329,
   10330,   10331,   10332,   10333,   10334,   10335,
   10336,   10337,   10338,   10339,   10340,   10341,
   10342,   10343,   10344,   10345,   10346,   10347,
   10348,   10349,   10350,   10351,   10352,   10353,
   10354,   10355,   10356,   10357,   10424,   10433,
   10434,   10435,   10436,   10437,   10488,   10489,
   10490,   10491,   10492,   10493,   10494,   10495,
   10496,   10497,   10498,   10499,   10500,   10501,
   10502,   10503,   10504,   10505,   10704,   10705,
   10706,   10707,   10708,   10709,   12668,   12671,
   12710,   12713,
********************************** S I D E S E T S **********************************
*ELSET, ELSET=plate_bottom_S1
      86,      87,      88,      89,      90,      91,      92,      93,      94,      95,
      96,      97,      98,      99,     100,     101,     102,     103,     104,     105,
     106,     107,     108,     109,     110,     111,     112,     113,     114,     115,
     116,     117,     118,     119,     120,     121,     122,     123,     124,     125,
     126,     127,     128,     129,     130,     131,     132,     133,     134,     135,
     136,     137,     138,     139,     140,     141,     142,     143,     144,     145,
     411,     412,     413,     414,     415,     416,     417,     418,     419,     420,
     421,     422,     423,     424,     425,     426,     427,     428,     429,     430,
     431,     432,     433,     434,     435,     436,     437,     438,     439,     440,
     441,     442,     443,     444,     445,     446,     447,     448,     449,     450,
     451,     452,     453,     454,     455,     456,     457,     458,     459,     460,
     461,     462,     463,     464,     465,     466,     467,     468,     469,     470,
     471,     472,     473,     474,     475
*SURFACE, NAME=plate_bottom
plate_bottom_S1, S1
*ELSET, ELSET=mortar_to_anchor_S5
     671,     672,     673,     674,     675,     676,     677,     678,     679,     680,
     681,     682,     683,     684,     685,     686,     687,     688,     689,     690,
     691,     692,     693,     694,     695,     696,     697,     698,     699,     700,
     701,     702,     703,     704,     705,     706,     707,     708,     709,     710,
     711,     712,     713,     714,     715,     716,     717,     718,     719,     720,
     721,     722,     723,     724,     725,     726,     727,     728,     729,     730,
     731,     732,     733,     734,     735,     736,     737,     738,     739,     740,
     741,     742,     743,     744,     745,     746,     747,     748
*SURFACE, NAME=mortar_to_anchor
mortar_to_anchor_S5, S5
*ELSET, ELSET=anchor_to_mortar_S3
      24,      25,      29,      30,      34,      35,      39,      40,      44,      45,
      49,      50,      54,      55,      59,      60,      64,      65,      69,      70,
      74,      75,      79,      80,      84,      85,     119,     179,     239,     299,
     329,     330,     334,     335,     339,     340,     344,     345,     349,     350,
     354,     355,     359,     360,     364,     365,     369,     370,     374,     375,
     379,     380,     384,     385,     389,     390,     449,     514,     579,     644
*ELSET, ELSET=anchor_to_mortar_S4
      21,      26,      31,      36,      41,      46,      51,      56,      61,      66,
      71,      76,      81,     131,     191,     251,     311,     326,     331,     336,
     341,     346,     351,     356,     361,     366,     371,     376,     381,     386,
     456,     521,     586,     651
*ELSET, ELSET=anchor_to_mortar_S6
     130,     190,     250,     310,     466,     531,     596,     661
*SURFACE, NAME=anchor_to_mortar
anchor_to_mortar_S3, S3
anchor_to_mortar_S4, S4
anchor_to_mortar_S6, S6
*ELSET, ELSET=mortar_to_concrete_S3
     671,     672,     673,     674,     675,     676,     677,     678,     679,     680,
     681,     682,     683,     684,     685,     686,     687,     688,     689,     690,
     691,     692,     693,     694,     695,     696,     697,     698,     699,     700,
     701,     702,     703,     704,     705,     706,     707,     708,     709,     710,
     711,     712,     713,     714,     715,     716,     717,     718,     719,     720,
     721,     722,     723,     724,     725,     726,     727,     728,     729,     730,
     731,     732,     733,     734,     735,     736,     737,     738,     739,     740,
     741,     742,     743,     744,     745,     746,     747,     748
*SURFACE, NAME=mortar_to_concrete
mortar_to_concrete_S3, S3
