*Heading
** Job name: headedStud Model name: Model-1
** Generated by: Abaqus/CAE 2019
*Preprint, echo=NO, model=NO, history=NO, contact=NO
**
** PARTS
**
*Part, name=concrete
*Include, input="./mesh/concrete.inp"
*Solid Section, elset=concrete, material=concrete_elastic
*End Part
**  
*Part, name=steel
*Include, input="./mesh/steel.inp"
*Solid Section, elset=STEEL, material=STEEL_ANCHOR
*ORIENTATION, name=MORTAR_CYL, SYSTEM=CYLINDRICAL
0, 0, 0, 0, 1, 0
1
**
** Cohesive Section
*COHESIVE SECTION, elset=MORTAR, material=stick_slip, response=TRACTION SEPARATION, ORIENTATION=MORTAR_CYL, STACK DIRECTION=ORIENTATION
*End Part
**
** ASSEMBLY
**
*Assembly, name=Assembly
**  
*Instance, name=concrete-1, part=concrete
*End Instance
**  
*Instance, name=steel-1, part=steel
*End Instance
**  
*TIE, NAME=ANCHOR_TO_MORTAR,TYPE=SURFACE TO SURFACE
steel-1.mortar_to_anchor, steel-1.anchor_to_mortar
*TIE, NAME=MORTAR_TO_CONCRETE,TYPE=SURFACE TO SURFACE
concrete-1.concrete_to_mortar, steel-1.mortar_to_concrete
*End Assembly
**  
** MATERIALS
** 
*Material, name=STEEL_ANCHOR
*Elastic
200000., 0.3
*DENSITY
7.85e-9
*Material, name=concrete_elastic
*Elastic
30000, 0.2
*DENSITY
2.4e-9
**
*Material, name=stick_slip
*Elastic, type=TRACTION
5400, 2700, 2700
*DENSITY
2e-9
** INTERACTION PROPERTIES
** 
*Surface Interaction, name="steel concrete"
*Surface Behavior, pressure-overclosure=LINEAR
1e6
*Contact
*Contact Inclusions
steel-1.PLATE_BOTTOM, concrete-1.CONCRETE_TOP
*Contact Property Assignment
steel-1.PLATE_BOTTOM, concrete-1.CONCRETE_TOP, "steel concrete"
** 
** Name: concrete_xzSymm Type: Symmetry/Antisymmetry/Encastre
*Boundary
concrete-1.back_support, 2, 2
concrete-1.back_support, 1, 1
concrete-1.bottom, 2, 2
concrete-1.front_support, 1, 1
*Boundary
steel-1.z_symm, zSYMM
concrete-1.z_symm, zSYMM
steel-1.shear_loading, 1, 1
** 
** STEP: loading
** 
*Step, name=loading, nlgeom=no, inc=100000
*Static
1e-2, 1, 1e-08, 1e-2
**
** Name: load Type: Displacement
*Boundary, type=displacement
steel-1.shear_loading, 1, 1, 5.0
steel-1.shear_loading, 2, 2, 0.0
*End Step
