********************************** N O D E S **********************************
*NODE, NSET=ALLNODES
    1897,    0.000000e+00,    1.600000e+01,   -8.000000e+00
    1898,    0.000000e+00,    1.600000e+01,    0.000000e+00
    1899,    0.000000e+00,    1.600000e+01,   -4.000000e+00
    1900,    8.000000e+00,    1.600000e+01,   -2.020667e-15
    1901,    5.333333e+00,    1.600000e+01,    0.000000e+00
    1902,    2.666667e+00,    1.600000e+01,    0.000000e+00
    1903,    6.928203e+00,    1.600000e+01,   -4.000000e+00
    1904,    4.000000e+00,    1.600000e+01,   -6.928203e+00
    1905,    5.026854e+00,    1.600000e+01,   -2.413361e+00
    1906,    2.829203e+00,    1.600000e+01,   -3.243589e+00
    1907,    0.000000e+00,    5.333333e+00,   -8.000000e+00
    1908,    0.000000e+00,    1.244444e+01,   -8.000000e+00
    1909,    0.000000e+00,    8.888889e+00,   -8.000000e+00
    1910,    8.000000e+00,    5.333333e+00,    0.000000e+00
    1911,    6.928203e+00,    5.333333e+00,   -4.000000e+00
    1912,    4.000000e+00,    5.333333e+00,   -6.928203e+00
    1913,    8.000000e+00,    1.244444e+01,   -2.721437e-16
    1914,    8.000000e+00,    8.888889e+00,   -5.442875e-17
    1915,    4.000000e+00,    1.244444e+01,   -6.928203e+00
    1916,    4.000000e+00,    8.888889e+00,   -6.928203e+00
    1917,    6.928203e+00,    1.244444e+01,   -4.000000e+00
    1918,    6.928203e+00,    8.888889e+00,   -4.000000e+00
    1919,    0.000000e+00,    0.000000e+00,   -8.000000e+00
    1920,    8.000000e+00,    0.000000e+00,    4.898587e-16
    1921,    6.928203e+00,    0.000000e+00,   -4.000000e+00
    1922,    4.000000e+00,    0.000000e+00,   -6.928203e+00
    1923,    0.000000e+00,   -5.000000e+01,    0.000000e+00
    1924,    0.000000e+00,    1.211765e+01,    0.000000e+00
    1925,    0.000000e+00,    8.235294e+00,    0.000000e+00
    1926,    0.000000e+00,    4.352941e+00,    0.000000e+00
    1927,    0.000000e+00,    4.705882e-01,    0.000000e+00
    1928,    0.000000e+00,   -3.411765e+00,    0.000000e+00
    1929,    0.000000e+00,   -7.294118e+00,    0.000000e+00
    1930,    0.000000e+00,   -1.117647e+01,    0.000000e+00
    1931,    0.000000e+00,   -1.505882e+01,    0.000000e+00
    1932,    0.000000e+00,   -1.894118e+01,    0.000000e+00
    1933,    0.000000e+00,   -2.282353e+01,    0.000000e+00
    1934,    0.000000e+00,   -2.670588e+01,    0.000000e+00
    1935,    0.000000e+00,   -3.058824e+01,    0.000000e+00
    1936,    0.000000e+00,   -3.447059e+01,    0.000000e+00
    1937,    0.000000e+00,   -3.835294e+01,    0.000000e+00
    1938,    0.000000e+00,   -4.223529e+01,    0.000000e+00
    1939,    0.000000e+00,   -4.611765e+01,    0.000000e+00
    1940,    0.000000e+00,   -5.000000e+01,   -8.000000e+00
    1941,    0.000000e+00,   -4.615385e+01,   -8.000000e+00
    1942,    0.000000e+00,   -4.230769e+01,   -8.000000e+00
    1943,    0.000000e+00,   -3.846154e+01,   -8.000000e+00
    1944,    0.000000e+00,   -3.461538e+01,   -8.000000e+00
    1945,    0.000000e+00,   -3.076923e+01,   -8.000000e+00
    1946,    0.000000e+00,   -2.692308e+01,   -8.000000e+00
    1947,    0.000000e+00,   -2.307692e+01,   -8.000000e+00
    1948,    0.000000e+00,   -1.923077e+01,   -8.000000e+00
    1949,    0.000000e+00,   -1.538462e+01,   -8.000000e+00
    1950,    0.000000e+00,   -1.153846e+01,   -8.000000e+00
    1951,    0.000000e+00,   -7.692308e+00,   -8.000000e+00
    1952,    0.000000e+00,   -3.846154e+00,   -8.000000e+00
    1953,    0.000000e+00,   -5.000000e+01,   -4.000000e+00
    1954,    0.000000e+00,   -4.613575e+01,   -4.000000e+00
    1955,    0.000000e+00,   -4.227149e+01,   -4.000000e+00
    1956,    0.000000e+00,   -3.840724e+01,   -4.000000e+00
    1957,    0.000000e+00,   -3.454299e+01,   -4.000000e+00
    1958,    0.000000e+00,   -3.067873e+01,   -4.000000e+00
    1959,    0.000000e+00,   -2.681448e+01,   -4.000000e+00
    1960,    0.000000e+00,   -2.295023e+01,   -4.000000e+00
    1961,    0.000000e+00,   -1.908597e+01,   -4.000000e+00
    1962,    0.000000e+00,   -1.522172e+01,   -4.000000e+00
    1963,    0.000000e+00,   -1.135747e+01,   -4.000000e+00
    1964,    0.000000e+00,   -7.493213e+00,   -4.000000e+00
    1965,    0.000000e+00,   -3.628959e+00,   -4.000000e+00
    1966,    0.000000e+00,    2.352941e-01,   -4.000000e+00
    1967,    0.000000e+00,    4.843137e+00,   -4.000000e+00
    1968,    0.000000e+00,    8.562092e+00,   -4.000000e+00
    1969,    0.000000e+00,    1.228105e+01,   -4.000000e+00
    1970,    8.000000e+00,   -5.000000e+01,    2.020667e-15
    1971,    8.000000e+00,   -4.615385e+01,    1.785158e-15
    1972,    8.000000e+00,   -4.230769e+01,    1.549649e-15
    1973,    8.000000e+00,   -3.846154e+01,    1.314140e-15
    1974,    8.000000e+00,   -3.461538e+01,    1.078631e-15
    1975,    8.000000e+00,   -3.076923e+01,    8.431222e-16
    1976,    8.000000e+00,   -2.692308e+01,    6.076132e-16
    1977,    8.000000e+00,   -2.307692e+01,    3.721042e-16
    1978,    8.000000e+00,   -1.923077e+01,    1.365952e-16
    1979,    8.000000e+00,   -1.538462e+01,   -9.891378e-17
    1980,    8.000000e+00,   -1.153846e+01,   -3.344228e-16
    1981,    8.000000e+00,   -7.692308e+00,   -5.699318e-16
    1982,    8.000000e+00,   -3.846154e+00,   -8.054408e-16
    1983,    4.000000e+00,   -5.000000e+01,   -6.928203e+00
    1984,    6.928203e+00,   -5.000000e+01,   -4.000000e+00
    1985,    4.000000e+00,   -3.846154e+00,   -6.928203e+00
    1986,    6.928203e+00,   -3.846154e+00,   -4.000000e+00
    1987,    4.000000e+00,   -7.692308e+00,   -6.928203e+00
    1988,    6.928203e+00,   -7.692308e+00,   -4.000000e+00
    1989,    4.000000e+00,   -1.153846e+01,   -6.928203e+00
    1990,    6.928203e+00,   -1.153846e+01,   -4.000000e+00
    1991,    4.000000e+00,   -1.538462e+01,   -6.928203e+00
    1992,    6.928203e+00,   -1.538462e+01,   -4.000000e+00
    1993,    4.000000e+00,   -1.923077e+01,   -6.928203e+00
    1994,    6.928203e+00,   -1.923077e+01,   -4.000000e+00
    1995,    4.000000e+00,   -2.307692e+01,   -6.928203e+00
    1996,    6.928203e+00,   -2.307692e+01,   -4.000000e+00
    1997,    4.000000e+00,   -2.692308e+01,   -6.928203e+00
    1998,    6.928203e+00,   -2.692308e+01,   -4.000000e+00
    1999,    4.000000e+00,   -3.076923e+01,   -6.928203e+00
    2000,    6.928203e+00,   -3.076923e+01,   -4.000000e+00
    2001,    4.000000e+00,   -3.461538e+01,   -6.928203e+00
    2002,    6.928203e+00,   -3.461538e+01,   -4.000000e+00
    2003,    4.000000e+00,   -3.846154e+01,   -6.928203e+00
    2004,    6.928203e+00,   -3.846154e+01,   -4.000000e+00
    2005,    4.000000e+00,   -4.230769e+01,   -6.928203e+00
    2006,    6.928203e+00,   -4.230769e+01,   -4.000000e+00
    2007,    4.000000e+00,   -4.615385e+01,   -6.928203e+00
    2008,    6.928203e+00,   -4.615385e+01,   -4.000000e+00
    2009,    2.666667e+00,   -5.000000e+01,    0.000000e+00
    2010,    5.333333e+00,   -5.000000e+01,    0.000000e+00
    2011,    2.666667e+00,    1.222658e+01,    0.000000e+00
    2012,    2.666667e+00,    8.453159e+00,    0.000000e+00
    2013,    2.666667e+00,    4.679739e+00,    0.000000e+00
    2014,    2.666667e+00,    3.137255e-01,    0.000000e+00
    2015,    2.666667e+00,   -3.556561e+00,    0.000000e+00
    2016,    2.666667e+00,   -7.426848e+00,    0.000000e+00
    2017,    2.666667e+00,   -1.129713e+01,    0.000000e+00
    2018,    2.666667e+00,   -1.516742e+01,    0.000000e+00
    2019,    2.666667e+00,   -1.903771e+01,    0.000000e+00
    2020,    2.666667e+00,   -2.290799e+01,    0.000000e+00
    2021,    2.666667e+00,   -2.677828e+01,    0.000000e+00
    2022,    2.666667e+00,   -3.064857e+01,    0.000000e+00
    2023,    2.666667e+00,   -3.451885e+01,    0.000000e+00
    2024,    2.666667e+00,   -3.838914e+01,    0.000000e+00
    2025,    2.666667e+00,   -4.225943e+01,    0.000000e+00
    2026,    2.666667e+00,   -4.612971e+01,    0.000000e+00
    2027,    5.333333e+00,    1.233551e+01,    0.000000e+00
    2028,    5.333333e+00,    8.671024e+00,    0.000000e+00
    2029,    5.333333e+00,    5.006536e+00,    0.000000e+00
    2030,    5.333333e+00,    1.568627e-01,    0.000000e+00
    2031,    5.333333e+00,   -3.701357e+00,    0.000000e+00
    2032,    5.333333e+00,   -7.559578e+00,    0.000000e+00
    2033,    5.333333e+00,   -1.141780e+01,    0.000000e+00
    2034,    5.333333e+00,   -1.527602e+01,    0.000000e+00
    2035,    5.333333e+00,   -1.913424e+01,    0.000000e+00
    2036,    5.333333e+00,   -2.299246e+01,    0.000000e+00
    2037,    5.333333e+00,   -2.685068e+01,    0.000000e+00
    2038,    5.333333e+00,   -3.070890e+01,    0.000000e+00
    2039,    5.333333e+00,   -3.456712e+01,    0.000000e+00
    2040,    5.333333e+00,   -3.842534e+01,    0.000000e+00
    2041,    5.333333e+00,   -4.228356e+01,    0.000000e+00
    2042,    5.333333e+00,   -4.614178e+01,    0.000000e+00
    2043,    2.829203e+00,    1.233717e+01,   -3.243589e+00
    2044,    5.026854e+00,    1.237978e+01,   -2.413361e+00
    2045,    2.829203e+00,    8.663715e+00,   -3.243589e+00
    2046,    5.026854e+00,    8.750145e+00,   -2.413361e+00
    2047,    2.829203e+00,    4.995572e+00,   -3.243589e+00
    2048,    5.026854e+00,    5.125218e+00,   -2.413361e+00
    2049,    2.829203e+00,    1.621253e-01,   -3.243589e+00
    2050,    5.026854e+00,    9.989524e-02,   -2.413361e+00
    2051,    2.829203e+00,   -3.703567e+00,   -3.243589e+00
    2052,    5.026854e+00,   -3.760201e+00,   -2.413361e+00
    2053,    2.829203e+00,   -7.561603e+00,   -3.243589e+00
    2054,    5.026854e+00,   -7.613518e+00,   -2.413361e+00
    2055,    2.829203e+00,   -1.141964e+01,   -3.243589e+00
    2056,    5.026854e+00,   -1.146683e+01,   -2.413361e+00
    2057,    2.829203e+00,   -1.527768e+01,   -3.243589e+00
    2058,    5.026854e+00,   -1.532015e+01,   -2.413361e+00
    2059,    2.829203e+00,   -1.913571e+01,   -3.243589e+00
    2060,    5.026854e+00,   -1.917347e+01,   -2.413361e+00
    2061,    2.829203e+00,   -2.299375e+01,   -3.243589e+00
    2062,    5.026854e+00,   -2.302678e+01,   -2.413361e+00
    2063,    2.829203e+00,   -2.685178e+01,   -3.243589e+00
    2064,    5.026854e+00,   -2.688010e+01,   -2.413361e+00
    2065,    2.829203e+00,   -3.070982e+01,   -3.243589e+00
    2066,    5.026854e+00,   -3.073342e+01,   -2.413361e+00
    2067,    2.829203e+00,   -3.456786e+01,   -3.243589e+00
    2068,    5.026854e+00,   -3.458673e+01,   -2.413361e+00
    2069,    2.829203e+00,   -3.842589e+01,   -3.243589e+00
    2070,    5.026854e+00,   -3.844005e+01,   -2.413361e+00
    2071,    2.829203e+00,   -4.228393e+01,   -3.243589e+00
    2072,    5.026854e+00,   -4.229337e+01,   -2.413361e+00
    2073,    2.829203e+00,   -4.614196e+01,   -3.243589e+00
    2074,    5.026854e+00,   -4.614668e+01,   -2.413361e+00
    2075,    2.829203e+00,   -5.000000e+01,   -3.243589e+00
    2076,    5.026854e+00,   -5.000000e+01,   -2.413361e+00
    2077,    0.000000e+00,    5.333333e+00,   -6.400000e+01
    2078,    0.000000e+00,    5.333333e+00,   -6.000000e+01
    2079,    0.000000e+00,    5.333333e+00,   -5.600000e+01
    2080,    0.000000e+00,    5.333333e+00,   -5.200000e+01
    2081,    0.000000e+00,    5.333333e+00,   -4.800000e+01
    2082,    0.000000e+00,    5.333333e+00,   -4.400000e+01
    2083,    0.000000e+00,    5.333333e+00,   -4.000000e+01
    2084,    0.000000e+00,    5.333333e+00,   -3.600000e+01
    2085,    0.000000e+00,    5.333333e+00,   -3.200000e+01
    2086,    0.000000e+00,    5.333333e+00,   -2.800000e+01
    2087,    0.000000e+00,    5.333333e+00,   -2.400000e+01
    2088,    0.000000e+00,    5.333333e+00,   -2.000000e+01
    2089,    0.000000e+00,    5.333333e+00,   -1.600000e+01
    2090,    0.000000e+00,    5.333333e+00,   -1.200000e+01
    2091,    6.400000e+01,    5.333333e+00,    0.000000e+00
    2092,    6.000000e+01,    5.333333e+00,    0.000000e+00
    2093,    5.600000e+01,    5.333333e+00,    0.000000e+00
    2094,    5.200000e+01,    5.333333e+00,    0.000000e+00
    2095,    4.800000e+01,    5.333333e+00,    0.000000e+00
    2096,    4.400000e+01,    5.333333e+00,    0.000000e+00
    2097,    4.000000e+01,    5.333333e+00,    0.000000e+00
    2098,    3.600000e+01,    5.333333e+00,    0.000000e+00
    2099,    3.200000e+01,    5.333333e+00,    0.000000e+00
    2100,    2.800000e+01,    5.333333e+00,    0.000000e+00
    2101,    2.400000e+01,    5.333333e+00,    0.000000e+00
    2102,    2.000000e+01,    5.333333e+00,    0.000000e+00
    2103,    1.600000e+01,    5.333333e+00,    0.000000e+00
    2104,    1.200000e+01,    5.333333e+00,    0.000000e+00
    2105,    6.400000e+01,    5.333333e+00,   -6.400000e+01
    2106,    6.400000e+01,    5.333333e+00,   -6.023529e+01
    2107,    6.400000e+01,    5.333333e+00,   -5.647059e+01
    2108,    6.400000e+01,    5.333333e+00,   -5.270588e+01
    2109,    6.400000e+01,    5.333333e+00,   -4.894118e+01
    2110,    6.400000e+01,    5.333333e+00,   -4.517647e+01
    2111,    6.400000e+01,    5.333333e+00,   -4.141176e+01
    2112,    6.400000e+01,    5.333333e+00,   -3.764706e+01
    2113,    6.400000e+01,    5.333333e+00,   -3.388235e+01
    2114,    6.400000e+01,    5.333333e+00,   -3.011765e+01
    2115,    6.400000e+01,    5.333333e+00,   -2.635294e+01
    2116,    6.400000e+01,    5.333333e+00,   -2.258824e+01
    2117,    6.400000e+01,    5.333333e+00,   -1.882353e+01
    2118,    6.400000e+01,    5.333333e+00,   -1.505882e+01
    2119,    6.400000e+01,    5.333333e+00,   -1.129412e+01
    2120,    6.400000e+01,    5.333333e+00,   -7.529412e+00
    2121,    6.400000e+01,    5.333333e+00,   -3.764706e+00
    2122,    4.000000e+00,    5.333333e+00,   -6.400000e+01
    2123,    8.000000e+00,    5.333333e+00,   -6.400000e+01
    2124,    1.200000e+01,    5.333333e+00,   -6.400000e+01
    2125,    1.600000e+01,    5.333333e+00,   -6.400000e+01
    2126,    2.000000e+01,    5.333333e+00,   -6.400000e+01
    2127,    2.400000e+01,    5.333333e+00,   -6.400000e+01
    2128,    2.800000e+01,    5.333333e+00,   -6.400000e+01
    2129,    3.200000e+01,    5.333333e+00,   -6.400000e+01
    2130,    3.600000e+01,    5.333333e+00,   -6.400000e+01
    2131,    4.000000e+01,    5.333333e+00,   -6.400000e+01
    2132,    4.400000e+01,    5.333333e+00,   -6.400000e+01
    2133,    4.800000e+01,    5.333333e+00,   -6.400000e+01
    2134,    5.200000e+01,    5.333333e+00,   -6.400000e+01
    2135,    5.600000e+01,    5.333333e+00,   -6.400000e+01
    2136,    6.000000e+01,    5.333333e+00,   -6.400000e+01
    2137,    6.002922e+01,    5.333333e+00,   -3.797724e+00
    2138,    6.003101e+01,    5.333333e+00,   -7.581841e+00
    2139,    6.003682e+01,    5.333333e+00,   -1.135269e+01
    2140,    6.003557e+01,    5.333333e+00,   -1.511740e+01
    2141,    6.003580e+01,    5.333333e+00,   -1.887796e+01
    2142,    6.004256e+01,    5.333333e+00,   -2.263396e+01
    2143,    6.005933e+01,    5.333333e+00,   -2.638518e+01
    2144,    6.008236e+01,    5.333333e+00,   -3.013176e+01
    2145,    6.009459e+01,    5.333333e+00,   -3.387711e+01
    2146,    6.009619e+01,    5.333333e+00,   -3.762096e+01
    2147,    6.009187e+01,    5.333333e+00,   -4.136643e+01
    2148,    6.008653e+01,    5.333333e+00,   -4.511865e+01
    2149,    6.008209e+01,    5.333333e+00,   -4.887610e+01
    2150,    6.007820e+01,    5.333333e+00,   -5.263615e+01
    2151,    6.006741e+01,    5.333333e+00,   -5.640646e+01
    2152,    6.003405e+01,    5.333333e+00,   -6.019939e+01
    2153,    4.004054e+00,    5.333333e+00,   -6.000185e+01
    2154,    4.010517e+00,    5.333333e+00,   -5.600558e+01
    2155,    4.025683e+00,    5.333333e+00,   -5.200876e+01
    2156,    4.045803e+00,    5.333333e+00,   -4.801325e+01
    2157,    4.091464e+00,    5.333333e+00,   -4.401559e+01
    2158,    4.151107e+00,    5.333333e+00,   -4.001730e+01
    2159,    4.217838e+00,    5.333333e+00,   -3.601438e+01
    2160,    4.306461e+00,    5.333333e+00,   -3.200299e+01
    2161,    4.404270e+00,    5.333333e+00,   -2.796569e+01
    2162,    4.512231e+00,    5.333333e+00,   -2.388980e+01
    2163,    4.677735e+00,    5.333333e+00,   -1.973242e+01
    2164,    5.095770e+00,    5.333333e+00,   -1.546986e+01
    2165,    6.087864e+00,    5.333333e+00,   -1.045262e+01
    2166,    1.069860e+01,    5.333333e+00,   -5.155009e+00
    2167,    1.545546e+01,    5.333333e+00,   -4.350985e+00
    2168,    1.964209e+01,    5.333333e+00,   -4.127743e+00
    2169,    2.372525e+01,    5.333333e+00,   -4.047906e+00
    2170,    2.779426e+01,    5.333333e+00,   -4.015703e+00
    2171,    3.185794e+01,    5.333333e+00,   -3.982693e+00
    2172,    3.590936e+01,    5.333333e+00,   -3.947828e+00
    2173,    3.995212e+01,    5.333333e+00,   -3.918120e+00
    2174,    4.398960e+01,    5.333333e+00,   -3.891596e+00
    2175,    4.802267e+01,    5.333333e+00,   -3.874793e+00
    2176,    5.204224e+01,    5.333333e+00,   -3.856267e+00
    2177,    5.603568e+01,    5.333333e+00,   -3.825597e+00
    2178,    5.605831e+01,    5.333333e+00,   -6.017227e+01
    2179,    5.206865e+01,    5.333333e+00,   -6.016125e+01
    2180,    4.806784e+01,    5.333333e+00,   -6.015629e+01
    2181,    4.406693e+01,    5.333333e+00,   -6.015274e+01
    2182,    4.006107e+01,    5.333333e+00,   -6.014123e+01
    2183,    3.605708e+01,    5.333333e+00,   -6.012643e+01
    2184,    3.204912e+01,    5.333333e+00,   -6.010376e+01
    2185,    2.804373e+01,    5.333333e+00,   -6.008299e+01
    2186,    2.404056e+01,    5.333333e+00,   -6.006068e+01
    2187,    2.003578e+01,    5.333333e+00,   -6.004150e+01
    2188,    1.602788e+01,    5.333333e+00,   -6.002612e+01
    2189,    1.202023e+01,    5.333333e+00,   -6.001483e+01
    2190,    8.012207e+00,    5.333333e+00,   -6.000740e+01
    2191,    5.605231e+01,    5.333333e+00,   -7.631735e+00
    2192,    5.605400e+01,    5.333333e+00,   -1.141692e+01
    2193,    5.605187e+01,    5.333333e+00,   -1.518493e+01
    2194,    5.604994e+01,    5.333333e+00,   -1.894055e+01
    2195,    5.607088e+01,    5.333333e+00,   -2.268680e+01
    2196,    5.611128e+01,    5.333333e+00,   -2.642275e+01
    2197,    5.615894e+01,    5.333333e+00,   -3.015100e+01
    2198,    5.618307e+01,    5.333333e+00,   -3.387199e+01
    2199,    5.619127e+01,    5.333333e+00,   -3.759800e+01
    2200,    5.618591e+01,    5.333333e+00,   -4.132961e+01
    2201,    5.617374e+01,    5.333333e+00,   -4.506949e+01
    2202,    5.616509e+01,    5.333333e+00,   -4.881555e+01
    2203,    5.614636e+01,    5.333333e+00,   -5.257758e+01
    2204,    5.610516e+01,    5.333333e+00,   -5.636893e+01
    2205,    5.213156e+01,    5.333333e+00,   -5.634262e+01
    2206,    4.814390e+01,    5.333333e+00,   -5.632854e+01
    2207,    4.413994e+01,    5.333333e+00,   -5.631626e+01
    2208,    4.013476e+01,    5.333333e+00,   -5.629693e+01
    2209,    3.612352e+01,    5.333333e+00,   -5.626651e+01
    2210,    3.211542e+01,    5.333333e+00,   -5.622538e+01
    2211,    2.810932e+01,    5.333333e+00,   -5.617813e+01
    2212,    2.410233e+01,    5.333333e+00,   -5.613065e+01
    2213,    2.009103e+01,    5.333333e+00,   -5.608892e+01
    2214,    1.607493e+01,    5.333333e+00,   -5.605732e+01
    2215,    1.205218e+01,    5.333333e+00,   -5.603186e+01
    2216,    8.031940e+00,    5.333333e+00,   -5.601602e+01
    2217,    8.057675e+00,    5.333333e+00,   -5.202429e+01
    2218,    8.111301e+00,    5.333333e+00,   -4.803437e+01
    2219,    8.196580e+00,    5.333333e+00,   -4.404329e+01
    2220,    8.303813e+00,    5.333333e+00,   -4.004979e+01
    2221,    8.449298e+00,    5.333333e+00,   -3.604995e+01
    2222,    8.622913e+00,    5.333333e+00,   -3.203306e+01
    2223,    8.806499e+00,    5.333333e+00,   -2.799495e+01
    2224,    9.001517e+00,    5.333333e+00,   -2.392952e+01
    2225,    9.260701e+00,    5.333333e+00,   -1.983305e+01
    2226,    9.871929e+00,    5.333333e+00,   -1.570074e+01
    2227,    1.085342e+01,    5.333333e+00,   -1.164384e+01
    2228,    1.234226e+01,    5.333333e+00,   -8.345500e+00
    2229,    1.552827e+01,    5.333333e+00,   -8.228114e+00
    2230,    1.938480e+01,    5.333333e+00,   -8.126053e+00
    2231,    2.346962e+01,    5.333333e+00,   -8.062789e+00
    2232,    2.759160e+01,    5.333333e+00,   -8.021259e+00
    2233,    3.170611e+01,    5.333333e+00,   -7.963111e+00
    2234,    3.580824e+01,    5.333333e+00,   -7.897363e+00
    2235,    3.989725e+01,    5.333333e+00,   -7.832498e+00
    2236,    4.397330e+01,    5.333333e+00,   -7.781148e+00
    2237,    4.802861e+01,    5.333333e+00,   -7.735238e+00
    2238,    5.204892e+01,    5.333333e+00,   -7.681315e+00
    2239,    1.210202e+01,    5.333333e+00,   -5.205139e+01
    2240,    1.218336e+01,    5.333333e+00,   -4.806928e+01
    2241,    1.230200e+01,    5.333333e+00,   -4.408715e+01
    2242,    1.246631e+01,    5.333333e+00,   -4.010088e+01
    2243,    1.268383e+01,    5.333333e+00,   -3.610482e+01
    2244,    1.293979e+01,    5.333333e+00,   -3.209219e+01
    2245,    1.320445e+01,    5.333333e+00,   -2.806298e+01
    2246,    1.346050e+01,    5.333333e+00,   -2.401567e+01
    2247,    1.375671e+01,    5.333333e+00,   -1.996494e+01
    2248,    1.418370e+01,    5.333333e+00,   -1.594216e+01
    2249,    1.491152e+01,    5.333333e+00,   -1.198156e+01
    2250,    5.204953e+01,    5.333333e+00,   -1.148605e+01
    2251,    5.204298e+01,    5.333333e+00,   -1.526489e+01
    2252,    5.204456e+01,    5.333333e+00,   -1.902046e+01
    2253,    5.207857e+01,    5.333333e+00,   -2.275784e+01
    2254,    5.215147e+01,    5.333333e+00,   -2.647724e+01
    2255,    5.222930e+01,    5.333333e+00,   -3.017936e+01
    2256,    5.227810e+01,    5.333333e+00,   -3.388262e+01
    2257,    5.229166e+01,    5.333333e+00,   -3.758834e+01
    2258,    5.228171e+01,    5.333333e+00,   -4.130144e+01
    2259,    5.226521e+01,    5.333333e+00,   -4.502591e+01
    2260,    5.223728e+01,    5.333333e+00,   -4.877059e+01
    2261,    5.218755e+01,    5.333333e+00,   -5.254913e+01
    2262,    4.821607e+01,    5.333333e+00,   -5.252248e+01
    2263,    4.422486e+01,    5.333333e+00,   -5.250185e+01
    2264,    4.022070e+01,    5.333333e+00,   -5.247496e+01
    2265,    3.621778e+01,    5.333333e+00,   -5.243058e+01
    2266,    3.221641e+01,    5.333333e+00,   -5.236647e+01
    2267,    2.821039e+01,    5.333333e+00,   -5.228765e+01
    2268,    2.420077e+01,    5.333333e+00,   -5.220948e+01
    2269,    2.018141e+01,    5.333333e+00,   -5.214268e+01
    2270,    1.614845e+01,    5.333333e+00,   -5.209109e+01
    2271,    1.898610e+01,    5.333333e+00,   -1.206032e+01
    2272,    2.317408e+01,    5.333333e+00,   -1.205872e+01
    2273,    2.736854e+01,    5.333333e+00,   -1.202395e+01
    2274,    3.154887e+01,    5.333333e+00,   -1.195220e+01
    2275,    3.570870e+01,    5.333333e+00,   -1.184740e+01
    2276,    3.984605e+01,    5.333333e+00,   -1.174336e+01
    2277,    4.395068e+01,    5.333333e+00,   -1.165150e+01
    2278,    4.801355e+01,    5.333333e+00,   -1.156135e+01
    2279,    4.800188e+01,    5.333333e+00,   -1.536233e+01
    2280,    4.800776e+01,    5.333333e+00,   -1.912957e+01
    2281,    4.806277e+01,    5.333333e+00,   -2.286339e+01
    2282,    4.817490e+01,    5.333333e+00,   -2.656285e+01
    2283,    4.831078e+01,    5.333333e+00,   -3.024234e+01
    2284,    4.838898e+01,    5.333333e+00,   -3.391456e+01
    2285,    4.840739e+01,    5.333333e+00,   -3.759062e+01
    2286,    4.838850e+01,    5.333333e+00,   -4.128003e+01
    2287,    4.834919e+01,    5.333333e+00,   -4.499456e+01
    2288,    4.828208e+01,    5.333333e+00,   -4.874709e+01
    2289,    1.625265e+01,    5.333333e+00,   -4.812202e+01
    2290,    1.640593e+01,    5.333333e+00,   -4.415157e+01
    2291,    1.662078e+01,    5.333333e+00,   -4.017706e+01
    2292,    1.690748e+01,    5.333333e+00,   -3.618641e+01
    2293,    1.725210e+01,    5.333333e+00,   -3.217840e+01
    2294,    1.760374e+01,    5.333333e+00,   -2.814945e+01
    2295,    1.789723e+01,    5.333333e+00,   -2.410255e+01
    2296,    1.818908e+01,    5.333333e+00,   -2.005677e+01
    2297,    1.856015e+01,    5.333333e+00,   -1.603581e+01
    2298,    4.431720e+01,    5.333333e+00,   -4.871883e+01
    2299,    4.033710e+01,    5.333333e+00,   -4.868367e+01
    2300,    3.635078e+01,    5.333333e+00,   -4.862680e+01
    2301,    3.235936e+01,    5.333333e+00,   -4.853396e+01
    2302,    2.836067e+01,    5.333333e+00,   -4.841286e+01
    2303,    2.434916e+01,    5.333333e+00,   -4.829497e+01
    2304,    2.031381e+01,    5.333333e+00,   -4.819759e+01
    2305,    2.286852e+01,    5.333333e+00,   -1.606813e+01
    2306,    2.715096e+01,    5.333333e+00,   -1.604769e+01
    2307,    3.140840e+01,    5.333333e+00,   -1.596079e+01
    2308,    3.563197e+01,    5.333333e+00,   -1.579948e+01
    2309,    3.980752e+01,    5.333333e+00,   -1.563425e+01
    2310,    4.392493e+01,    5.333333e+00,   -1.548223e+01
    2311,    4.393326e+01,    5.333333e+00,   -1.927930e+01
    2312,    4.400930e+01,    5.333333e+00,   -2.302442e+01
    2313,    4.418589e+01,    5.333333e+00,   -2.671416e+01
    2314,    4.442014e+01,    5.333333e+00,   -3.034757e+01
    2315,    4.453467e+01,    5.333333e+00,   -3.396794e+01
    2316,    4.454807e+01,    5.333333e+00,   -3.759902e+01
    2317,    4.450007e+01,    5.333333e+00,   -4.126330e+01
    2318,    4.441109e+01,    5.333333e+00,   -4.497460e+01
    2319,    2.049530e+01,    5.333333e+00,   -4.424929e+01
    2320,    2.075407e+01,    5.333333e+00,   -4.028981e+01
    2321,    2.110654e+01,    5.333333e+00,   -3.631012e+01
    2322,    2.155582e+01,    5.333333e+00,   -3.230376e+01
    2323,    2.202153e+01,    5.333333e+00,   -2.825885e+01
    2324,    2.232694e+01,    5.333333e+00,   -2.418016e+01
    2325,    2.258733e+01,    5.333333e+00,   -2.010815e+01
    2326,    4.047222e+01,    5.333333e+00,   -4.493595e+01
    2327,    3.652095e+01,    5.333333e+00,   -4.486428e+01
    2328,    3.255620e+01,    5.333333e+00,   -4.473305e+01
    2329,    2.857576e+01,    5.333333e+00,   -4.454904e+01
    2330,    2.455979e+01,    5.333333e+00,   -4.438297e+01
    2331,    2.696586e+01,    5.333333e+00,   -2.011087e+01
    2332,    3.131864e+01,    5.333333e+00,   -2.001176e+01
    2333,    3.560614e+01,    5.333333e+00,   -1.974297e+01
    2334,    3.980763e+01,    5.333333e+00,   -1.947877e+01
    2335,    3.989978e+01,    5.333333e+00,   -2.327629e+01
    2336,    4.020874e+01,    5.333333e+00,   -2.697554e+01
    2337,    4.059617e+01,    5.333333e+00,   -3.050914e+01
    2338,    4.073786e+01,    5.333333e+00,   -3.402976e+01
    2339,    4.071308e+01,    5.333333e+00,   -3.759895e+01
    2340,    4.060220e+01,    5.333333e+00,   -4.123991e+01
    2341,    2.484543e+01,    5.333333e+00,   -4.045652e+01
    2342,    2.525476e+01,    5.333333e+00,   -3.650591e+01
    2343,    2.583372e+01,    5.333333e+00,   -3.250992e+01
    2344,    2.649439e+01,    5.333333e+00,   -2.841491e+01
    2345,    2.677161e+01,    5.333333e+00,   -2.423521e+01
    2346,    3.671686e+01,    5.333333e+00,   -4.115982e+01
    2347,    3.281275e+01,    5.333333e+00,   -4.097617e+01
    2348,    2.887382e+01,    5.333333e+00,   -4.069087e+01
    2349,    3.130054e+01,    5.333333e+00,   -2.414745e+01
    2350,    3.575046e+01,    5.333333e+00,   -2.364090e+01
    2351,    3.613170e+01,    5.333333e+00,   -2.744289e+01
    2352,    3.694939e+01,    5.333333e+00,   -3.076005e+01
    2353,    3.702844e+01,    5.333333e+00,   -3.404152e+01
    2354,    3.689466e+01,    5.333333e+00,   -3.753500e+01
    2355,    2.930428e+01,    5.333333e+00,   -3.683310e+01
    2356,    2.999567e+01,    5.333333e+00,   -3.296473e+01
    2357,    3.155270e+01,    5.333333e+00,   -2.872469e+01
    2358,    3.313284e+01,    5.333333e+00,   -3.730790e+01
    2359,    3.399849e+01,    5.333333e+00,   -3.108961e+01
    2360,    3.353854e+01,    5.333333e+00,   -3.389647e+01
    2361,    0.000000e+00,    1.600000e+01,   -6.400000e+01
    2362,    0.000000e+00,    1.600000e+01,   -6.000000e+01
    2363,    0.000000e+00,    1.600000e+01,   -5.600000e+01
    2364,    0.000000e+00,    1.600000e+01,   -5.200000e+01
    2365,    0.000000e+00,    1.600000e+01,   -4.800000e+01
    2366,    0.000000e+00,    1.600000e+01,   -4.400000e+01
    2367,    0.000000e+00,    1.600000e+01,   -4.000000e+01
    2368,    0.000000e+00,    1.600000e+01,   -3.600000e+01
    2369,    0.000000e+00,    1.600000e+01,   -3.200000e+01
    2370,    0.000000e+00,    1.600000e+01,   -2.800000e+01
    2371,    0.000000e+00,    1.600000e+01,   -2.400000e+01
    2372,    0.000000e+00,    1.600000e+01,   -2.000000e+01
    2373,    0.000000e+00,    1.600000e+01,   -1.600000e+01
    2374,    0.000000e+00,    1.600000e+01,   -1.200000e+01
    2375,    0.000000e+00,    8.888889e+00,   -6.400000e+01
    2376,    0.000000e+00,    1.244444e+01,   -6.400000e+01
    2377,    0.000000e+00,    8.888889e+00,   -1.200000e+01
    2378,    0.000000e+00,    1.244444e+01,   -1.200000e+01
    2379,    0.000000e+00,    8.888889e+00,   -1.600000e+01
    2380,    0.000000e+00,    1.244444e+01,   -1.600000e+01
    2381,    0.000000e+00,    8.888889e+00,   -2.000000e+01
    2382,    0.000000e+00,    1.244444e+01,   -2.000000e+01
    2383,    0.000000e+00,    8.888889e+00,   -2.400000e+01
    2384,    0.000000e+00,    1.244444e+01,   -2.400000e+01
    2385,    0.000000e+00,    8.888889e+00,   -2.800000e+01
    2386,    0.000000e+00,    1.244444e+01,   -2.800000e+01
    2387,    0.000000e+00,    8.888889e+00,   -3.200000e+01
    2388,    0.000000e+00,    1.244444e+01,   -3.200000e+01
    2389,    0.000000e+00,    8.888889e+00,   -3.600000e+01
    2390,    0.000000e+00,    1.244444e+01,   -3.600000e+01
    2391,    0.000000e+00,    8.888889e+00,   -4.000000e+01
    2392,    0.000000e+00,    1.244444e+01,   -4.000000e+01
    2393,    0.000000e+00,    8.888889e+00,   -4.400000e+01
    2394,    0.000000e+00,    1.244444e+01,   -4.400000e+01
    2395,    0.000000e+00,    8.888889e+00,   -4.800000e+01
    2396,    0.000000e+00,    1.244444e+01,   -4.800000e+01
    2397,    0.000000e+00,    8.888889e+00,   -5.200000e+01
    2398,    0.000000e+00,    1.244444e+01,   -5.200000e+01
    2399,    0.000000e+00,    8.888889e+00,   -5.600000e+01
    2400,    0.000000e+00,    1.244444e+01,   -5.600000e+01
    2401,    0.000000e+00,    8.888889e+00,   -6.000000e+01
    2402,    0.000000e+00,    1.244444e+01,   -6.000000e+01
    2403,    6.400000e+01,    1.600000e+01,   -6.400000e+01
    2404,    4.000000e+00,    1.600000e+01,   -6.400000e+01
    2405,    8.000000e+00,    1.600000e+01,   -6.400000e+01
    2406,    1.200000e+01,    1.600000e+01,   -6.400000e+01
    2407,    1.600000e+01,    1.600000e+01,   -6.400000e+01
    2408,    2.000000e+01,    1.600000e+01,   -6.400000e+01
    2409,    2.400000e+01,    1.600000e+01,   -6.400000e+01
    2410,    2.800000e+01,    1.600000e+01,   -6.400000e+01
    2411,    3.200000e+01,    1.600000e+01,   -6.400000e+01
    2412,    3.600000e+01,    1.600000e+01,   -6.400000e+01
    2413,    4.000000e+01,    1.600000e+01,   -6.400000e+01
    2414,    4.400000e+01,    1.600000e+01,   -6.400000e+01
    2415,    4.800000e+01,    1.600000e+01,   -6.400000e+01
    2416,    5.200000e+01,    1.600000e+01,   -6.400000e+01
    2417,    5.600000e+01,    1.600000e+01,   -6.400000e+01
    2418,    6.000000e+01,    1.600000e+01,   -6.400000e+01
    2419,    6.400000e+01,    1.244444e+01,   -6.400000e+01
    2420,    6.400000e+01,    8.888889e+00,   -6.400000e+01
    2421,    4.000000e+00,    8.888889e+00,   -6.400000e+01
    2422,    4.000000e+00,    1.244444e+01,   -6.400000e+01
    2423,    8.000000e+00,    8.888889e+00,   -6.400000e+01
    2424,    8.000000e+00,    1.244444e+01,   -6.400000e+01
    2425,    1.200000e+01,    8.888889e+00,   -6.400000e+01
    2426,    1.200000e+01,    1.244444e+01,   -6.400000e+01
    2427,    1.600000e+01,    8.888889e+00,   -6.400000e+01
    2428,    1.600000e+01,    1.244444e+01,   -6.400000e+01
    2429,    2.000000e+01,    8.888889e+00,   -6.400000e+01
    2430,    2.000000e+01,    1.244444e+01,   -6.400000e+01
    2431,    2.400000e+01,    8.888889e+00,   -6.400000e+01
    2432,    2.400000e+01,    1.244444e+01,   -6.400000e+01
    2433,    2.800000e+01,    8.888889e+00,   -6.400000e+01
    2434,    2.800000e+01,    1.244444e+01,   -6.400000e+01
    2435,    3.200000e+01,    8.888889e+00,   -6.400000e+01
    2436,    3.200000e+01,    1.244444e+01,   -6.400000e+01
    2437,    3.600000e+01,    8.888889e+00,   -6.400000e+01
    2438,    3.600000e+01,    1.244444e+01,   -6.400000e+01
    2439,    4.000000e+01,    8.888889e+00,   -6.400000e+01
    2440,    4.000000e+01,    1.244444e+01,   -6.400000e+01
    2441,    4.400000e+01,    8.888889e+00,   -6.400000e+01
    2442,    4.400000e+01,    1.244444e+01,   -6.400000e+01
    2443,    4.800000e+01,    8.888889e+00,   -6.400000e+01
    2444,    4.800000e+01,    1.244444e+01,   -6.400000e+01
    2445,    5.200000e+01,    8.888889e+00,   -6.400000e+01
    2446,    5.200000e+01,    1.244444e+01,   -6.400000e+01
    2447,    5.600000e+01,    8.888889e+00,   -6.400000e+01
    2448,    5.600000e+01,    1.244444e+01,   -6.400000e+01
    2449,    6.000000e+01,    8.888889e+00,   -6.400000e+01
    2450,    6.000000e+01,    1.244444e+01,   -6.400000e+01
    2451,    6.400000e+01,    1.600000e+01,    0.000000e+00
    2452,    6.400000e+01,    8.888889e+00,    0.000000e+00
    2453,    6.400000e+01,    1.244444e+01,    0.000000e+00
    2454,    6.000000e+01,    1.600000e+01,    0.000000e+00
    2455,    5.600000e+01,    1.600000e+01,    0.000000e+00
    2456,    5.200000e+01,    1.600000e+01,    0.000000e+00
    2457,    4.800000e+01,    1.600000e+01,    0.000000e+00
    2458,    4.400000e+01,    1.600000e+01,    0.000000e+00
    2459,    4.000000e+01,    1.600000e+01,    0.000000e+00
    2460,    3.600000e+01,    1.600000e+01,    0.000000e+00
    2461,    3.200000e+01,    1.600000e+01,    0.000000e+00
    2462,    2.800000e+01,    1.600000e+01,    0.000000e+00
    2463,    2.400000e+01,    1.600000e+01,    0.000000e+00
    2464,    2.000000e+01,    1.600000e+01,    0.000000e+00
    2465,    1.600000e+01,    1.600000e+01,    0.000000e+00
    2466,    1.200000e+01,    1.600000e+01,    0.000000e+00
    2467,    1.200000e+01,    8.888889e+00,    0.000000e+00
    2468,    1.600000e+01,    8.888889e+00,    0.000000e+00
    2469,    2.000000e+01,    8.888889e+00,    0.000000e+00
    2470,    2.400000e+01,    8.888889e+00,    0.000000e+00
    2471,    2.800000e+01,    8.888889e+00,    0.000000e+00
    2472,    3.200000e+01,    8.888889e+00,    0.000000e+00
    2473,    3.600000e+01,    8.888889e+00,    0.000000e+00
    2474,    4.000000e+01,    8.888889e+00,    0.000000e+00
    2475,    4.400000e+01,    8.888889e+00,    0.000000e+00
    2476,    4.800000e+01,    8.888889e+00,    0.000000e+00
    2477,    5.200000e+01,    8.888889e+00,    0.000000e+00
    2478,    5.600000e+01,    8.888889e+00,    0.000000e+00
    2479,    6.000000e+01,    8.888889e+00,    0.000000e+00
    2480,    1.200000e+01,    1.244444e+01,    0.000000e+00
    2481,    1.600000e+01,    1.244444e+01,    0.000000e+00
    2482,    2.000000e+01,    1.244444e+01,    0.000000e+00
    2483,    2.400000e+01,    1.244444e+01,    0.000000e+00
    2484,    2.800000e+01,    1.244444e+01,    0.000000e+00
    2485,    3.200000e+01,    1.244444e+01,    0.000000e+00
    2486,    3.600000e+01,    1.244444e+01,    0.000000e+00
    2487,    4.000000e+01,    1.244444e+01,    0.000000e+00
    2488,    4.400000e+01,    1.244444e+01,    0.000000e+00
    2489,    4.800000e+01,    1.244444e+01,    0.000000e+00
    2490,    5.200000e+01,    1.244444e+01,    0.000000e+00
    2491,    5.600000e+01,    1.244444e+01,    0.000000e+00
    2492,    6.000000e+01,    1.244444e+01,    0.000000e+00
    2493,    6.400000e+01,    1.600000e+01,   -3.764706e+00
    2494,    6.400000e+01,    1.600000e+01,   -7.529412e+00
    2495,    6.400000e+01,    1.600000e+01,   -1.129412e+01
    2496,    6.400000e+01,    1.600000e+01,   -1.505882e+01
    2497,    6.400000e+01,    1.600000e+01,   -1.882353e+01
    2498,    6.400000e+01,    1.600000e+01,   -2.258824e+01
    2499,    6.400000e+01,    1.600000e+01,   -2.635294e+01
    2500,    6.400000e+01,    1.600000e+01,   -3.011765e+01
    2501,    6.400000e+01,    1.600000e+01,   -3.388235e+01
    2502,    6.400000e+01,    1.600000e+01,   -3.764706e+01
    2503,    6.400000e+01,    1.600000e+01,   -4.141176e+01
    2504,    6.400000e+01,    1.600000e+01,   -4.517647e+01
    2505,    6.400000e+01,    1.600000e+01,   -4.894118e+01
    2506,    6.400000e+01,    1.600000e+01,   -5.270588e+01
    2507,    6.400000e+01,    1.600000e+01,   -5.647059e+01
    2508,    6.400000e+01,    1.600000e+01,   -6.023529e+01
    2509,    6.400000e+01,    1.244444e+01,   -3.764706e+00
    2510,    6.400000e+01,    8.888889e+00,   -3.764706e+00
    2511,    6.400000e+01,    1.244444e+01,   -7.529412e+00
    2512,    6.400000e+01,    8.888889e+00,   -7.529412e+00
    2513,    6.400000e+01,    1.244444e+01,   -1.129412e+01
    2514,    6.400000e+01,    8.888889e+00,   -1.129412e+01
    2515,    6.400000e+01,    1.244444e+01,   -1.505882e+01
    2516,    6.400000e+01,    8.888889e+00,   -1.505882e+01
    2517,    6.400000e+01,    1.244444e+01,   -1.882353e+01
    2518,    6.400000e+01,    8.888889e+00,   -1.882353e+01
    2519,    6.400000e+01,    1.244444e+01,   -2.258824e+01
    2520,    6.400000e+01,    8.888889e+00,   -2.258824e+01
    2521,    6.400000e+01,    1.244444e+01,   -2.635294e+01
    2522,    6.400000e+01,    8.888889e+00,   -2.635294e+01
    2523,    6.400000e+01,    1.244444e+01,   -3.011765e+01
    2524,    6.400000e+01,    8.888889e+00,   -3.011765e+01
    2525,    6.400000e+01,    1.244444e+01,   -3.388235e+01
    2526,    6.400000e+01,    8.888889e+00,   -3.388235e+01
    2527,    6.400000e+01,    1.244444e+01,   -3.764706e+01
    2528,    6.400000e+01,    8.888889e+00,   -3.764706e+01
    2529,    6.400000e+01,    1.244444e+01,   -4.141176e+01
    2530,    6.400000e+01,    8.888889e+00,   -4.141176e+01
    2531,    6.400000e+01,    1.244444e+01,   -4.517647e+01
    2532,    6.400000e+01,    8.888889e+00,   -4.517647e+01
    2533,    6.400000e+01,    1.244444e+01,   -4.894118e+01
    2534,    6.400000e+01,    8.888889e+00,   -4.894118e+01
    2535,    6.400000e+01,    1.244444e+01,   -5.270588e+01
    2536,    6.400000e+01,    8.888889e+00,   -5.270588e+01
    2537,    6.400000e+01,    1.244444e+01,   -5.647059e+01
    2538,    6.400000e+01,    8.888889e+00,   -5.647059e+01
    2539,    6.400000e+01,    1.244444e+01,   -6.023529e+01
    2540,    6.400000e+01,    8.888889e+00,   -6.023529e+01
    2541,    6.002922e+01,    8.888889e+00,   -3.797724e+00
    2542,    6.003101e+01,    8.888889e+00,   -7.581841e+00
    2543,    6.003682e+01,    8.888889e+00,   -1.135269e+01
    2544,    6.003557e+01,    8.888889e+00,   -1.511740e+01
    2545,    6.003580e+01,    8.888889e+00,   -1.887796e+01
    2546,    6.004256e+01,    8.888889e+00,   -2.263396e+01
    2547,    6.005933e+01,    8.888889e+00,   -2.638518e+01
    2548,    6.008236e+01,    8.888889e+00,   -3.013176e+01
    2549,    6.009459e+01,    8.888889e+00,   -3.387711e+01
    2550,    6.009619e+01,    8.888889e+00,   -3.762096e+01
    2551,    6.009187e+01,    8.888889e+00,   -4.136643e+01
    2552,    6.008653e+01,    8.888889e+00,   -4.511865e+01
    2553,    6.008209e+01,    8.888889e+00,   -4.887610e+01
    2554,    6.007820e+01,    8.888889e+00,   -5.263615e+01
    2555,    6.006741e+01,    8.888889e+00,   -5.640646e+01
    2556,    6.003405e+01,    8.888889e+00,   -6.019939e+01
    2557,    4.004054e+00,    8.888889e+00,   -6.000185e+01
    2558,    4.010517e+00,    8.888889e+00,   -5.600558e+01
    2559,    4.025683e+00,    8.888889e+00,   -5.200876e+01
    2560,    4.045803e+00,    8.888889e+00,   -4.801325e+01
    2561,    4.091464e+00,    8.888889e+00,   -4.401559e+01
    2562,    4.151107e+00,    8.888889e+00,   -4.001730e+01
    2563,    4.217838e+00,    8.888889e+00,   -3.601438e+01
    2564,    4.306461e+00,    8.888889e+00,   -3.200299e+01
    2565,    4.404270e+00,    8.888889e+00,   -2.796569e+01
    2566,    4.512231e+00,    8.888889e+00,   -2.388980e+01
    2567,    4.677735e+00,    8.888889e+00,   -1.973242e+01
    2568,    5.095770e+00,    8.888889e+00,   -1.546986e+01
    2569,    6.087864e+00,    8.888889e+00,   -1.045262e+01
    2570,    1.069860e+01,    8.888889e+00,   -5.155009e+00
    2571,    1.545546e+01,    8.888889e+00,   -4.350985e+00
    2572,    1.964209e+01,    8.888889e+00,   -4.127743e+00
    2573,    2.372525e+01,    8.888889e+00,   -4.047906e+00
    2574,    2.779426e+01,    8.888889e+00,   -4.015703e+00
    2575,    3.185794e+01,    8.888889e+00,   -3.982693e+00
    2576,    3.590936e+01,    8.888889e+00,   -3.947828e+00
    2577,    3.995212e+01,    8.888889e+00,   -3.918120e+00
    2578,    4.398960e+01,    8.888889e+00,   -3.891596e+00
    2579,    4.802267e+01,    8.888889e+00,   -3.874793e+00
    2580,    5.204224e+01,    8.888889e+00,   -3.856267e+00
    2581,    5.603568e+01,    8.888889e+00,   -3.825597e+00
    2582,    5.605831e+01,    8.888889e+00,   -6.017227e+01
    2583,    5.206865e+01,    8.888889e+00,   -6.016125e+01
    2584,    4.806784e+01,    8.888889e+00,   -6.015629e+01
    2585,    4.406693e+01,    8.888889e+00,   -6.015274e+01
    2586,    4.006107e+01,    8.888889e+00,   -6.014123e+01
    2587,    3.605708e+01,    8.888889e+00,   -6.012643e+01
    2588,    3.204912e+01,    8.888889e+00,   -6.010376e+01
    2589,    2.804373e+01,    8.888889e+00,   -6.008299e+01
    2590,    2.404056e+01,    8.888889e+00,   -6.006068e+01
    2591,    2.003578e+01,    8.888889e+00,   -6.004150e+01
    2592,    1.602788e+01,    8.888889e+00,   -6.002612e+01
    2593,    1.202023e+01,    8.888889e+00,   -6.001483e+01
    2594,    8.012207e+00,    8.888889e+00,   -6.000740e+01
    2595,    5.605231e+01,    8.888889e+00,   -7.631735e+00
    2596,    5.605400e+01,    8.888889e+00,   -1.141692e+01
    2597,    5.605187e+01,    8.888889e+00,   -1.518493e+01
    2598,    5.604994e+01,    8.888889e+00,   -1.894055e+01
    2599,    5.607088e+01,    8.888889e+00,   -2.268680e+01
    2600,    5.611128e+01,    8.888889e+00,   -2.642275e+01
    2601,    5.615894e+01,    8.888889e+00,   -3.015100e+01
    2602,    5.618307e+01,    8.888889e+00,   -3.387199e+01
    2603,    5.619127e+01,    8.888889e+00,   -3.759800e+01
    2604,    5.618591e+01,    8.888889e+00,   -4.132961e+01
    2605,    5.617374e+01,    8.888889e+00,   -4.506949e+01
    2606,    5.616509e+01,    8.888889e+00,   -4.881555e+01
    2607,    5.614636e+01,    8.888889e+00,   -5.257758e+01
    2608,    5.610516e+01,    8.888889e+00,   -5.636893e+01
    2609,    5.213156e+01,    8.888889e+00,   -5.634262e+01
    2610,    4.814390e+01,    8.888889e+00,   -5.632854e+01
    2611,    4.413994e+01,    8.888889e+00,   -5.631626e+01
    2612,    4.013476e+01,    8.888889e+00,   -5.629693e+01
    2613,    3.612352e+01,    8.888889e+00,   -5.626651e+01
    2614,    3.211542e+01,    8.888889e+00,   -5.622538e+01
    2615,    2.810932e+01,    8.888889e+00,   -5.617813e+01
    2616,    2.410233e+01,    8.888889e+00,   -5.613065e+01
    2617,    2.009103e+01,    8.888889e+00,   -5.608892e+01
    2618,    1.607493e+01,    8.888889e+00,   -5.605732e+01
    2619,    1.205218e+01,    8.888889e+00,   -5.603186e+01
    2620,    8.031940e+00,    8.888889e+00,   -5.601602e+01
    2621,    8.057675e+00,    8.888889e+00,   -5.202429e+01
    2622,    8.111301e+00,    8.888889e+00,   -4.803437e+01
    2623,    8.196580e+00,    8.888889e+00,   -4.404329e+01
    2624,    8.303813e+00,    8.888889e+00,   -4.004979e+01
    2625,    8.449298e+00,    8.888889e+00,   -3.604995e+01
    2626,    8.622913e+00,    8.888889e+00,   -3.203306e+01
    2627,    8.806499e+00,    8.888889e+00,   -2.799495e+01
    2628,    9.001517e+00,    8.888889e+00,   -2.392952e+01
    2629,    9.260701e+00,    8.888889e+00,   -1.983305e+01
    2630,    9.871929e+00,    8.888889e+00,   -1.570074e+01
    2631,    1.085342e+01,    8.888889e+00,   -1.164384e+01
    2632,    1.234226e+01,    8.888889e+00,   -8.345500e+00
    2633,    1.552827e+01,    8.888889e+00,   -8.228114e+00
    2634,    1.938480e+01,    8.888889e+00,   -8.126053e+00
    2635,    2.346962e+01,    8.888889e+00,   -8.062789e+00
    2636,    2.759160e+01,    8.888889e+00,   -8.021259e+00
    2637,    3.170611e+01,    8.888889e+00,   -7.963111e+00
    2638,    3.580824e+01,    8.888889e+00,   -7.897363e+00
    2639,    3.989725e+01,    8.888889e+00,   -7.832498e+00
    2640,    4.397330e+01,    8.888889e+00,   -7.781148e+00
    2641,    4.802861e+01,    8.888889e+00,   -7.735238e+00
    2642,    5.204892e+01,    8.888889e+00,   -7.681315e+00
    2643,    1.210202e+01,    8.888889e+00,   -5.205139e+01
    2644,    1.218336e+01,    8.888889e+00,   -4.806928e+01
    2645,    1.230200e+01,    8.888889e+00,   -4.408715e+01
    2646,    1.246631e+01,    8.888889e+00,   -4.010088e+01
    2647,    1.268383e+01,    8.888889e+00,   -3.610482e+01
    2648,    1.293979e+01,    8.888889e+00,   -3.209219e+01
    2649,    1.320445e+01,    8.888889e+00,   -2.806298e+01
    2650,    1.346050e+01,    8.888889e+00,   -2.401567e+01
    2651,    1.375671e+01,    8.888889e+00,   -1.996494e+01
    2652,    1.418370e+01,    8.888889e+00,   -1.594216e+01
    2653,    1.491152e+01,    8.888889e+00,   -1.198156e+01
    2654,    5.204953e+01,    8.888889e+00,   -1.148605e+01
    2655,    5.204298e+01,    8.888889e+00,   -1.526489e+01
    2656,    5.204456e+01,    8.888889e+00,   -1.902046e+01
    2657,    5.207857e+01,    8.888889e+00,   -2.275784e+01
    2658,    5.215147e+01,    8.888889e+00,   -2.647724e+01
    2659,    5.222930e+01,    8.888889e+00,   -3.017936e+01
    2660,    5.227810e+01,    8.888889e+00,   -3.388262e+01
    2661,    5.229166e+01,    8.888889e+00,   -3.758834e+01
    2662,    5.228171e+01,    8.888889e+00,   -4.130144e+01
    2663,    5.226521e+01,    8.888889e+00,   -4.502591e+01
    2664,    5.223728e+01,    8.888889e+00,   -4.877059e+01
    2665,    5.218755e+01,    8.888889e+00,   -5.254913e+01
    2666,    4.821607e+01,    8.888889e+00,   -5.252248e+01
    2667,    4.422486e+01,    8.888889e+00,   -5.250185e+01
    2668,    4.022070e+01,    8.888889e+00,   -5.247496e+01
    2669,    3.621778e+01,    8.888889e+00,   -5.243058e+01
    2670,    3.221641e+01,    8.888889e+00,   -5.236647e+01
    2671,    2.821039e+01,    8.888889e+00,   -5.228765e+01
    2672,    2.420077e+01,    8.888889e+00,   -5.220948e+01
    2673,    2.018141e+01,    8.888889e+00,   -5.214268e+01
    2674,    1.614845e+01,    8.888889e+00,   -5.209109e+01
    2675,    1.898610e+01,    8.888889e+00,   -1.206032e+01
    2676,    2.317408e+01,    8.888889e+00,   -1.205872e+01
    2677,    2.736854e+01,    8.888889e+00,   -1.202395e+01
    2678,    3.154887e+01,    8.888889e+00,   -1.195220e+01
    2679,    3.570870e+01,    8.888889e+00,   -1.184740e+01
    2680,    3.984605e+01,    8.888889e+00,   -1.174336e+01
    2681,    4.395068e+01,    8.888889e+00,   -1.165150e+01
    2682,    4.801355e+01,    8.888889e+00,   -1.156135e+01
    2683,    4.800188e+01,    8.888889e+00,   -1.536233e+01
    2684,    4.800776e+01,    8.888889e+00,   -1.912957e+01
    2685,    4.806277e+01,    8.888889e+00,   -2.286339e+01
    2686,    4.817490e+01,    8.888889e+00,   -2.656285e+01
    2687,    4.831078e+01,    8.888889e+00,   -3.024234e+01
    2688,    4.838898e+01,    8.888889e+00,   -3.391456e+01
    2689,    4.840739e+01,    8.888889e+00,   -3.759062e+01
    2690,    4.838850e+01,    8.888889e+00,   -4.128003e+01
    2691,    4.834919e+01,    8.888889e+00,   -4.499456e+01
    2692,    4.828208e+01,    8.888889e+00,   -4.874709e+01
    2693,    1.625265e+01,    8.888889e+00,   -4.812202e+01
    2694,    1.640593e+01,    8.888889e+00,   -4.415157e+01
    2695,    1.662078e+01,    8.888889e+00,   -4.017706e+01
    2696,    1.690748e+01,    8.888889e+00,   -3.618641e+01
    2697,    1.725210e+01,    8.888889e+00,   -3.217840e+01
    2698,    1.760374e+01,    8.888889e+00,   -2.814945e+01
    2699,    1.789723e+01,    8.888889e+00,   -2.410255e+01
    2700,    1.818908e+01,    8.888889e+00,   -2.005677e+01
    2701,    1.856015e+01,    8.888889e+00,   -1.603581e+01
    2702,    4.431720e+01,    8.888889e+00,   -4.871883e+01
    2703,    4.033710e+01,    8.888889e+00,   -4.868367e+01
    2704,    3.635078e+01,    8.888889e+00,   -4.862680e+01
    2705,    3.235936e+01,    8.888889e+00,   -4.853396e+01
    2706,    2.836067e+01,    8.888889e+00,   -4.841286e+01
    2707,    2.434916e+01,    8.888889e+00,   -4.829497e+01
    2708,    2.031381e+01,    8.888889e+00,   -4.819759e+01
    2709,    2.286852e+01,    8.888889e+00,   -1.606813e+01
    2710,    2.715096e+01,    8.888889e+00,   -1.604769e+01
    2711,    3.140840e+01,    8.888889e+00,   -1.596079e+01
    2712,    3.563197e+01,    8.888889e+00,   -1.579948e+01
    2713,    3.980752e+01,    8.888889e+00,   -1.563425e+01
    2714,    4.392493e+01,    8.888889e+00,   -1.548223e+01
    2715,    4.393326e+01,    8.888889e+00,   -1.927930e+01
    2716,    4.400930e+01,    8.888889e+00,   -2.302442e+01
    2717,    4.418589e+01,    8.888889e+00,   -2.671416e+01
    2718,    4.442014e+01,    8.888889e+00,   -3.034757e+01
    2719,    4.453467e+01,    8.888889e+00,   -3.396794e+01
    2720,    4.454807e+01,    8.888889e+00,   -3.759902e+01
    2721,    4.450007e+01,    8.888889e+00,   -4.126330e+01
    2722,    4.441109e+01,    8.888889e+00,   -4.497460e+01
    2723,    2.049530e+01,    8.888889e+00,   -4.424929e+01
    2724,    2.075407e+01,    8.888889e+00,   -4.028981e+01
    2725,    2.110654e+01,    8.888889e+00,   -3.631012e+01
    2726,    2.155582e+01,    8.888889e+00,   -3.230376e+01
    2727,    2.202153e+01,    8.888889e+00,   -2.825885e+01
    2728,    2.232694e+01,    8.888889e+00,   -2.418016e+01
    2729,    2.258733e+01,    8.888889e+00,   -2.010815e+01
    2730,    4.047222e+01,    8.888889e+00,   -4.493595e+01
    2731,    3.652095e+01,    8.888889e+00,   -4.486428e+01
    2732,    3.255620e+01,    8.888889e+00,   -4.473305e+01
    2733,    2.857576e+01,    8.888889e+00,   -4.454904e+01
    2734,    2.455979e+01,    8.888889e+00,   -4.438297e+01
    2735,    2.696586e+01,    8.888889e+00,   -2.011087e+01
    2736,    3.131864e+01,    8.888889e+00,   -2.001176e+01
    2737,    3.560614e+01,    8.888889e+00,   -1.974297e+01
    2738,    3.980763e+01,    8.888889e+00,   -1.947877e+01
    2739,    3.989978e+01,    8.888889e+00,   -2.327629e+01
    2740,    4.020874e+01,    8.888889e+00,   -2.697554e+01
    2741,    4.059617e+01,    8.888889e+00,   -3.050914e+01
    2742,    4.073786e+01,    8.888889e+00,   -3.402976e+01
    2743,    4.071308e+01,    8.888889e+00,   -3.759895e+01
    2744,    4.060220e+01,    8.888889e+00,   -4.123991e+01
    2745,    2.484543e+01,    8.888889e+00,   -4.045652e+01
    2746,    2.525476e+01,    8.888889e+00,   -3.650591e+01
    2747,    2.583372e+01,    8.888889e+00,   -3.250992e+01
    2748,    2.649439e+01,    8.888889e+00,   -2.841491e+01
    2749,    2.677161e+01,    8.888889e+00,   -2.423521e+01
    2750,    3.671686e+01,    8.888889e+00,   -4.115982e+01
    2751,    3.281275e+01,    8.888889e+00,   -4.097617e+01
    2752,    2.887382e+01,    8.888889e+00,   -4.069087e+01
    2753,    3.130054e+01,    8.888889e+00,   -2.414745e+01
    2754,    3.575046e+01,    8.888889e+00,   -2.364090e+01
    2755,    3.613170e+01,    8.888889e+00,   -2.744289e+01
    2756,    3.694939e+01,    8.888889e+00,   -3.076005e+01
    2757,    3.702844e+01,    8.888889e+00,   -3.404152e+01
    2758,    3.689466e+01,    8.888889e+00,   -3.753500e+01
    2759,    2.930428e+01,    8.888889e+00,   -3.683310e+01
    2760,    2.999567e+01,    8.888889e+00,   -3.296473e+01
    2761,    3.155270e+01,    8.888889e+00,   -2.872469e+01
    2762,    3.313284e+01,    8.888889e+00,   -3.730790e+01
    2763,    3.399849e+01,    8.888889e+00,   -3.108961e+01
    2764,    3.353854e+01,    8.888889e+00,   -3.389647e+01
    2765,    6.002922e+01,    1.244444e+01,   -3.797724e+00
    2766,    6.003101e+01,    1.244444e+01,   -7.581841e+00
    2767,    6.003682e+01,    1.244444e+01,   -1.135269e+01
    2768,    6.003557e+01,    1.244444e+01,   -1.511740e+01
    2769,    6.003580e+01,    1.244444e+01,   -1.887796e+01
    2770,    6.004256e+01,    1.244444e+01,   -2.263396e+01
    2771,    6.005933e+01,    1.244444e+01,   -2.638518e+01
    2772,    6.008236e+01,    1.244444e+01,   -3.013176e+01
    2773,    6.009459e+01,    1.244444e+01,   -3.387711e+01
    2774,    6.009619e+01,    1.244444e+01,   -3.762096e+01
    2775,    6.009187e+01,    1.244444e+01,   -4.136643e+01
    2776,    6.008653e+01,    1.244444e+01,   -4.511865e+01
    2777,    6.008209e+01,    1.244444e+01,   -4.887610e+01
    2778,    6.007820e+01,    1.244444e+01,   -5.263615e+01
    2779,    6.006741e+01,    1.244444e+01,   -5.640646e+01
    2780,    6.003405e+01,    1.244444e+01,   -6.019939e+01
    2781,    4.004054e+00,    1.244444e+01,   -6.000185e+01
    2782,    4.010517e+00,    1.244444e+01,   -5.600558e+01
    2783,    4.025683e+00,    1.244444e+01,   -5.200876e+01
    2784,    4.045803e+00,    1.244444e+01,   -4.801325e+01
    2785,    4.091464e+00,    1.244444e+01,   -4.401559e+01
    2786,    4.151107e+00,    1.244444e+01,   -4.001730e+01
    2787,    4.217838e+00,    1.244444e+01,   -3.601438e+01
    2788,    4.306461e+00,    1.244444e+01,   -3.200299e+01
    2789,    4.404270e+00,    1.244444e+01,   -2.796569e+01
    2790,    4.512231e+00,    1.244444e+01,   -2.388980e+01
    2791,    4.677735e+00,    1.244444e+01,   -1.973242e+01
    2792,    5.095770e+00,    1.244444e+01,   -1.546986e+01
    2793,    6.087864e+00,    1.244444e+01,   -1.045262e+01
    2794,    1.069860e+01,    1.244444e+01,   -5.155009e+00
    2795,    1.545546e+01,    1.244444e+01,   -4.350985e+00
    2796,    1.964209e+01,    1.244444e+01,   -4.127743e+00
    2797,    2.372525e+01,    1.244444e+01,   -4.047906e+00
    2798,    2.779426e+01,    1.244444e+01,   -4.015703e+00
    2799,    3.185794e+01,    1.244444e+01,   -3.982693e+00
    2800,    3.590936e+01,    1.244444e+01,   -3.947828e+00
    2801,    3.995212e+01,    1.244444e+01,   -3.918120e+00
    2802,    4.398960e+01,    1.244444e+01,   -3.891596e+00
    2803,    4.802267e+01,    1.244444e+01,   -3.874793e+00
    2804,    5.204224e+01,    1.244444e+01,   -3.856267e+00
    2805,    5.603568e+01,    1.244444e+01,   -3.825597e+00
    2806,    5.605831e+01,    1.244444e+01,   -6.017227e+01
    2807,    5.206865e+01,    1.244444e+01,   -6.016125e+01
    2808,    4.806784e+01,    1.244444e+01,   -6.015629e+01
    2809,    4.406693e+01,    1.244444e+01,   -6.015274e+01
    2810,    4.006107e+01,    1.244444e+01,   -6.014123e+01
    2811,    3.605708e+01,    1.244444e+01,   -6.012643e+01
    2812,    3.204912e+01,    1.244444e+01,   -6.010376e+01
    2813,    2.804373e+01,    1.244444e+01,   -6.008299e+01
    2814,    2.404056e+01,    1.244444e+01,   -6.006068e+01
    2815,    2.003578e+01,    1.244444e+01,   -6.004150e+01
    2816,    1.602788e+01,    1.244444e+01,   -6.002612e+01
    2817,    1.202023e+01,    1.244444e+01,   -6.001483e+01
    2818,    8.012207e+00,    1.244444e+01,   -6.000740e+01
    2819,    5.605231e+01,    1.244444e+01,   -7.631735e+00
    2820,    5.605400e+01,    1.244444e+01,   -1.141692e+01
    2821,    5.605187e+01,    1.244444e+01,   -1.518493e+01
    2822,    5.604994e+01,    1.244444e+01,   -1.894055e+01
    2823,    5.607088e+01,    1.244444e+01,   -2.268680e+01
    2824,    5.611128e+01,    1.244444e+01,   -2.642275e+01
    2825,    5.615894e+01,    1.244444e+01,   -3.015100e+01
    2826,    5.618307e+01,    1.244444e+01,   -3.387199e+01
    2827,    5.619127e+01,    1.244444e+01,   -3.759800e+01
    2828,    5.618591e+01,    1.244444e+01,   -4.132961e+01
    2829,    5.617374e+01,    1.244444e+01,   -4.506949e+01
    2830,    5.616509e+01,    1.244444e+01,   -4.881555e+01
    2831,    5.614636e+01,    1.244444e+01,   -5.257758e+01
    2832,    5.610516e+01,    1.244444e+01,   -5.636893e+01
    2833,    5.213156e+01,    1.244444e+01,   -5.634262e+01
    2834,    4.814390e+01,    1.244444e+01,   -5.632854e+01
    2835,    4.413994e+01,    1.244444e+01,   -5.631626e+01
    2836,    4.013476e+01,    1.244444e+01,   -5.629693e+01
    2837,    3.612352e+01,    1.244444e+01,   -5.626651e+01
    2838,    3.211542e+01,    1.244444e+01,   -5.622538e+01
    2839,    2.810932e+01,    1.244444e+01,   -5.617813e+01
    2840,    2.410233e+01,    1.244444e+01,   -5.613065e+01
    2841,    2.009103e+01,    1.244444e+01,   -5.608892e+01
    2842,    1.607493e+01,    1.244444e+01,   -5.605732e+01
    2843,    1.205218e+01,    1.244444e+01,   -5.603186e+01
    2844,    8.031940e+00,    1.244444e+01,   -5.601602e+01
    2845,    8.057675e+00,    1.244444e+01,   -5.202429e+01
    2846,    8.111301e+00,    1.244444e+01,   -4.803437e+01
    2847,    8.196580e+00,    1.244444e+01,   -4.404329e+01
    2848,    8.303813e+00,    1.244444e+01,   -4.004979e+01
    2849,    8.449298e+00,    1.244444e+01,   -3.604995e+01
    2850,    8.622913e+00,    1.244444e+01,   -3.203306e+01
    2851,    8.806499e+00,    1.244444e+01,   -2.799495e+01
    2852,    9.001517e+00,    1.244444e+01,   -2.392952e+01
    2853,    9.260701e+00,    1.244444e+01,   -1.983305e+01
    2854,    9.871929e+00,    1.244444e+01,   -1.570074e+01
    2855,    1.085342e+01,    1.244444e+01,   -1.164384e+01
    2856,    1.234226e+01,    1.244444e+01,   -8.345500e+00
    2857,    1.552827e+01,    1.244444e+01,   -8.228114e+00
    2858,    1.938480e+01,    1.244444e+01,   -8.126053e+00
    2859,    2.346962e+01,    1.244444e+01,   -8.062789e+00
    2860,    2.759160e+01,    1.244444e+01,   -8.021259e+00
    2861,    3.170611e+01,    1.244444e+01,   -7.963111e+00
    2862,    3.580824e+01,    1.244444e+01,   -7.897363e+00
    2863,    3.989725e+01,    1.244444e+01,   -7.832498e+00
    2864,    4.397330e+01,    1.244444e+01,   -7.781148e+00
    2865,    4.802861e+01,    1.244444e+01,   -7.735238e+00
    2866,    5.204892e+01,    1.244444e+01,   -7.681315e+00
    2867,    1.210202e+01,    1.244444e+01,   -5.205139e+01
    2868,    1.218336e+01,    1.244444e+01,   -4.806928e+01
    2869,    1.230200e+01,    1.244444e+01,   -4.408715e+01
    2870,    1.246631e+01,    1.244444e+01,   -4.010088e+01
    2871,    1.268383e+01,    1.244444e+01,   -3.610482e+01
    2872,    1.293979e+01,    1.244444e+01,   -3.209219e+01
    2873,    1.320445e+01,    1.244444e+01,   -2.806298e+01
    2874,    1.346050e+01,    1.244444e+01,   -2.401567e+01
    2875,    1.375671e+01,    1.244444e+01,   -1.996494e+01
    2876,    1.418370e+01,    1.244444e+01,   -1.594216e+01
    2877,    1.491152e+01,    1.244444e+01,   -1.198156e+01
    2878,    5.204953e+01,    1.244444e+01,   -1.148605e+01
    2879,    5.204298e+01,    1.244444e+01,   -1.526489e+01
    2880,    5.204456e+01,    1.244444e+01,   -1.902046e+01
    2881,    5.207857e+01,    1.244444e+01,   -2.275784e+01
    2882,    5.215147e+01,    1.244444e+01,   -2.647724e+01
    2883,    5.222930e+01,    1.244444e+01,   -3.017936e+01
    2884,    5.227810e+01,    1.244444e+01,   -3.388262e+01
    2885,    5.229166e+01,    1.244444e+01,   -3.758834e+01
    2886,    5.228171e+01,    1.244444e+01,   -4.130144e+01
    2887,    5.226521e+01,    1.244444e+01,   -4.502591e+01
    2888,    5.223728e+01,    1.244444e+01,   -4.877059e+01
    2889,    5.218755e+01,    1.244444e+01,   -5.254913e+01
    2890,    4.821607e+01,    1.244444e+01,   -5.252248e+01
    2891,    4.422486e+01,    1.244444e+01,   -5.250185e+01
    2892,    4.022070e+01,    1.244444e+01,   -5.247496e+01
    2893,    3.621778e+01,    1.244444e+01,   -5.243058e+01
    2894,    3.221641e+01,    1.244444e+01,   -5.236647e+01
    2895,    2.821039e+01,    1.244444e+01,   -5.228765e+01
    2896,    2.420077e+01,    1.244444e+01,   -5.220948e+01
    2897,    2.018141e+01,    1.244444e+01,   -5.214268e+01
    2898,    1.614845e+01,    1.244444e+01,   -5.209109e+01
    2899,    1.898610e+01,    1.244444e+01,   -1.206032e+01
    2900,    2.317408e+01,    1.244444e+01,   -1.205872e+01
    2901,    2.736854e+01,    1.244444e+01,   -1.202395e+01
    2902,    3.154887e+01,    1.244444e+01,   -1.195220e+01
    2903,    3.570870e+01,    1.244444e+01,   -1.184740e+01
    2904,    3.984605e+01,    1.244444e+01,   -1.174336e+01
    2905,    4.395068e+01,    1.244444e+01,   -1.165150e+01
    2906,    4.801355e+01,    1.244444e+01,   -1.156135e+01
    2907,    4.800188e+01,    1.244444e+01,   -1.536233e+01
    2908,    4.800776e+01,    1.244444e+01,   -1.912957e+01
    2909,    4.806277e+01,    1.244444e+01,   -2.286339e+01
    2910,    4.817490e+01,    1.244444e+01,   -2.656285e+01
    2911,    4.831078e+01,    1.244444e+01,   -3.024234e+01
    2912,    4.838898e+01,    1.244444e+01,   -3.391456e+01
    2913,    4.840739e+01,    1.244444e+01,   -3.759062e+01
    2914,    4.838850e+01,    1.244444e+01,   -4.128003e+01
    2915,    4.834919e+01,    1.244444e+01,   -4.499456e+01
    2916,    4.828208e+01,    1.244444e+01,   -4.874709e+01
    2917,    1.625265e+01,    1.244444e+01,   -4.812202e+01
    2918,    1.640593e+01,    1.244444e+01,   -4.415157e+01
    2919,    1.662078e+01,    1.244444e+01,   -4.017706e+01
    2920,    1.690748e+01,    1.244444e+01,   -3.618641e+01
    2921,    1.725210e+01,    1.244444e+01,   -3.217840e+01
    2922,    1.760374e+01,    1.244444e+01,   -2.814945e+01
    2923,    1.789723e+01,    1.244444e+01,   -2.410255e+01
    2924,    1.818908e+01,    1.244444e+01,   -2.005677e+01
    2925,    1.856015e+01,    1.244444e+01,   -1.603581e+01
    2926,    4.431720e+01,    1.244444e+01,   -4.871883e+01
    2927,    4.033710e+01,    1.244444e+01,   -4.868367e+01
    2928,    3.635078e+01,    1.244444e+01,   -4.862680e+01
    2929,    3.235936e+01,    1.244444e+01,   -4.853396e+01
    2930,    2.836067e+01,    1.244444e+01,   -4.841286e+01
    2931,    2.434916e+01,    1.244444e+01,   -4.829497e+01
    2932,    2.031381e+01,    1.244444e+01,   -4.819759e+01
    2933,    2.286852e+01,    1.244444e+01,   -1.606813e+01
    2934,    2.715096e+01,    1.244444e+01,   -1.604769e+01
    2935,    3.140840e+01,    1.244444e+01,   -1.596079e+01
    2936,    3.563197e+01,    1.244444e+01,   -1.579948e+01
    2937,    3.980752e+01,    1.244444e+01,   -1.563425e+01
    2938,    4.392493e+01,    1.244444e+01,   -1.548223e+01
    2939,    4.393326e+01,    1.244444e+01,   -1.927930e+01
    2940,    4.400930e+01,    1.244444e+01,   -2.302442e+01
    2941,    4.418589e+01,    1.244444e+01,   -2.671416e+01
    2942,    4.442014e+01,    1.244444e+01,   -3.034757e+01
    2943,    4.453467e+01,    1.244444e+01,   -3.396794e+01
    2944,    4.454807e+01,    1.244444e+01,   -3.759902e+01
    2945,    4.450007e+01,    1.244444e+01,   -4.126330e+01
    2946,    4.441109e+01,    1.244444e+01,   -4.497460e+01
    2947,    2.049530e+01,    1.244444e+01,   -4.424929e+01
    2948,    2.075407e+01,    1.244444e+01,   -4.028981e+01
    2949,    2.110654e+01,    1.244444e+01,   -3.631012e+01
    2950,    2.155582e+01,    1.244444e+01,   -3.230376e+01
    2951,    2.202153e+01,    1.244444e+01,   -2.825885e+01
    2952,    2.232694e+01,    1.244444e+01,   -2.418016e+01
    2953,    2.258733e+01,    1.244444e+01,   -2.010815e+01
    2954,    4.047222e+01,    1.244444e+01,   -4.493595e+01
    2955,    3.652095e+01,    1.244444e+01,   -4.486428e+01
    2956,    3.255620e+01,    1.244444e+01,   -4.473305e+01
    2957,    2.857576e+01,    1.244444e+01,   -4.454904e+01
    2958,    2.455979e+01,    1.244444e+01,   -4.438297e+01
    2959,    2.696586e+01,    1.244444e+01,   -2.011087e+01
    2960,    3.131864e+01,    1.244444e+01,   -2.001176e+01
    2961,    3.560614e+01,    1.244444e+01,   -1.974297e+01
    2962,    3.980763e+01,    1.244444e+01,   -1.947877e+01
    2963,    3.989978e+01,    1.244444e+01,   -2.327629e+01
    2964,    4.020874e+01,    1.244444e+01,   -2.697554e+01
    2965,    4.059617e+01,    1.244444e+01,   -3.050914e+01
    2966,    4.073786e+01,    1.244444e+01,   -3.402976e+01
    2967,    4.071308e+01,    1.244444e+01,   -3.759895e+01
    2968,    4.060220e+01,    1.244444e+01,   -4.123991e+01
    2969,    2.484543e+01,    1.244444e+01,   -4.045652e+01
    2970,    2.525476e+01,    1.244444e+01,   -3.650591e+01
    2971,    2.583372e+01,    1.244444e+01,   -3.250992e+01
    2972,    2.649439e+01,    1.244444e+01,   -2.841491e+01
    2973,    2.677161e+01,    1.244444e+01,   -2.423521e+01
    2974,    3.671686e+01,    1.244444e+01,   -4.115982e+01
    2975,    3.281275e+01,    1.244444e+01,   -4.097617e+01
    2976,    2.887382e+01,    1.244444e+01,   -4.069087e+01
    2977,    3.130054e+01,    1.244444e+01,   -2.414745e+01
    2978,    3.575046e+01,    1.244444e+01,   -2.364090e+01
    2979,    3.613170e+01,    1.244444e+01,   -2.744289e+01
    2980,    3.694939e+01,    1.244444e+01,   -3.076005e+01
    2981,    3.702844e+01,    1.244444e+01,   -3.404152e+01
    2982,    3.689466e+01,    1.244444e+01,   -3.753500e+01
    2983,    2.930428e+01,    1.244444e+01,   -3.683310e+01
    2984,    2.999567e+01,    1.244444e+01,   -3.296473e+01
    2985,    3.155270e+01,    1.244444e+01,   -2.872469e+01
    2986,    3.313284e+01,    1.244444e+01,   -3.730790e+01
    2987,    3.399849e+01,    1.244444e+01,   -3.108961e+01
    2988,    3.353854e+01,    1.244444e+01,   -3.389647e+01
    2989,    6.002922e+01,    1.600000e+01,   -3.797724e+00
    2990,    6.003101e+01,    1.600000e+01,   -7.581841e+00
    2991,    6.003682e+01,    1.600000e+01,   -1.135269e+01
    2992,    6.003557e+01,    1.600000e+01,   -1.511740e+01
    2993,    6.003580e+01,    1.600000e+01,   -1.887796e+01
    2994,    6.004256e+01,    1.600000e+01,   -2.263396e+01
    2995,    6.005933e+01,    1.600000e+01,   -2.638518e+01
    2996,    6.008236e+01,    1.600000e+01,   -3.013176e+01
    2997,    6.009459e+01,    1.600000e+01,   -3.387711e+01
    2998,    6.009619e+01,    1.600000e+01,   -3.762096e+01
    2999,    6.009187e+01,    1.600000e+01,   -4.136643e+01
    3000,    6.008653e+01,    1.600000e+01,   -4.511865e+01
    3001,    6.008209e+01,    1.600000e+01,   -4.887610e+01
    3002,    6.007820e+01,    1.600000e+01,   -5.263615e+01
    3003,    6.006741e+01,    1.600000e+01,   -5.640646e+01
    3004,    6.003405e+01,    1.600000e+01,   -6.019939e+01
    3005,    4.004054e+00,    1.600000e+01,   -6.000185e+01
    3006,    4.010517e+00,    1.600000e+01,   -5.600558e+01
    3007,    4.025683e+00,    1.600000e+01,   -5.200876e+01
    3008,    4.045803e+00,    1.600000e+01,   -4.801325e+01
    3009,    4.091464e+00,    1.600000e+01,   -4.401559e+01
    3010,    4.151107e+00,    1.600000e+01,   -4.001730e+01
    3011,    4.217838e+00,    1.600000e+01,   -3.601438e+01
    3012,    4.306461e+00,    1.600000e+01,   -3.200299e+01
    3013,    4.404270e+00,    1.600000e+01,   -2.796569e+01
    3014,    4.512231e+00,    1.600000e+01,   -2.388980e+01
    3015,    4.677735e+00,    1.600000e+01,   -1.973242e+01
    3016,    5.095770e+00,    1.600000e+01,   -1.546986e+01
    3017,    6.087864e+00,    1.600000e+01,   -1.045262e+01
    3018,    1.069860e+01,    1.600000e+01,   -5.155009e+00
    3019,    1.545546e+01,    1.600000e+01,   -4.350985e+00
    3020,    1.964209e+01,    1.600000e+01,   -4.127743e+00
    3021,    2.372525e+01,    1.600000e+01,   -4.047906e+00
    3022,    2.779426e+01,    1.600000e+01,   -4.015703e+00
    3023,    3.185794e+01,    1.600000e+01,   -3.982693e+00
    3024,    3.590936e+01,    1.600000e+01,   -3.947828e+00
    3025,    3.995212e+01,    1.600000e+01,   -3.918120e+00
    3026,    4.398960e+01,    1.600000e+01,   -3.891596e+00
    3027,    4.802267e+01,    1.600000e+01,   -3.874793e+00
    3028,    5.204224e+01,    1.600000e+01,   -3.856267e+00
    3029,    5.603568e+01,    1.600000e+01,   -3.825597e+00
    3030,    5.605831e+01,    1.600000e+01,   -6.017227e+01
    3031,    5.206865e+01,    1.600000e+01,   -6.016125e+01
    3032,    4.806784e+01,    1.600000e+01,   -6.015629e+01
    3033,    4.406693e+01,    1.600000e+01,   -6.015274e+01
    3034,    4.006107e+01,    1.600000e+01,   -6.014123e+01
    3035,    3.605708e+01,    1.600000e+01,   -6.012643e+01
    3036,    3.204912e+01,    1.600000e+01,   -6.010376e+01
    3037,    2.804373e+01,    1.600000e+01,   -6.008299e+01
    3038,    2.404056e+01,    1.600000e+01,   -6.006068e+01
    3039,    2.003578e+01,    1.600000e+01,   -6.004150e+01
    3040,    1.602788e+01,    1.600000e+01,   -6.002612e+01
    3041,    1.202023e+01,    1.600000e+01,   -6.001483e+01
    3042,    8.012207e+00,    1.600000e+01,   -6.000740e+01
    3043,    5.605231e+01,    1.600000e+01,   -7.631735e+00
    3044,    5.605400e+01,    1.600000e+01,   -1.141692e+01
    3045,    5.605187e+01,    1.600000e+01,   -1.518493e+01
    3046,    5.604994e+01,    1.600000e+01,   -1.894055e+01
    3047,    5.607088e+01,    1.600000e+01,   -2.268680e+01
    3048,    5.611128e+01,    1.600000e+01,   -2.642275e+01
    3049,    5.615894e+01,    1.600000e+01,   -3.015100e+01
    3050,    5.618307e+01,    1.600000e+01,   -3.387199e+01
    3051,    5.619127e+01,    1.600000e+01,   -3.759800e+01
    3052,    5.618591e+01,    1.600000e+01,   -4.132961e+01
    3053,    5.617374e+01,    1.600000e+01,   -4.506949e+01
    3054,    5.616509e+01,    1.600000e+01,   -4.881555e+01
    3055,    5.614636e+01,    1.600000e+01,   -5.257758e+01
    3056,    5.610516e+01,    1.600000e+01,   -5.636893e+01
    3057,    5.213156e+01,    1.600000e+01,   -5.634262e+01
    3058,    4.814390e+01,    1.600000e+01,   -5.632854e+01
    3059,    4.413994e+01,    1.600000e+01,   -5.631626e+01
    3060,    4.013476e+01,    1.600000e+01,   -5.629693e+01
    3061,    3.612352e+01,    1.600000e+01,   -5.626651e+01
    3062,    3.211542e+01,    1.600000e+01,   -5.622538e+01
    3063,    2.810932e+01,    1.600000e+01,   -5.617813e+01
    3064,    2.410233e+01,    1.600000e+01,   -5.613065e+01
    3065,    2.009103e+01,    1.600000e+01,   -5.608892e+01
    3066,    1.607493e+01,    1.600000e+01,   -5.605732e+01
    3067,    1.205218e+01,    1.600000e+01,   -5.603186e+01
    3068,    8.031940e+00,    1.600000e+01,   -5.601602e+01
    3069,    8.057675e+00,    1.600000e+01,   -5.202429e+01
    3070,    8.111301e+00,    1.600000e+01,   -4.803437e+01
    3071,    8.196580e+00,    1.600000e+01,   -4.404329e+01
    3072,    8.303813e+00,    1.600000e+01,   -4.004979e+01
    3073,    8.449298e+00,    1.600000e+01,   -3.604995e+01
    3074,    8.622913e+00,    1.600000e+01,   -3.203306e+01
    3075,    8.806499e+00,    1.600000e+01,   -2.799495e+01
    3076,    9.001517e+00,    1.600000e+01,   -2.392952e+01
    3077,    9.260701e+00,    1.600000e+01,   -1.983305e+01
    3078,    9.871929e+00,    1.600000e+01,   -1.570074e+01
    3079,    1.085342e+01,    1.600000e+01,   -1.164384e+01
    3080,    1.234226e+01,    1.600000e+01,   -8.345500e+00
    3081,    1.552827e+01,    1.600000e+01,   -8.228114e+00
    3082,    1.938480e+01,    1.600000e+01,   -8.126053e+00
    3083,    2.346962e+01,    1.600000e+01,   -8.062789e+00
    3084,    2.759160e+01,    1.600000e+01,   -8.021259e+00
    3085,    3.170611e+01,    1.600000e+01,   -7.963111e+00
    3086,    3.580824e+01,    1.600000e+01,   -7.897363e+00
    3087,    3.989725e+01,    1.600000e+01,   -7.832498e+00
    3088,    4.397330e+01,    1.600000e+01,   -7.781148e+00
    3089,    4.802861e+01,    1.600000e+01,   -7.735238e+00
    3090,    5.204892e+01,    1.600000e+01,   -7.681315e+00
    3091,    1.210202e+01,    1.600000e+01,   -5.205139e+01
    3092,    1.218336e+01,    1.600000e+01,   -4.806928e+01
    3093,    1.230200e+01,    1.600000e+01,   -4.408715e+01
    3094,    1.246631e+01,    1.600000e+01,   -4.010088e+01
    3095,    1.268383e+01,    1.600000e+01,   -3.610482e+01
    3096,    1.293979e+01,    1.600000e+01,   -3.209219e+01
    3097,    1.320445e+01,    1.600000e+01,   -2.806298e+01
    3098,    1.346050e+01,    1.600000e+01,   -2.401567e+01
    3099,    1.375671e+01,    1.600000e+01,   -1.996494e+01
    3100,    1.418370e+01,    1.600000e+01,   -1.594216e+01
    3101,    1.491152e+01,    1.600000e+01,   -1.198156e+01
    3102,    5.204953e+01,    1.600000e+01,   -1.148605e+01
    3103,    5.204298e+01,    1.600000e+01,   -1.526489e+01
    3104,    5.204456e+01,    1.600000e+01,   -1.902046e+01
    3105,    5.207857e+01,    1.600000e+01,   -2.275784e+01
    3106,    5.215147e+01,    1.600000e+01,   -2.647724e+01
    3107,    5.222930e+01,    1.600000e+01,   -3.017936e+01
    3108,    5.227810e+01,    1.600000e+01,   -3.388262e+01
    3109,    5.229166e+01,    1.600000e+01,   -3.758834e+01
    3110,    5.228171e+01,    1.600000e+01,   -4.130144e+01
    3111,    5.226521e+01,    1.600000e+01,   -4.502591e+01
    3112,    5.223728e+01,    1.600000e+01,   -4.877059e+01
    3113,    5.218755e+01,    1.600000e+01,   -5.254913e+01
    3114,    4.821607e+01,    1.600000e+01,   -5.252248e+01
    3115,    4.422486e+01,    1.600000e+01,   -5.250185e+01
    3116,    4.022070e+01,    1.600000e+01,   -5.247496e+01
    3117,    3.621778e+01,    1.600000e+01,   -5.243058e+01
    3118,    3.221641e+01,    1.600000e+01,   -5.236647e+01
    3119,    2.821039e+01,    1.600000e+01,   -5.228765e+01
    3120,    2.420077e+01,    1.600000e+01,   -5.220948e+01
    3121,    2.018141e+01,    1.600000e+01,   -5.214268e+01
    3122,    1.614845e+01,    1.600000e+01,   -5.209109e+01
    3123,    1.898610e+01,    1.600000e+01,   -1.206032e+01
    3124,    2.317408e+01,    1.600000e+01,   -1.205872e+01
    3125,    2.736854e+01,    1.600000e+01,   -1.202395e+01
    3126,    3.154887e+01,    1.600000e+01,   -1.195220e+01
    3127,    3.570870e+01,    1.600000e+01,   -1.184740e+01
    3128,    3.984605e+01,    1.600000e+01,   -1.174336e+01
    3129,    4.395068e+01,    1.600000e+01,   -1.165150e+01
    3130,    4.801355e+01,    1.600000e+01,   -1.156135e+01
    3131,    4.800188e+01,    1.600000e+01,   -1.536233e+01
    3132,    4.800776e+01,    1.600000e+01,   -1.912957e+01
    3133,    4.806277e+01,    1.600000e+01,   -2.286339e+01
    3134,    4.817490e+01,    1.600000e+01,   -2.656285e+01
    3135,    4.831078e+01,    1.600000e+01,   -3.024234e+01
    3136,    4.838898e+01,    1.600000e+01,   -3.391456e+01
    3137,    4.840739e+01,    1.600000e+01,   -3.759062e+01
    3138,    4.838850e+01,    1.600000e+01,   -4.128003e+01
    3139,    4.834919e+01,    1.600000e+01,   -4.499456e+01
    3140,    4.828208e+01,    1.600000e+01,   -4.874709e+01
    3141,    1.625265e+01,    1.600000e+01,   -4.812202e+01
    3142,    1.640593e+01,    1.600000e+01,   -4.415157e+01
    3143,    1.662078e+01,    1.600000e+01,   -4.017706e+01
    3144,    1.690748e+01,    1.600000e+01,   -3.618641e+01
    3145,    1.725210e+01,    1.600000e+01,   -3.217840e+01
    3146,    1.760374e+01,    1.600000e+01,   -2.814945e+01
    3147,    1.789723e+01,    1.600000e+01,   -2.410255e+01
    3148,    1.818908e+01,    1.600000e+01,   -2.005677e+01
    3149,    1.856015e+01,    1.600000e+01,   -1.603581e+01
    3150,    4.431720e+01,    1.600000e+01,   -4.871883e+01
    3151,    4.033710e+01,    1.600000e+01,   -4.868367e+01
    3152,    3.635078e+01,    1.600000e+01,   -4.862680e+01
    3153,    3.235936e+01,    1.600000e+01,   -4.853396e+01
    3154,    2.836067e+01,    1.600000e+01,   -4.841286e+01
    3155,    2.434916e+01,    1.600000e+01,   -4.829497e+01
    3156,    2.031381e+01,    1.600000e+01,   -4.819759e+01
    3157,    2.286852e+01,    1.600000e+01,   -1.606813e+01
    3158,    2.715096e+01,    1.600000e+01,   -1.604769e+01
    3159,    3.140840e+01,    1.600000e+01,   -1.596079e+01
    3160,    3.563197e+01,    1.600000e+01,   -1.579948e+01
    3161,    3.980752e+01,    1.600000e+01,   -1.563425e+01
    3162,    4.392493e+01,    1.600000e+01,   -1.548223e+01
    3163,    4.393326e+01,    1.600000e+01,   -1.927930e+01
    3164,    4.400930e+01,    1.600000e+01,   -2.302442e+01
    3165,    4.418589e+01,    1.600000e+01,   -2.671416e+01
    3166,    4.442014e+01,    1.600000e+01,   -3.034757e+01
    3167,    4.453467e+01,    1.600000e+01,   -3.396794e+01
    3168,    4.454807e+01,    1.600000e+01,   -3.759902e+01
    3169,    4.450007e+01,    1.600000e+01,   -4.126330e+01
    3170,    4.441109e+01,    1.600000e+01,   -4.497460e+01
    3171,    2.049530e+01,    1.600000e+01,   -4.424929e+01
    3172,    2.075407e+01,    1.600000e+01,   -4.028981e+01
    3173,    2.110654e+01,    1.600000e+01,   -3.631012e+01
    3174,    2.155582e+01,    1.600000e+01,   -3.230376e+01
    3175,    2.202153e+01,    1.600000e+01,   -2.825885e+01
    3176,    2.232694e+01,    1.600000e+01,   -2.418016e+01
    3177,    2.258733e+01,    1.600000e+01,   -2.010815e+01
    3178,    4.047222e+01,    1.600000e+01,   -4.493595e+01
    3179,    3.652095e+01,    1.600000e+01,   -4.486428e+01
    3180,    3.255620e+01,    1.600000e+01,   -4.473305e+01
    3181,    2.857576e+01,    1.600000e+01,   -4.454904e+01
    3182,    2.455979e+01,    1.600000e+01,   -4.438297e+01
    3183,    2.696586e+01,    1.600000e+01,   -2.011087e+01
    3184,    3.131864e+01,    1.600000e+01,   -2.001176e+01
    3185,    3.560614e+01,    1.600000e+01,   -1.974297e+01
    3186,    3.980763e+01,    1.600000e+01,   -1.947877e+01
    3187,    3.989978e+01,    1.600000e+01,   -2.327629e+01
    3188,    4.020874e+01,    1.600000e+01,   -2.697554e+01
    3189,    4.059617e+01,    1.600000e+01,   -3.050914e+01
    3190,    4.073786e+01,    1.600000e+01,   -3.402976e+01
    3191,    4.071308e+01,    1.600000e+01,   -3.759895e+01
    3192,    4.060220e+01,    1.600000e+01,   -4.123991e+01
    3193,    2.484543e+01,    1.600000e+01,   -4.045652e+01
    3194,    2.525476e+01,    1.600000e+01,   -3.650591e+01
    3195,    2.583372e+01,    1.600000e+01,   -3.250992e+01
    3196,    2.649439e+01,    1.600000e+01,   -2.841491e+01
    3197,    2.677161e+01,    1.600000e+01,   -2.423521e+01
    3198,    3.671686e+01,    1.600000e+01,   -4.115982e+01
    3199,    3.281275e+01,    1.600000e+01,   -4.097617e+01
    3200,    2.887382e+01,    1.600000e+01,   -4.069087e+01
    3201,    3.130054e+01,    1.600000e+01,   -2.414745e+01
    3202,    3.575046e+01,    1.600000e+01,   -2.364090e+01
    3203,    3.613170e+01,    1.600000e+01,   -2.744289e+01
    3204,    3.694939e+01,    1.600000e+01,   -3.076005e+01
    3205,    3.702844e+01,    1.600000e+01,   -3.404152e+01
    3206,    3.689466e+01,    1.600000e+01,   -3.753500e+01
    3207,    2.930428e+01,    1.600000e+01,   -3.683310e+01
    3208,    2.999567e+01,    1.600000e+01,   -3.296473e+01
    3209,    3.155270e+01,    1.600000e+01,   -2.872469e+01
    3210,    3.313284e+01,    1.600000e+01,   -3.730790e+01
    3211,    3.399849e+01,    1.600000e+01,   -3.108961e+01
    3212,    3.353854e+01,    1.600000e+01,   -3.389647e+01
    3213,    0.000000e+00,    0.000000e+00,   -6.400000e+01
    3214,    0.000000e+00,    0.000000e+00,   -1.200000e+01
    3215,    0.000000e+00,    0.000000e+00,   -1.600000e+01
    3216,    0.000000e+00,    0.000000e+00,   -2.000000e+01
    3217,    0.000000e+00,    0.000000e+00,   -2.400000e+01
    3218,    0.000000e+00,    0.000000e+00,   -2.800000e+01
    3219,    0.000000e+00,    0.000000e+00,   -3.200000e+01
    3220,    0.000000e+00,    0.000000e+00,   -3.600000e+01
    3221,    0.000000e+00,    0.000000e+00,   -4.000000e+01
    3222,    0.000000e+00,    0.000000e+00,   -4.400000e+01
    3223,    0.000000e+00,    0.000000e+00,   -4.800000e+01
    3224,    0.000000e+00,    0.000000e+00,   -5.200000e+01
    3225,    0.000000e+00,    0.000000e+00,   -5.600000e+01
    3226,    0.000000e+00,    0.000000e+00,   -6.000000e+01
    3227,    6.400000e+01,    0.000000e+00,   -6.400000e+01
    3228,    6.000000e+01,    0.000000e+00,   -6.400000e+01
    3229,    5.600000e+01,    0.000000e+00,   -6.400000e+01
    3230,    5.200000e+01,    0.000000e+00,   -6.400000e+01
    3231,    4.800000e+01,    0.000000e+00,   -6.400000e+01
    3232,    4.400000e+01,    0.000000e+00,   -6.400000e+01
    3233,    4.000000e+01,    0.000000e+00,   -6.400000e+01
    3234,    3.600000e+01,    0.000000e+00,   -6.400000e+01
    3235,    3.200000e+01,    0.000000e+00,   -6.400000e+01
    3236,    2.800000e+01,    0.000000e+00,   -6.400000e+01
    3237,    2.400000e+01,    0.000000e+00,   -6.400000e+01
    3238,    2.000000e+01,    0.000000e+00,   -6.400000e+01
    3239,    1.600000e+01,    0.000000e+00,   -6.400000e+01
    3240,    1.200000e+01,    0.000000e+00,   -6.400000e+01
    3241,    8.000000e+00,    0.000000e+00,   -6.400000e+01
    3242,    4.000000e+00,    0.000000e+00,   -6.400000e+01
    3243,    6.400000e+01,    0.000000e+00,    0.000000e+00
    3244,    1.200000e+01,    0.000000e+00,    0.000000e+00
    3245,    1.600000e+01,    0.000000e+00,    0.000000e+00
    3246,    2.000000e+01,    0.000000e+00,    0.000000e+00
    3247,    2.400000e+01,    0.000000e+00,    0.000000e+00
    3248,    2.800000e+01,    0.000000e+00,    0.000000e+00
    3249,    3.200000e+01,    0.000000e+00,    0.000000e+00
    3250,    3.600000e+01,    0.000000e+00,    0.000000e+00
    3251,    4.000000e+01,    0.000000e+00,    0.000000e+00
    3252,    4.400000e+01,    0.000000e+00,    0.000000e+00
    3253,    4.800000e+01,    0.000000e+00,    0.000000e+00
    3254,    5.200000e+01,    0.000000e+00,    0.000000e+00
    3255,    5.600000e+01,    0.000000e+00,    0.000000e+00
    3256,    6.000000e+01,    0.000000e+00,    0.000000e+00
    3257,    6.400000e+01,    0.000000e+00,   -3.764706e+00
    3258,    6.400000e+01,    0.000000e+00,   -7.529412e+00
    3259,    6.400000e+01,    0.000000e+00,   -1.129412e+01
    3260,    6.400000e+01,    0.000000e+00,   -1.505882e+01
    3261,    6.400000e+01,    0.000000e+00,   -1.882353e+01
    3262,    6.400000e+01,    0.000000e+00,   -2.258824e+01
    3263,    6.400000e+01,    0.000000e+00,   -2.635294e+01
    3264,    6.400000e+01,    0.000000e+00,   -3.011765e+01
    3265,    6.400000e+01,    0.000000e+00,   -3.388235e+01
    3266,    6.400000e+01,    0.000000e+00,   -3.764706e+01
    3267,    6.400000e+01,    0.000000e+00,   -4.141176e+01
    3268,    6.400000e+01,    0.000000e+00,   -4.517647e+01
    3269,    6.400000e+01,    0.000000e+00,   -4.894118e+01
    3270,    6.400000e+01,    0.000000e+00,   -5.270588e+01
    3271,    6.400000e+01,    0.000000e+00,   -5.647059e+01
    3272,    6.400000e+01,    0.000000e+00,   -6.023529e+01
    3273,    6.002922e+01,    0.000000e+00,   -3.797724e+00
    3274,    6.003101e+01,    0.000000e+00,   -7.581841e+00
    3275,    6.003682e+01,    0.000000e+00,   -1.135269e+01
    3276,    6.003557e+01,    0.000000e+00,   -1.511740e+01
    3277,    6.003580e+01,    0.000000e+00,   -1.887796e+01
    3278,    6.004256e+01,    0.000000e+00,   -2.263396e+01
    3279,    6.005933e+01,    0.000000e+00,   -2.638518e+01
    3280,    6.008236e+01,    0.000000e+00,   -3.013176e+01
    3281,    6.009459e+01,    0.000000e+00,   -3.387711e+01
    3282,    6.009619e+01,    0.000000e+00,   -3.762096e+01
    3283,    6.009187e+01,    0.000000e+00,   -4.136643e+01
    3284,    6.008653e+01,    0.000000e+00,   -4.511865e+01
    3285,    6.008209e+01,    0.000000e+00,   -4.887610e+01
    3286,    6.007820e+01,    0.000000e+00,   -5.263615e+01
    3287,    6.006741e+01,    0.000000e+00,   -5.640646e+01
    3288,    6.003405e+01,    0.000000e+00,   -6.019939e+01
    3289,    4.004054e+00,    0.000000e+00,   -6.000185e+01
    3290,    4.010517e+00,    0.000000e+00,   -5.600558e+01
    3291,    4.025683e+00,    0.000000e+00,   -5.200876e+01
    3292,    4.045803e+00,    0.000000e+00,   -4.801325e+01
    3293,    4.091464e+00,    0.000000e+00,   -4.401559e+01
    3294,    4.151107e+00,    0.000000e+00,   -4.001730e+01
    3295,    4.217838e+00,    0.000000e+00,   -3.601438e+01
    3296,    4.306461e+00,    0.000000e+00,   -3.200299e+01
    3297,    4.404270e+00,    0.000000e+00,   -2.796569e+01
    3298,    4.512231e+00,    0.000000e+00,   -2.388980e+01
    3299,    4.677735e+00,    0.000000e+00,   -1.973242e+01
    3300,    5.095770e+00,    0.000000e+00,   -1.546986e+01
    3301,    6.087864e+00,    0.000000e+00,   -1.045262e+01
    3302,    1.069860e+01,    0.000000e+00,   -5.155009e+00
    3303,    1.545546e+01,    0.000000e+00,   -4.350985e+00
    3304,    1.964209e+01,    0.000000e+00,   -4.127743e+00
    3305,    2.372525e+01,    0.000000e+00,   -4.047906e+00
    3306,    2.779426e+01,    0.000000e+00,   -4.015703e+00
    3307,    3.185794e+01,    0.000000e+00,   -3.982693e+00
    3308,    3.590936e+01,    0.000000e+00,   -3.947828e+00
    3309,    3.995212e+01,    0.000000e+00,   -3.918120e+00
    3310,    4.398960e+01,    0.000000e+00,   -3.891596e+00
    3311,    4.802267e+01,    0.000000e+00,   -3.874793e+00
    3312,    5.204224e+01,    0.000000e+00,   -3.856267e+00
    3313,    5.603568e+01,    0.000000e+00,   -3.825597e+00
    3314,    5.605831e+01,    0.000000e+00,   -6.017227e+01
    3315,    5.206865e+01,    0.000000e+00,   -6.016125e+01
    3316,    4.806784e+01,    0.000000e+00,   -6.015629e+01
    3317,    4.406693e+01,    0.000000e+00,   -6.015274e+01
    3318,    4.006107e+01,    0.000000e+00,   -6.014123e+01
    3319,    3.605708e+01,    0.000000e+00,   -6.012643e+01
    3320,    3.204912e+01,    0.000000e+00,   -6.010376e+01
    3321,    2.804373e+01,    0.000000e+00,   -6.008299e+01
    3322,    2.404056e+01,    0.000000e+00,   -6.006068e+01
    3323,    2.003578e+01,    0.000000e+00,   -6.004150e+01
    3324,    1.602788e+01,    0.000000e+00,   -6.002612e+01
    3325,    1.202023e+01,    0.000000e+00,   -6.001483e+01
    3326,    8.012207e+00,    0.000000e+00,   -6.000740e+01
    3327,    5.605231e+01,    0.000000e+00,   -7.631735e+00
    3328,    5.605400e+01,    0.000000e+00,   -1.141692e+01
    3329,    5.605187e+01,    0.000000e+00,   -1.518493e+01
    3330,    5.604994e+01,    0.000000e+00,   -1.894055e+01
    3331,    5.607088e+01,    0.000000e+00,   -2.268680e+01
    3332,    5.611128e+01,    0.000000e+00,   -2.642275e+01
    3333,    5.615894e+01,    0.000000e+00,   -3.015100e+01
    3334,    5.618307e+01,    0.000000e+00,   -3.387199e+01
    3335,    5.619127e+01,    0.000000e+00,   -3.759800e+01
    3336,    5.618591e+01,    0.000000e+00,   -4.132961e+01
    3337,    5.617374e+01,    0.000000e+00,   -4.506949e+01
    3338,    5.616509e+01,    0.000000e+00,   -4.881555e+01
    3339,    5.614636e+01,    0.000000e+00,   -5.257758e+01
    3340,    5.610516e+01,    0.000000e+00,   -5.636893e+01
    3341,    5.213156e+01,    0.000000e+00,   -5.634262e+01
    3342,    4.814390e+01,    0.000000e+00,   -5.632854e+01
    3343,    4.413994e+01,    0.000000e+00,   -5.631626e+01
    3344,    4.013476e+01,    0.000000e+00,   -5.629693e+01
    3345,    3.612352e+01,    0.000000e+00,   -5.626651e+01
    3346,    3.211542e+01,    0.000000e+00,   -5.622538e+01
    3347,    2.810932e+01,    0.000000e+00,   -5.617813e+01
    3348,    2.410233e+01,    0.000000e+00,   -5.613065e+01
    3349,    2.009103e+01,    0.000000e+00,   -5.608892e+01
    3350,    1.607493e+01,    0.000000e+00,   -5.605732e+01
    3351,    1.205218e+01,    0.000000e+00,   -5.603186e+01
    3352,    8.031940e+00,    0.000000e+00,   -5.601602e+01
    3353,    8.057675e+00,    0.000000e+00,   -5.202429e+01
    3354,    8.111301e+00,    0.000000e+00,   -4.803437e+01
    3355,    8.196580e+00,    0.000000e+00,   -4.404329e+01
    3356,    8.303813e+00,    0.000000e+00,   -4.004979e+01
    3357,    8.449298e+00,    0.000000e+00,   -3.604995e+01
    3358,    8.622913e+00,    0.000000e+00,   -3.203306e+01
    3359,    8.806499e+00,    0.000000e+00,   -2.799495e+01
    3360,    9.001517e+00,    0.000000e+00,   -2.392952e+01
    3361,    9.260701e+00,    0.000000e+00,   -1.983305e+01
    3362,    9.871929e+00,    0.000000e+00,   -1.570074e+01
    3363,    1.085342e+01,    0.000000e+00,   -1.164384e+01
    3364,    1.234226e+01,    0.000000e+00,   -8.345500e+00
    3365,    1.552827e+01,    0.000000e+00,   -8.228114e+00
    3366,    1.938480e+01,    0.000000e+00,   -8.126053e+00
    3367,    2.346962e+01,    0.000000e+00,   -8.062789e+00
    3368,    2.759160e+01,    0.000000e+00,   -8.021259e+00
    3369,    3.170611e+01,    0.000000e+00,   -7.963111e+00
    3370,    3.580824e+01,    0.000000e+00,   -7.897363e+00
    3371,    3.989725e+01,    0.000000e+00,   -7.832498e+00
    3372,    4.397330e+01,    0.000000e+00,   -7.781148e+00
    3373,    4.802861e+01,    0.000000e+00,   -7.735238e+00
    3374,    5.204892e+01,    0.000000e+00,   -7.681315e+00
    3375,    1.210202e+01,    0.000000e+00,   -5.205139e+01
    3376,    1.218336e+01,    0.000000e+00,   -4.806928e+01
    3377,    1.230200e+01,    0.000000e+00,   -4.408715e+01
    3378,    1.246631e+01,    0.000000e+00,   -4.010088e+01
    3379,    1.268383e+01,    0.000000e+00,   -3.610482e+01
    3380,    1.293979e+01,    0.000000e+00,   -3.209219e+01
    3381,    1.320445e+01,    0.000000e+00,   -2.806298e+01
    3382,    1.346050e+01,    0.000000e+00,   -2.401567e+01
    3383,    1.375671e+01,    0.000000e+00,   -1.996494e+01
    3384,    1.418370e+01,    0.000000e+00,   -1.594216e+01
    3385,    1.491152e+01,    0.000000e+00,   -1.198156e+01
    3386,    5.204953e+01,    0.000000e+00,   -1.148605e+01
    3387,    5.204298e+01,    0.000000e+00,   -1.526489e+01
    3388,    5.204456e+01,    0.000000e+00,   -1.902046e+01
    3389,    5.207857e+01,    0.000000e+00,   -2.275784e+01
    3390,    5.215147e+01,    0.000000e+00,   -2.647724e+01
    3391,    5.222930e+01,    0.000000e+00,   -3.017936e+01
    3392,    5.227810e+01,    0.000000e+00,   -3.388262e+01
    3393,    5.229166e+01,    0.000000e+00,   -3.758834e+01
    3394,    5.228171e+01,    0.000000e+00,   -4.130144e+01
    3395,    5.226521e+01,    0.000000e+00,   -4.502591e+01
    3396,    5.223728e+01,    0.000000e+00,   -4.877059e+01
    3397,    5.218755e+01,    0.000000e+00,   -5.254913e+01
    3398,    4.821607e+01,    0.000000e+00,   -5.252248e+01
    3399,    4.422486e+01,    0.000000e+00,   -5.250185e+01
    3400,    4.022070e+01,    0.000000e+00,   -5.247496e+01
    3401,    3.621778e+01,    0.000000e+00,   -5.243058e+01
    3402,    3.221641e+01,    0.000000e+00,   -5.236647e+01
    3403,    2.821039e+01,    0.000000e+00,   -5.228765e+01
    3404,    2.420077e+01,    0.000000e+00,   -5.220948e+01
    3405,    2.018141e+01,    0.000000e+00,   -5.214268e+01
    3406,    1.614845e+01,    0.000000e+00,   -5.209109e+01
    3407,    1.898610e+01,    0.000000e+00,   -1.206032e+01
    3408,    2.317408e+01,    0.000000e+00,   -1.205872e+01
    3409,    2.736854e+01,    0.000000e+00,   -1.202395e+01
    3410,    3.154887e+01,    0.000000e+00,   -1.195220e+01
    3411,    3.570870e+01,    0.000000e+00,   -1.184740e+01
    3412,    3.984605e+01,    0.000000e+00,   -1.174336e+01
    3413,    4.395068e+01,    0.000000e+00,   -1.165150e+01
    3414,    4.801355e+01,    0.000000e+00,   -1.156135e+01
    3415,    4.800188e+01,    0.000000e+00,   -1.536233e+01
    3416,    4.800776e+01,    0.000000e+00,   -1.912957e+01
    3417,    4.806277e+01,    0.000000e+00,   -2.286339e+01
    3418,    4.817490e+01,    0.000000e+00,   -2.656285e+01
    3419,    4.831078e+01,    0.000000e+00,   -3.024234e+01
    3420,    4.838898e+01,    0.000000e+00,   -3.391456e+01
    3421,    4.840739e+01,    0.000000e+00,   -3.759062e+01
    3422,    4.838850e+01,    0.000000e+00,   -4.128003e+01
    3423,    4.834919e+01,    0.000000e+00,   -4.499456e+01
    3424,    4.828208e+01,    0.000000e+00,   -4.874709e+01
    3425,    1.625265e+01,    0.000000e+00,   -4.812202e+01
    3426,    1.640593e+01,    0.000000e+00,   -4.415157e+01
    3427,    1.662078e+01,    0.000000e+00,   -4.017706e+01
    3428,    1.690748e+01,    0.000000e+00,   -3.618641e+01
    3429,    1.725210e+01,    0.000000e+00,   -3.217840e+01
    3430,    1.760374e+01,    0.000000e+00,   -2.814945e+01
    3431,    1.789723e+01,    0.000000e+00,   -2.410255e+01
    3432,    1.818908e+01,    0.000000e+00,   -2.005677e+01
    3433,    1.856015e+01,    0.000000e+00,   -1.603581e+01
    3434,    4.431720e+01,    0.000000e+00,   -4.871883e+01
    3435,    4.033710e+01,    0.000000e+00,   -4.868367e+01
    3436,    3.635078e+01,    0.000000e+00,   -4.862680e+01
    3437,    3.235936e+01,    0.000000e+00,   -4.853396e+01
    3438,    2.836067e+01,    0.000000e+00,   -4.841286e+01
    3439,    2.434916e+01,    0.000000e+00,   -4.829497e+01
    3440,    2.031381e+01,    0.000000e+00,   -4.819759e+01
    3441,    2.286852e+01,    0.000000e+00,   -1.606813e+01
    3442,    2.715096e+01,    0.000000e+00,   -1.604769e+01
    3443,    3.140840e+01,    0.000000e+00,   -1.596079e+01
    3444,    3.563197e+01,    0.000000e+00,   -1.579948e+01
    3445,    3.980752e+01,    0.000000e+00,   -1.563425e+01
    3446,    4.392493e+01,    0.000000e+00,   -1.548223e+01
    3447,    4.393326e+01,    0.000000e+00,   -1.927930e+01
    3448,    4.400930e+01,    0.000000e+00,   -2.302442e+01
    3449,    4.418589e+01,    0.000000e+00,   -2.671416e+01
    3450,    4.442014e+01,    0.000000e+00,   -3.034757e+01
    3451,    4.453467e+01,    0.000000e+00,   -3.396794e+01
    3452,    4.454807e+01,    0.000000e+00,   -3.759902e+01
    3453,    4.450007e+01,    0.000000e+00,   -4.126330e+01
    3454,    4.441109e+01,    0.000000e+00,   -4.497460e+01
    3455,    2.049530e+01,    0.000000e+00,   -4.424929e+01
    3456,    2.075407e+01,    0.000000e+00,   -4.028981e+01
    3457,    2.110654e+01,    0.000000e+00,   -3.631012e+01
    3458,    2.155582e+01,    0.000000e+00,   -3.230376e+01
    3459,    2.202153e+01,    0.000000e+00,   -2.825885e+01
    3460,    2.232694e+01,    0.000000e+00,   -2.418016e+01
    3461,    2.258733e+01,    0.000000e+00,   -2.010815e+01
    3462,    4.047222e+01,    0.000000e+00,   -4.493595e+01
    3463,    3.652095e+01,    0.000000e+00,   -4.486428e+01
    3464,    3.255620e+01,    0.000000e+00,   -4.473305e+01
    3465,    2.857576e+01,    0.000000e+00,   -4.454904e+01
    3466,    2.455979e+01,    0.000000e+00,   -4.438297e+01
    3467,    2.696586e+01,    0.000000e+00,   -2.011087e+01
    3468,    3.131864e+01,    0.000000e+00,   -2.001176e+01
    3469,    3.560614e+01,    0.000000e+00,   -1.974297e+01
    3470,    3.980763e+01,    0.000000e+00,   -1.947877e+01
    3471,    3.989978e+01,    0.000000e+00,   -2.327629e+01
    3472,    4.020874e+01,    0.000000e+00,   -2.697554e+01
    3473,    4.059617e+01,    0.000000e+00,   -3.050914e+01
    3474,    4.073786e+01,    0.000000e+00,   -3.402976e+01
    3475,    4.071308e+01,    0.000000e+00,   -3.759895e+01
    3476,    4.060220e+01,    0.000000e+00,   -4.123991e+01
    3477,    2.484543e+01,    0.000000e+00,   -4.045652e+01
    3478,    2.525476e+01,    0.000000e+00,   -3.650591e+01
    3479,    2.583372e+01,    0.000000e+00,   -3.250992e+01
    3480,    2.649439e+01,    0.000000e+00,   -2.841491e+01
    3481,    2.677161e+01,    0.000000e+00,   -2.423521e+01
    3482,    3.671686e+01,    0.000000e+00,   -4.115982e+01
    3483,    3.281275e+01,    0.000000e+00,   -4.097617e+01
    3484,    2.887382e+01,    0.000000e+00,   -4.069087e+01
    3485,    3.130054e+01,    0.000000e+00,   -2.414745e+01
    3486,    3.575046e+01,    0.000000e+00,   -2.364090e+01
    3487,    3.613170e+01,    0.000000e+00,   -2.744289e+01
    3488,    3.694939e+01,    0.000000e+00,   -3.076005e+01
    3489,    3.702844e+01,    0.000000e+00,   -3.404152e+01
    3490,    3.689466e+01,    0.000000e+00,   -3.753500e+01
    3491,    2.930428e+01,    0.000000e+00,   -3.683310e+01
    3492,    2.999567e+01,    0.000000e+00,   -3.296473e+01
    3493,    3.155270e+01,    0.000000e+00,   -2.872469e+01
    3494,    3.313284e+01,    0.000000e+00,   -3.730790e+01
    3495,    3.399849e+01,    0.000000e+00,   -3.108961e+01
    3496,    3.353854e+01,    0.000000e+00,   -3.389647e+01
    5487,   -8.000000e+00,   -5.000000e+01,    0.000000e+00
    5488,   -5.333333e+00,   -5.000000e+01,    0.000000e+00
    5489,   -2.666667e+00,   -5.000000e+01,    0.000000e+00
    5490,   -6.928203e+00,   -5.000000e+01,   -4.000000e+00
    5491,   -4.000000e+00,   -5.000000e+01,   -6.928203e+00
    5492,   -5.026854e+00,   -5.000000e+01,   -2.413361e+00
    5493,   -2.829203e+00,   -5.000000e+01,   -3.243589e+00
    5494,   -8.000000e+00,    1.600000e+01,    0.000000e+00
    5495,   -4.000000e+00,    1.600000e+01,   -6.928203e+00
    5496,   -6.928203e+00,    1.600000e+01,   -4.000000e+00
    5497,   -8.000000e+00,    5.333333e+00,    1.143004e-15
    5498,   -8.000000e+00,    8.888889e+00,   -5.442875e-17
    5499,   -8.000000e+00,    1.244444e+01,   -2.721437e-16
    5500,   -4.000000e+00,    5.333333e+00,   -6.928203e+00
    5501,   -6.928203e+00,    5.333333e+00,   -4.000000e+00
    5502,   -4.000000e+00,    8.888889e+00,   -6.928203e+00
    5503,   -4.000000e+00,    1.244444e+01,   -6.928203e+00
    5504,   -6.928203e+00,    8.888889e+00,   -4.000000e+00
    5505,   -6.928203e+00,    1.244444e+01,   -4.000000e+00
    5506,   -8.000000e+00,    0.000000e+00,    0.000000e+00
    5507,   -4.000000e+00,    0.000000e+00,   -6.928203e+00
    5508,   -6.928203e+00,    0.000000e+00,   -4.000000e+00
    5509,   -2.666667e+00,    1.600000e+01,    0.000000e+00
    5510,   -5.333333e+00,    1.600000e+01,    0.000000e+00
    5511,   -8.000000e+00,   -3.846154e+00,   -8.054408e-16
    5512,   -8.000000e+00,   -7.692308e+00,   -5.699318e-16
    5513,   -8.000000e+00,   -1.153846e+01,   -3.344228e-16
    5514,   -8.000000e+00,   -1.538462e+01,   -9.891378e-17
    5515,   -8.000000e+00,   -1.923077e+01,    1.365952e-16
    5516,   -8.000000e+00,   -2.307692e+01,    3.721042e-16
    5517,   -8.000000e+00,   -2.692308e+01,    6.076132e-16
    5518,   -8.000000e+00,   -3.076923e+01,    8.431222e-16
    5519,   -8.000000e+00,   -3.461538e+01,    1.078631e-15
    5520,   -8.000000e+00,   -3.846154e+01,    1.314140e-15
    5521,   -8.000000e+00,   -4.230769e+01,    1.549649e-15
    5522,   -8.000000e+00,   -4.615385e+01,    1.785158e-15
    5523,   -2.666667e+00,   -4.612971e+01,    0.000000e+00
    5524,   -2.666667e+00,   -4.225943e+01,    0.000000e+00
    5525,   -2.666667e+00,   -3.838914e+01,    0.000000e+00
    5526,   -2.666667e+00,   -3.451885e+01,    0.000000e+00
    5527,   -2.666667e+00,   -3.064857e+01,    0.000000e+00
    5528,   -2.666667e+00,   -2.677828e+01,    0.000000e+00
    5529,   -2.666667e+00,   -2.290799e+01,    0.000000e+00
    5530,   -2.666667e+00,   -1.903771e+01,    0.000000e+00
    5531,   -2.666667e+00,   -1.516742e+01,    0.000000e+00
    5532,   -2.666667e+00,   -1.129713e+01,    0.000000e+00
    5533,   -2.666667e+00,   -7.426848e+00,    0.000000e+00
    5534,   -2.666667e+00,   -3.556561e+00,    0.000000e+00
    5535,   -2.666667e+00,    3.137255e-01,    0.000000e+00
    5536,   -2.666667e+00,    4.679739e+00,    0.000000e+00
    5537,   -2.666667e+00,    8.453159e+00,    0.000000e+00
    5538,   -2.666667e+00,    1.222658e+01,    0.000000e+00
    5539,   -5.333333e+00,   -4.614178e+01,    0.000000e+00
    5540,   -5.333333e+00,   -4.228356e+01,    0.000000e+00
    5541,   -5.333333e+00,   -3.842534e+01,    0.000000e+00
    5542,   -5.333333e+00,   -3.456712e+01,    0.000000e+00
    5543,   -5.333333e+00,   -3.070890e+01,    0.000000e+00
    5544,   -5.333333e+00,   -2.685068e+01,    0.000000e+00
    5545,   -5.333333e+00,   -2.299246e+01,    0.000000e+00
    5546,   -5.333333e+00,   -1.913424e+01,    0.000000e+00
    5547,   -5.333333e+00,   -1.527602e+01,    0.000000e+00
    5548,   -5.333333e+00,   -1.141780e+01,    0.000000e+00
    5549,   -5.333333e+00,   -7.559578e+00,    0.000000e+00
    5550,   -5.333333e+00,   -3.701357e+00,    0.000000e+00
    5551,   -5.333333e+00,    1.568627e-01,    0.000000e+00
    5552,   -5.333333e+00,    5.006536e+00,    0.000000e+00
    5553,   -5.333333e+00,    8.671024e+00,    0.000000e+00
    5554,   -5.333333e+00,    1.233551e+01,    0.000000e+00
    5555,   -6.928203e+00,   -3.846154e+00,   -4.000000e+00
    5556,   -4.000000e+00,   -3.846154e+00,   -6.928203e+00
    5557,   -6.928203e+00,   -7.692308e+00,   -4.000000e+00
    5558,   -4.000000e+00,   -7.692308e+00,   -6.928203e+00
    5559,   -6.928203e+00,   -1.153846e+01,   -4.000000e+00
    5560,   -4.000000e+00,   -1.153846e+01,   -6.928203e+00
    5561,   -6.928203e+00,   -1.538462e+01,   -4.000000e+00
    5562,   -4.000000e+00,   -1.538462e+01,   -6.928203e+00
    5563,   -6.928203e+00,   -1.923077e+01,   -4.000000e+00
    5564,   -4.000000e+00,   -1.923077e+01,   -6.928203e+00
    5565,   -6.928203e+00,   -2.307692e+01,   -4.000000e+00
    5566,   -4.000000e+00,   -2.307692e+01,   -6.928203e+00
    5567,   -6.928203e+00,   -2.692308e+01,   -4.000000e+00
    5568,   -4.000000e+00,   -2.692308e+01,   -6.928203e+00
    5569,   -6.928203e+00,   -3.076923e+01,   -4.000000e+00
    5570,   -4.000000e+00,   -3.076923e+01,   -6.928203e+00
    5571,   -6.928203e+00,   -3.461538e+01,   -4.000000e+00
    5572,   -4.000000e+00,   -3.461538e+01,   -6.928203e+00
    5573,   -6.928203e+00,   -3.846154e+01,   -4.000000e+00
    5574,   -4.000000e+00,   -3.846154e+01,   -6.928203e+00
    5575,   -6.928203e+00,   -4.230769e+01,   -4.000000e+00
    5576,   -4.000000e+00,   -4.230769e+01,   -6.928203e+00
    5577,   -6.928203e+00,   -4.615385e+01,   -4.000000e+00
    5578,   -4.000000e+00,   -4.615385e+01,   -6.928203e+00
    5579,   -2.829203e+00,   -4.614196e+01,   -3.243589e+00
    5580,   -5.026854e+00,   -4.614668e+01,   -2.413361e+00
    5581,   -2.829203e+00,   -4.228393e+01,   -3.243589e+00
    5582,   -5.026854e+00,   -4.229337e+01,   -2.413361e+00
    5583,   -2.829203e+00,   -3.842589e+01,   -3.243589e+00
    5584,   -5.026854e+00,   -3.844005e+01,   -2.413361e+00
    5585,   -2.829203e+00,   -3.456786e+01,   -3.243589e+00
    5586,   -5.026854e+00,   -3.458673e+01,   -2.413361e+00
    5587,   -2.829203e+00,   -3.070982e+01,   -3.243589e+00
    5588,   -5.026854e+00,   -3.073342e+01,   -2.413361e+00
    5589,   -2.829203e+00,   -2.685178e+01,   -3.243589e+00
    5590,   -5.026854e+00,   -2.688010e+01,   -2.413361e+00
    5591,   -2.829203e+00,   -2.299375e+01,   -3.243589e+00
    5592,   -5.026854e+00,   -2.302678e+01,   -2.413361e+00
    5593,   -2.829203e+00,   -1.913571e+01,   -3.243589e+00
    5594,   -5.026854e+00,   -1.917347e+01,   -2.413361e+00
    5595,   -2.829203e+00,   -1.527768e+01,   -3.243589e+00
    5596,   -5.026854e+00,   -1.532015e+01,   -2.413361e+00
    5597,   -2.829203e+00,   -1.141964e+01,   -3.243589e+00
    5598,   -5.026854e+00,   -1.146683e+01,   -2.413361e+00
    5599,   -2.829203e+00,   -7.561603e+00,   -3.243589e+00
    5600,   -5.026854e+00,   -7.613518e+00,   -2.413361e+00
    5601,   -2.829203e+00,   -3.703567e+00,   -3.243589e+00
    5602,   -5.026854e+00,   -3.760201e+00,   -2.413361e+00
    5603,   -2.829203e+00,    1.621253e-01,   -3.243589e+00
    5604,   -5.026854e+00,    9.989524e-02,   -2.413361e+00
    5605,   -2.829203e+00,    4.995572e+00,   -3.243589e+00
    5606,   -5.026854e+00,    5.125218e+00,   -2.413361e+00
    5607,   -2.829203e+00,    8.663715e+00,   -3.243589e+00
    5608,   -5.026854e+00,    8.750145e+00,   -2.413361e+00
    5609,   -2.829203e+00,    1.233717e+01,   -3.243589e+00
    5610,   -5.026854e+00,    1.237978e+01,   -2.413361e+00
    5611,   -2.829203e+00,    1.600000e+01,   -3.243589e+00
    5612,   -5.026854e+00,    1.600000e+01,   -2.413361e+00
    5613,   -6.400000e+01,    5.333333e+00,   -6.400000e+01
    5614,   -6.000000e+01,    5.333333e+00,   -6.400000e+01
    5615,   -5.600000e+01,    5.333333e+00,   -6.400000e+01
    5616,   -5.200000e+01,    5.333333e+00,   -6.400000e+01
    5617,   -4.800000e+01,    5.333333e+00,   -6.400000e+01
    5618,   -4.400000e+01,    5.333333e+00,   -6.400000e+01
    5619,   -4.000000e+01,    5.333333e+00,   -6.400000e+01
    5620,   -3.600000e+01,    5.333333e+00,   -6.400000e+01
    5621,   -3.200000e+01,    5.333333e+00,   -6.400000e+01
    5622,   -2.800000e+01,    5.333333e+00,   -6.400000e+01
    5623,   -2.400000e+01,    5.333333e+00,   -6.400000e+01
    5624,   -2.000000e+01,    5.333333e+00,   -6.400000e+01
    5625,   -1.600000e+01,    5.333333e+00,   -6.400000e+01
    5626,   -1.200000e+01,    5.333333e+00,   -6.400000e+01
    5627,   -8.000000e+00,    5.333333e+00,   -6.400000e+01
    5628,   -4.000000e+00,    5.333333e+00,   -6.400000e+01
    5629,   -6.400000e+01,    5.333333e+00,    0.000000e+00
    5630,   -6.400000e+01,    5.333333e+00,   -3.764706e+00
    5631,   -6.400000e+01,    5.333333e+00,   -7.529412e+00
    5632,   -6.400000e+01,    5.333333e+00,   -1.129412e+01
    5633,   -6.400000e+01,    5.333333e+00,   -1.505882e+01
    5634,   -6.400000e+01,    5.333333e+00,   -1.882353e+01
    5635,   -6.400000e+01,    5.333333e+00,   -2.258824e+01
    5636,   -6.400000e+01,    5.333333e+00,   -2.635294e+01
    5637,   -6.400000e+01,    5.333333e+00,   -3.011765e+01
    5638,   -6.400000e+01,    5.333333e+00,   -3.388235e+01
    5639,   -6.400000e+01,    5.333333e+00,   -3.764706e+01
    5640,   -6.400000e+01,    5.333333e+00,   -4.141176e+01
    5641,   -6.400000e+01,    5.333333e+00,   -4.517647e+01
    5642,   -6.400000e+01,    5.333333e+00,   -4.894118e+01
    5643,   -6.400000e+01,    5.333333e+00,   -5.270588e+01
    5644,   -6.400000e+01,    5.333333e+00,   -5.647059e+01
    5645,   -6.400000e+01,    5.333333e+00,   -6.023529e+01
    5646,   -1.200000e+01,    5.333333e+00,    0.000000e+00
    5647,   -1.600000e+01,    5.333333e+00,    0.000000e+00
    5648,   -2.000000e+01,    5.333333e+00,    0.000000e+00
    5649,   -2.400000e+01,    5.333333e+00,    0.000000e+00
    5650,   -2.800000e+01,    5.333333e+00,    0.000000e+00
    5651,   -3.200000e+01,    5.333333e+00,    0.000000e+00
    5652,   -3.600000e+01,    5.333333e+00,    0.000000e+00
    5653,   -4.000000e+01,    5.333333e+00,    0.000000e+00
    5654,   -4.400000e+01,    5.333333e+00,    0.000000e+00
    5655,   -4.800000e+01,    5.333333e+00,    0.000000e+00
    5656,   -5.200000e+01,    5.333333e+00,    0.000000e+00
    5657,   -5.600000e+01,    5.333333e+00,    0.000000e+00
    5658,   -6.000000e+01,    5.333333e+00,    0.000000e+00
    5659,   -6.004450e+01,    5.333333e+00,   -6.020553e+01
    5660,   -6.006815e+01,    5.333333e+00,   -5.642340e+01
    5661,   -6.008754e+01,    5.333333e+00,   -5.265448e+01
    5662,   -6.010842e+01,    5.333333e+00,   -4.889050e+01
    5663,   -6.012619e+01,    5.333333e+00,   -4.512964e+01
    5664,   -6.015026e+01,    5.333333e+00,   -4.137737e+01
    5665,   -6.015733e+01,    5.333333e+00,   -3.762822e+01
    5666,   -6.017194e+01,    5.333333e+00,   -3.388362e+01
    5667,   -6.016783e+01,    5.333333e+00,   -3.014297e+01
    5668,   -6.015480e+01,    5.333333e+00,   -2.639758e+01
    5669,   -6.013826e+01,    5.333333e+00,   -2.264856e+01
    5670,   -6.012219e+01,    5.333333e+00,   -1.889530e+01
    5671,   -6.011310e+01,    5.333333e+00,   -1.513779e+01
    5672,   -6.009829e+01,    5.333333e+00,   -1.137036e+01
    5673,   -6.007952e+01,    5.333333e+00,   -7.594722e+00
    5674,   -6.004102e+01,    5.333333e+00,   -3.801737e+00
    5675,   -5.181160e+00,    5.333333e+00,   -1.066320e+01
    5676,   -4.396518e+00,    5.333333e+00,   -1.540453e+01
    5677,   -4.188320e+00,    5.333333e+00,   -1.957733e+01
    5678,   -4.126120e+00,    5.333333e+00,   -2.364870e+01
    5679,   -4.115800e+00,    5.333333e+00,   -2.770471e+01
    5680,   -4.123113e+00,    5.333333e+00,   -3.174847e+01
    5681,   -4.123831e+00,    5.333333e+00,   -3.579079e+01
    5682,   -4.112666e+00,    5.333333e+00,   -3.982944e+01
    5683,   -4.088603e+00,    5.333333e+00,   -4.386483e+01
    5684,   -4.063652e+00,    5.333333e+00,   -4.789640e+01
    5685,   -4.039547e+00,    5.333333e+00,   -5.192639e+01
    5686,   -4.021931e+00,    5.333333e+00,   -5.595381e+01
    5687,   -4.009483e+00,    5.333333e+00,   -5.997829e+01
    5688,   -5.607354e+01,    5.333333e+00,   -3.827061e+00
    5689,   -5.209155e+01,    5.333333e+00,   -3.847202e+00
    5690,   -4.809531e+01,    5.333333e+00,   -3.874664e+00
    5691,   -4.409635e+01,    5.333333e+00,   -3.913494e+00
    5692,   -4.009418e+01,    5.333333e+00,   -3.971292e+00
    5693,   -3.608638e+01,    5.333333e+00,   -4.051405e+00
    5694,   -3.206513e+01,    5.333333e+00,   -4.156780e+00
    5695,   -2.802246e+01,    5.333333e+00,   -4.266520e+00
    5696,   -2.394117e+01,    5.333333e+00,   -4.397421e+00
    5697,   -1.977936e+01,    5.333333e+00,   -4.589580e+00
    5698,   -1.551855e+01,    5.333333e+00,   -5.022280e+00
    5699,   -1.048338e+01,    5.333333e+00,   -6.047545e+00
    5700,   -8.017862e+00,    5.333333e+00,   -5.995816e+01
    5701,   -1.202702e+01,    5.333333e+00,   -5.994046e+01
    5702,   -1.603765e+01,    5.333333e+00,   -5.992551e+01
    5703,   -2.005617e+01,    5.333333e+00,   -5.992426e+01
    5704,   -2.407114e+01,    5.333333e+00,   -5.993504e+01
    5705,   -2.808739e+01,    5.333333e+00,   -5.996632e+01
    5706,   -3.209944e+01,    5.333333e+00,   -6.001246e+01
    5707,   -3.610917e+01,    5.333333e+00,   -6.005959e+01
    5708,   -4.011448e+01,    5.333333e+00,   -6.009752e+01
    5709,   -4.411830e+01,    5.333333e+00,   -6.012436e+01
    5710,   -4.812006e+01,    5.333333e+00,   -6.013839e+01
    5711,   -5.211095e+01,    5.333333e+00,   -6.015322e+01
    5712,   -5.607669e+01,    5.333333e+00,   -6.018041e+01
    5713,   -5.613444e+01,    5.333333e+00,   -5.637906e+01
    5714,   -5.617755e+01,    5.333333e+00,   -5.259974e+01
    5715,   -5.621710e+01,    5.333333e+00,   -4.883529e+01
    5716,   -5.626165e+01,    5.333333e+00,   -4.508368e+01
    5717,   -5.629922e+01,    5.333333e+00,   -4.134607e+01
    5718,   -5.633572e+01,    5.333333e+00,   -3.761834e+01
    5719,   -5.635568e+01,    5.333333e+00,   -3.389973e+01
    5720,   -5.634747e+01,    5.333333e+00,   -3.017919e+01
    5721,   -5.631641e+01,    5.333333e+00,   -2.645546e+01
    5722,   -5.628223e+01,    5.333333e+00,   -2.272354e+01
    5723,   -5.624963e+01,    5.333333e+00,   -1.898311e+01
    5724,   -5.622410e+01,    5.333333e+00,   -1.522601e+01
    5725,   -5.618666e+01,    5.333333e+00,   -1.144687e+01
    5726,   -5.613394e+01,    5.333333e+00,   -7.640012e+00
    5727,   -8.044087e+00,    5.333333e+00,   -5.591023e+01
    5728,   -1.206938e+01,    5.333333e+00,   -5.586990e+01
    5729,   -1.610040e+01,    5.333333e+00,   -5.584096e+01
    5730,   -2.013519e+01,    5.333333e+00,   -5.583006e+01
    5731,   -2.417184e+01,    5.333333e+00,   -5.585447e+01
    5732,   -2.820346e+01,    5.333333e+00,   -5.591860e+01
    5733,   -3.222779e+01,    5.333333e+00,   -5.601957e+01
    5734,   -3.624236e+01,    5.333333e+00,   -5.612282e+01
    5735,   -4.024982e+01,    5.333333e+00,   -5.620258e+01
    5736,   -4.425161e+01,    5.333333e+00,   -5.625513e+01
    5737,   -4.823789e+01,    5.333333e+00,   -5.629205e+01
    5738,   -5.218996e+01,    5.333333e+00,   -5.633814e+01
    5739,   -5.217123e+01,    5.333333e+00,   -7.691497e+00
    5740,   -4.819075e+01,    5.333333e+00,   -7.750098e+00
    5741,   -4.420137e+01,    5.333333e+00,   -7.828434e+00
    5742,   -4.020054e+01,    5.333333e+00,   -7.941831e+00
    5743,   -3.618944e+01,    5.333333e+00,   -8.108358e+00
    5744,   -3.216027e+01,    5.333333e+00,   -8.297896e+00
    5745,   -2.811375e+01,    5.333333e+00,   -8.513622e+00
    5746,   -2.403827e+01,    5.333333e+00,   -8.756792e+00
    5747,   -1.993288e+01,    5.333333e+00,   -9.069484e+00
    5748,   -1.578934e+01,    5.333333e+00,   -9.715301e+00
    5749,   -1.170668e+01,    5.333333e+00,   -1.074393e+01
    5750,   -8.423687e+00,    5.333333e+00,   -1.221792e+01
    5751,   -8.316469e+00,    5.333333e+00,   -1.541730e+01
    5752,   -8.236029e+00,    5.333333e+00,   -1.926114e+01
    5753,   -8.219369e+00,    5.333333e+00,   -2.331056e+01
    5754,   -8.239699e+00,    5.333333e+00,   -2.739323e+01
    5755,   -8.265579e+00,    5.333333e+00,   -3.148147e+01
    5756,   -8.273084e+00,    5.333333e+00,   -3.556770e+01
    5757,   -8.240382e+00,    5.333333e+00,   -3.964843e+01
    5758,   -8.192245e+00,    5.333333e+00,   -4.372225e+01
    5759,   -8.136224e+00,    5.333333e+00,   -4.778985e+01
    5760,   -8.085436e+00,    5.333333e+00,   -5.185396e+01
    5761,   -5.224626e+01,    5.333333e+00,   -1.152373e+01
    5762,   -4.829314e+01,    5.333333e+00,   -1.161397e+01
    5763,   -4.431485e+01,    5.333333e+00,   -1.173139e+01
    5764,   -4.032016e+01,    5.333333e+00,   -1.190685e+01
    5765,   -3.631246e+01,    5.333333e+00,   -1.213484e+01
    5766,   -3.229299e+01,    5.333333e+00,   -1.242196e+01
    5767,   -2.825289e+01,    5.333333e+00,   -1.273552e+01
    5768,   -2.419574e+01,    5.333333e+00,   -1.306983e+01
    5769,   -2.012986e+01,    5.333333e+00,   -1.345063e+01
    5770,   -1.608424e+01,    5.333333e+00,   -1.395758e+01
    5771,   -1.209490e+01,    5.333333e+00,   -1.474574e+01
    5772,   -5.226386e+01,    5.333333e+00,   -5.254251e+01
    5773,   -5.233284e+01,    5.333333e+00,   -4.877400e+01
    5774,   -5.239996e+01,    5.333333e+00,   -4.503494e+01
    5775,   -5.247159e+01,    5.333333e+00,   -4.131900e+01
    5776,   -5.253777e+01,    5.333333e+00,   -3.762081e+01
    5777,   -5.256561e+01,    5.333333e+00,   -3.392927e+01
    5778,   -5.254329e+01,    5.333333e+00,   -3.023924e+01
    5779,   -5.249241e+01,    5.333333e+00,   -2.653969e+01
    5780,   -5.243179e+01,    5.333333e+00,   -2.282548e+01
    5781,   -5.237635e+01,    5.333333e+00,   -1.909500e+01
    5782,   -5.231523e+01,    5.333333e+00,   -1.532593e+01
    5783,   -1.213515e+01,    5.333333e+00,   -5.178574e+01
    5784,   -1.619423e+01,    5.333333e+00,   -5.173182e+01
    5785,   -2.025492e+01,    5.333333e+00,   -5.171444e+01
    5786,   -2.431728e+01,    5.333333e+00,   -5.174212e+01
    5787,   -2.836758e+01,    5.333333e+00,   -5.185167e+01
    5788,   -3.240028e+01,    5.333333e+00,   -5.203046e+01
    5789,   -3.641463e+01,    5.333333e+00,   -5.220267e+01
    5790,   -4.041592e+01,    5.333333e+00,   -5.233079e+01
    5791,   -4.439742e+01,    5.333333e+00,   -5.241406e+01
    5792,   -4.833856e+01,    5.333333e+00,   -5.248438e+01
    5793,   -1.222426e+01,    5.333333e+00,   -1.877690e+01
    5794,   -1.229914e+01,    5.333333e+00,   -2.290522e+01
    5795,   -1.237120e+01,    5.333333e+00,   -2.704759e+01
    5796,   -1.243258e+01,    5.333333e+00,   -3.119038e+01
    5797,   -1.244354e+01,    5.333333e+00,   -3.533185e+01
    5798,   -1.239760e+01,    5.333333e+00,   -3.946204e+01
    5799,   -1.231059e+01,    5.333333e+00,   -4.358086e+01
    5800,   -1.222223e+01,    5.333333e+00,   -4.768857e+01
    5801,   -4.844346e+01,    5.333333e+00,   -4.870951e+01
    5802,   -4.855193e+01,    5.333333e+00,   -4.498157e+01
    5803,   -4.866539e+01,    5.333333e+00,   -4.129024e+01
    5804,   -4.876571e+01,    5.333333e+00,   -3.762678e+01
    5805,   -4.881000e+01,    5.333333e+00,   -3.397807e+01
    5806,   -4.876527e+01,    5.333333e+00,   -3.033051e+01
    5807,   -4.867532e+01,    5.333333e+00,   -2.666728e+01
    5808,   -4.858184e+01,    5.333333e+00,   -2.297479e+01
    5809,   -4.849139e+01,    5.333333e+00,   -1.924188e+01
    5810,   -4.838663e+01,    5.333333e+00,   -1.544562e+01
    5811,   -4.443792e+01,    5.333333e+00,   -1.560928e+01
    5812,   -4.046543e+01,    5.333333e+00,   -1.583216e+01
    5813,   -3.647077e+01,    5.333333e+00,   -1.613602e+01
    5814,   -3.246027e+01,    5.333333e+00,   -1.651560e+01
    5815,   -2.842895e+01,    5.333333e+00,   -1.693650e+01
    5816,   -2.437473e+01,    5.333333e+00,   -1.734377e+01
    5817,   -2.030809e+01,    5.333333e+00,   -1.775921e+01
    5818,   -1.625143e+01,    5.333333e+00,   -1.824387e+01
    5819,   -1.638743e+01,    5.333333e+00,   -2.246847e+01
    5820,   -1.651673e+01,    5.333333e+00,   -2.667835e+01
    5821,   -1.662485e+01,    5.333333e+00,   -3.088863e+01
    5822,   -1.666739e+01,    5.333333e+00,   -3.509104e+01
    5823,   -1.658355e+01,    5.333333e+00,   -3.928382e+01
    5824,   -1.645313e+01,    5.333333e+00,   -4.345410e+01
    5825,   -1.631575e+01,    5.333333e+00,   -4.760832e+01
    5826,   -2.041976e+01,    5.333333e+00,   -4.756100e+01
    5827,   -2.451811e+01,    5.333333e+00,   -4.759407e+01
    5828,   -2.859828e+01,    5.333333e+00,   -4.775635e+01
    5829,   -3.263441e+01,    5.333333e+00,   -4.805211e+01
    5830,   -3.664043e+01,    5.333333e+00,   -4.831909e+01
    5831,   -4.061560e+01,    5.333333e+00,   -4.850419e+01
    5832,   -4.454133e+01,    5.333333e+00,   -4.863162e+01
    5833,   -4.470072e+01,    5.333333e+00,   -4.490204e+01
    5834,   -4.487276e+01,    5.333333e+00,   -4.123089e+01
    5835,   -4.503076e+01,    5.333333e+00,   -3.761664e+01
    5836,   -4.510962e+01,    5.333333e+00,   -3.404532e+01
    5837,   -4.501614e+01,    5.333333e+00,   -3.047770e+01
    5838,   -4.487282e+01,    5.333333e+00,   -2.686807e+01
    5839,   -4.472264e+01,    5.333333e+00,   -2.319222e+01
    5840,   -4.457364e+01,    5.333333e+00,   -1.943422e+01
    5841,   -4.063455e+01,    5.333333e+00,   -1.970445e+01
    5842,   -3.667198e+01,    5.333333e+00,   -2.008092e+01
    5843,   -3.267982e+01,    5.333333e+00,   -2.057254e+01
    5844,   -2.865664e+01,    5.333333e+00,   -2.112353e+01
    5845,   -2.458646e+01,    5.333333e+00,   -2.159899e+01
    5846,   -2.048949e+01,    5.333333e+00,   -2.203322e+01
    5847,   -2.067813e+01,    5.333333e+00,   -2.630010e+01
    5848,   -2.086901e+01,    5.333333e+00,   -3.057085e+01
    5849,   -2.096505e+01,    5.333333e+00,   -3.485740e+01
    5850,   -2.081979e+01,    5.333333e+00,   -3.913545e+01
    5851,   -2.061252e+01,    5.333333e+00,   -4.337641e+01
    5852,   -2.478770e+01,    5.333333e+00,   -4.338748e+01
    5853,   -2.892802e+01,    5.333333e+00,   -4.360926e+01
    5854,   -3.296132e+01,    5.333333e+00,   -4.410147e+01
    5855,   -3.693084e+01,    5.333333e+00,   -4.450223e+01
    5856,   -4.083398e+01,    5.333333e+00,   -4.475463e+01
    5857,   -4.108382e+01,    5.333333e+00,   -4.109714e+01
    5858,   -4.135014e+01,    5.333333e+00,   -3.755602e+01
    5859,   -4.150514e+01,    5.333333e+00,   -3.413102e+01
    5860,   -4.131276e+01,    5.333333e+00,   -3.071564e+01
    5861,   -4.107056e+01,    5.333333e+00,   -2.717580e+01
    5862,   -4.083681e+01,    5.333333e+00,   -2.349670e+01
    5863,   -3.692934e+01,    5.333333e+00,   -2.394005e+01
    5864,   -3.298198e+01,    5.333333e+00,   -2.457932e+01
    5865,   -2.897656e+01,    5.333333e+00,   -2.532721e+01
    5866,   -2.485101e+01,    5.333333e+00,   -2.586385e+01
    5867,   -2.516973e+01,    5.333333e+00,   -3.020464e+01
    5868,   -2.538900e+01,    5.333333e+00,   -3.463844e+01
    5869,   -2.509557e+01,    5.333333e+00,   -3.908993e+01
    5870,   -2.941451e+01,    5.333333e+00,   -3.936981e+01
    5871,   -3.349574e+01,    5.333333e+00,   -4.026963e+01
    5872,   -3.728914e+01,    5.333333e+00,   -4.081105e+01
    5873,   -3.775459e+01,    5.333333e+00,   -3.734669e+01
    5874,   -3.810609e+01,    5.333333e+00,   -3.421833e+01
    5875,   -3.772930e+01,    5.333333e+00,   -3.112135e+01
    5876,   -3.725660e+01,    5.333333e+00,   -2.766857e+01
    5877,   -3.350341e+01,    5.333333e+00,   -2.840590e+01
    5878,   -2.946424e+01,    5.333333e+00,   -2.957500e+01
    5879,   -3.054960e+01,    5.333333e+00,   -3.443427e+01
    5880,   -3.428202e+01,    5.333333e+00,   -3.674692e+01
    5881,   -3.554451e+01,    5.333333e+00,   -3.429482e+01
    5882,   -3.429427e+01,    5.333333e+00,   -3.191604e+01
    5883,   -6.400000e+01,    1.600000e+01,    0.000000e+00
    5884,   -1.200000e+01,    1.600000e+01,    0.000000e+00
    5885,   -1.600000e+01,    1.600000e+01,    0.000000e+00
    5886,   -2.000000e+01,    1.600000e+01,    0.000000e+00
    5887,   -2.400000e+01,    1.600000e+01,    0.000000e+00
    5888,   -2.800000e+01,    1.600000e+01,    0.000000e+00
    5889,   -3.200000e+01,    1.600000e+01,    0.000000e+00
    5890,   -3.600000e+01,    1.600000e+01,    0.000000e+00
    5891,   -4.000000e+01,    1.600000e+01,    0.000000e+00
    5892,   -4.400000e+01,    1.600000e+01,    0.000000e+00
    5893,   -4.800000e+01,    1.600000e+01,    0.000000e+00
    5894,   -5.200000e+01,    1.600000e+01,    0.000000e+00
    5895,   -5.600000e+01,    1.600000e+01,    0.000000e+00
    5896,   -6.000000e+01,    1.600000e+01,    0.000000e+00
    5897,   -6.400000e+01,    1.244444e+01,    0.000000e+00
    5898,   -6.400000e+01,    8.888889e+00,    0.000000e+00
    5899,   -6.000000e+01,    8.888889e+00,    0.000000e+00
    5900,   -5.600000e+01,    8.888889e+00,    0.000000e+00
    5901,   -5.200000e+01,    8.888889e+00,    0.000000e+00
    5902,   -4.800000e+01,    8.888889e+00,    0.000000e+00
    5903,   -4.400000e+01,    8.888889e+00,    0.000000e+00
    5904,   -4.000000e+01,    8.888889e+00,    0.000000e+00
    5905,   -3.600000e+01,    8.888889e+00,    0.000000e+00
    5906,   -3.200000e+01,    8.888889e+00,    0.000000e+00
    5907,   -2.800000e+01,    8.888889e+00,    0.000000e+00
    5908,   -2.400000e+01,    8.888889e+00,    0.000000e+00
    5909,   -2.000000e+01,    8.888889e+00,    0.000000e+00
    5910,   -1.600000e+01,    8.888889e+00,    0.000000e+00
    5911,   -1.200000e+01,    8.888889e+00,    0.000000e+00
    5912,   -6.000000e+01,    1.244444e+01,    0.000000e+00
    5913,   -5.600000e+01,    1.244444e+01,    0.000000e+00
    5914,   -5.200000e+01,    1.244444e+01,    0.000000e+00
    5915,   -4.800000e+01,    1.244444e+01,    0.000000e+00
    5916,   -4.400000e+01,    1.244444e+01,    0.000000e+00
    5917,   -4.000000e+01,    1.244444e+01,    0.000000e+00
    5918,   -3.600000e+01,    1.244444e+01,    0.000000e+00
    5919,   -3.200000e+01,    1.244444e+01,    0.000000e+00
    5920,   -2.800000e+01,    1.244444e+01,    0.000000e+00
    5921,   -2.400000e+01,    1.244444e+01,    0.000000e+00
    5922,   -2.000000e+01,    1.244444e+01,    0.000000e+00
    5923,   -1.600000e+01,    1.244444e+01,    0.000000e+00
    5924,   -1.200000e+01,    1.244444e+01,    0.000000e+00
    5925,   -6.400000e+01,    1.600000e+01,   -6.400000e+01
    5926,   -6.400000e+01,    8.888889e+00,   -6.400000e+01
    5927,   -6.400000e+01,    1.244444e+01,   -6.400000e+01
    5928,   -6.000000e+01,    1.600000e+01,   -6.400000e+01
    5929,   -5.600000e+01,    1.600000e+01,   -6.400000e+01
    5930,   -5.200000e+01,    1.600000e+01,   -6.400000e+01
    5931,   -4.800000e+01,    1.600000e+01,   -6.400000e+01
    5932,   -4.400000e+01,    1.600000e+01,   -6.400000e+01
    5933,   -4.000000e+01,    1.600000e+01,   -6.400000e+01
    5934,   -3.600000e+01,    1.600000e+01,   -6.400000e+01
    5935,   -3.200000e+01,    1.600000e+01,   -6.400000e+01
    5936,   -2.800000e+01,    1.600000e+01,   -6.400000e+01
    5937,   -2.400000e+01,    1.600000e+01,   -6.400000e+01
    5938,   -2.000000e+01,    1.600000e+01,   -6.400000e+01
    5939,   -1.600000e+01,    1.600000e+01,   -6.400000e+01
    5940,   -1.200000e+01,    1.600000e+01,   -6.400000e+01
    5941,   -8.000000e+00,    1.600000e+01,   -6.400000e+01
    5942,   -4.000000e+00,    1.600000e+01,   -6.400000e+01
    5943,   -4.000000e+00,    1.244444e+01,   -6.400000e+01
    5944,   -4.000000e+00,    8.888889e+00,   -6.400000e+01
    5945,   -8.000000e+00,    1.244444e+01,   -6.400000e+01
    5946,   -8.000000e+00,    8.888889e+00,   -6.400000e+01
    5947,   -1.200000e+01,    1.244444e+01,   -6.400000e+01
    5948,   -1.200000e+01,    8.888889e+00,   -6.400000e+01
    5949,   -1.600000e+01,    1.244444e+01,   -6.400000e+01
    5950,   -1.600000e+01,    8.888889e+00,   -6.400000e+01
    5951,   -2.000000e+01,    1.244444e+01,   -6.400000e+01
    5952,   -2.000000e+01,    8.888889e+00,   -6.400000e+01
    5953,   -2.400000e+01,    1.244444e+01,   -6.400000e+01
    5954,   -2.400000e+01,    8.888889e+00,   -6.400000e+01
    5955,   -2.800000e+01,    1.244444e+01,   -6.400000e+01
    5956,   -2.800000e+01,    8.888889e+00,   -6.400000e+01
    5957,   -3.200000e+01,    1.244444e+01,   -6.400000e+01
    5958,   -3.200000e+01,    8.888889e+00,   -6.400000e+01
    5959,   -3.600000e+01,    1.244444e+01,   -6.400000e+01
    5960,   -3.600000e+01,    8.888889e+00,   -6.400000e+01
    5961,   -4.000000e+01,    1.244444e+01,   -6.400000e+01
    5962,   -4.000000e+01,    8.888889e+00,   -6.400000e+01
    5963,   -4.400000e+01,    1.244444e+01,   -6.400000e+01
    5964,   -4.400000e+01,    8.888889e+00,   -6.400000e+01
    5965,   -4.800000e+01,    1.244444e+01,   -6.400000e+01
    5966,   -4.800000e+01,    8.888889e+00,   -6.400000e+01
    5967,   -5.200000e+01,    1.244444e+01,   -6.400000e+01
    5968,   -5.200000e+01,    8.888889e+00,   -6.400000e+01
    5969,   -5.600000e+01,    1.244444e+01,   -6.400000e+01
    5970,   -5.600000e+01,    8.888889e+00,   -6.400000e+01
    5971,   -6.000000e+01,    1.244444e+01,   -6.400000e+01
    5972,   -6.000000e+01,    8.888889e+00,   -6.400000e+01
    5973,   -6.400000e+01,    1.600000e+01,   -3.764706e+00
    5974,   -6.400000e+01,    1.600000e+01,   -7.529412e+00
    5975,   -6.400000e+01,    1.600000e+01,   -1.129412e+01
    5976,   -6.400000e+01,    1.600000e+01,   -1.505882e+01
    5977,   -6.400000e+01,    1.600000e+01,   -1.882353e+01
    5978,   -6.400000e+01,    1.600000e+01,   -2.258824e+01
    5979,   -6.400000e+01,    1.600000e+01,   -2.635294e+01
    5980,   -6.400000e+01,    1.600000e+01,   -3.011765e+01
    5981,   -6.400000e+01,    1.600000e+01,   -3.388235e+01
    5982,   -6.400000e+01,    1.600000e+01,   -3.764706e+01
    5983,   -6.400000e+01,    1.600000e+01,   -4.141176e+01
    5984,   -6.400000e+01,    1.600000e+01,   -4.517647e+01
    5985,   -6.400000e+01,    1.600000e+01,   -4.894118e+01
    5986,   -6.400000e+01,    1.600000e+01,   -5.270588e+01
    5987,   -6.400000e+01,    1.600000e+01,   -5.647059e+01
    5988,   -6.400000e+01,    1.600000e+01,   -6.023529e+01
    5989,   -6.400000e+01,    8.888889e+00,   -3.764706e+00
    5990,   -6.400000e+01,    1.244444e+01,   -3.764706e+00
    5991,   -6.400000e+01,    8.888889e+00,   -7.529412e+00
    5992,   -6.400000e+01,    1.244444e+01,   -7.529412e+00
    5993,   -6.400000e+01,    8.888889e+00,   -1.129412e+01
    5994,   -6.400000e+01,    1.244444e+01,   -1.129412e+01
    5995,   -6.400000e+01,    8.888889e+00,   -1.505882e+01
    5996,   -6.400000e+01,    1.244444e+01,   -1.505882e+01
    5997,   -6.400000e+01,    8.888889e+00,   -1.882353e+01
    5998,   -6.400000e+01,    1.244444e+01,   -1.882353e+01
    5999,   -6.400000e+01,    8.888889e+00,   -2.258824e+01
    6000,   -6.400000e+01,    1.244444e+01,   -2.258824e+01
    6001,   -6.400000e+01,    8.888889e+00,   -2.635294e+01
    6002,   -6.400000e+01,    1.244444e+01,   -2.635294e+01
    6003,   -6.400000e+01,    8.888889e+00,   -3.011765e+01
    6004,   -6.400000e+01,    1.244444e+01,   -3.011765e+01
    6005,   -6.400000e+01,    8.888889e+00,   -3.388235e+01
    6006,   -6.400000e+01,    1.244444e+01,   -3.388235e+01
    6007,   -6.400000e+01,    8.888889e+00,   -3.764706e+01
    6008,   -6.400000e+01,    1.244444e+01,   -3.764706e+01
    6009,   -6.400000e+01,    8.888889e+00,   -4.141176e+01
    6010,   -6.400000e+01,    1.244444e+01,   -4.141176e+01
    6011,   -6.400000e+01,    8.888889e+00,   -4.517647e+01
    6012,   -6.400000e+01,    1.244444e+01,   -4.517647e+01
    6013,   -6.400000e+01,    8.888889e+00,   -4.894118e+01
    6014,   -6.400000e+01,    1.244444e+01,   -4.894118e+01
    6015,   -6.400000e+01,    8.888889e+00,   -5.270588e+01
    6016,   -6.400000e+01,    1.244444e+01,   -5.270588e+01
    6017,   -6.400000e+01,    8.888889e+00,   -5.647059e+01
    6018,   -6.400000e+01,    1.244444e+01,   -5.647059e+01
    6019,   -6.400000e+01,    8.888889e+00,   -6.023529e+01
    6020,   -6.400000e+01,    1.244444e+01,   -6.023529e+01
    6021,   -6.004450e+01,    8.888889e+00,   -6.020553e+01
    6022,   -6.006815e+01,    8.888889e+00,   -5.642340e+01
    6023,   -6.008754e+01,    8.888889e+00,   -5.265448e+01
    6024,   -6.010842e+01,    8.888889e+00,   -4.889050e+01
    6025,   -6.012619e+01,    8.888889e+00,   -4.512964e+01
    6026,   -6.015026e+01,    8.888889e+00,   -4.137737e+01
    6027,   -6.015733e+01,    8.888889e+00,   -3.762822e+01
    6028,   -6.017194e+01,    8.888889e+00,   -3.388362e+01
    6029,   -6.016783e+01,    8.888889e+00,   -3.014297e+01
    6030,   -6.015480e+01,    8.888889e+00,   -2.639758e+01
    6031,   -6.013826e+01,    8.888889e+00,   -2.264856e+01
    6032,   -6.012219e+01,    8.888889e+00,   -1.889530e+01
    6033,   -6.011310e+01,    8.888889e+00,   -1.513779e+01
    6034,   -6.009829e+01,    8.888889e+00,   -1.137036e+01
    6035,   -6.007952e+01,    8.888889e+00,   -7.594722e+00
    6036,   -6.004102e+01,    8.888889e+00,   -3.801737e+00
    6037,   -5.181160e+00,    8.888889e+00,   -1.066320e+01
    6038,   -4.396518e+00,    8.888889e+00,   -1.540453e+01
    6039,   -4.188320e+00,    8.888889e+00,   -1.957733e+01
    6040,   -4.126120e+00,    8.888889e+00,   -2.364870e+01
    6041,   -4.115800e+00,    8.888889e+00,   -2.770471e+01
    6042,   -4.123113e+00,    8.888889e+00,   -3.174847e+01
    6043,   -4.123831e+00,    8.888889e+00,   -3.579079e+01
    6044,   -4.112666e+00,    8.888889e+00,   -3.982944e+01
    6045,   -4.088603e+00,    8.888889e+00,   -4.386483e+01
    6046,   -4.063652e+00,    8.888889e+00,   -4.789640e+01
    6047,   -4.039547e+00,    8.888889e+00,   -5.192639e+01
    6048,   -4.021931e+00,    8.888889e+00,   -5.595381e+01
    6049,   -4.009483e+00,    8.888889e+00,   -5.997829e+01
    6050,   -5.607354e+01,    8.888889e+00,   -3.827061e+00
    6051,   -5.209155e+01,    8.888889e+00,   -3.847202e+00
    6052,   -4.809531e+01,    8.888889e+00,   -3.874664e+00
    6053,   -4.409635e+01,    8.888889e+00,   -3.913494e+00
    6054,   -4.009418e+01,    8.888889e+00,   -3.971292e+00
    6055,   -3.608638e+01,    8.888889e+00,   -4.051405e+00
    6056,   -3.206513e+01,    8.888889e+00,   -4.156780e+00
    6057,   -2.802246e+01,    8.888889e+00,   -4.266520e+00
    6058,   -2.394117e+01,    8.888889e+00,   -4.397421e+00
    6059,   -1.977936e+01,    8.888889e+00,   -4.589580e+00
    6060,   -1.551855e+01,    8.888889e+00,   -5.022280e+00
    6061,   -1.048338e+01,    8.888889e+00,   -6.047545e+00
    6062,   -8.017862e+00,    8.888889e+00,   -5.995816e+01
    6063,   -1.202702e+01,    8.888889e+00,   -5.994046e+01
    6064,   -1.603765e+01,    8.888889e+00,   -5.992551e+01
    6065,   -2.005617e+01,    8.888889e+00,   -5.992426e+01
    6066,   -2.407114e+01,    8.888889e+00,   -5.993504e+01
    6067,   -2.808739e+01,    8.888889e+00,   -5.996632e+01
    6068,   -3.209944e+01,    8.888889e+00,   -6.001246e+01
    6069,   -3.610917e+01,    8.888889e+00,   -6.005959e+01
    6070,   -4.011448e+01,    8.888889e+00,   -6.009752e+01
    6071,   -4.411830e+01,    8.888889e+00,   -6.012436e+01
    6072,   -4.812006e+01,    8.888889e+00,   -6.013839e+01
    6073,   -5.211095e+01,    8.888889e+00,   -6.015322e+01
    6074,   -5.607669e+01,    8.888889e+00,   -6.018041e+01
    6075,   -5.613444e+01,    8.888889e+00,   -5.637906e+01
    6076,   -5.617755e+01,    8.888889e+00,   -5.259974e+01
    6077,   -5.621710e+01,    8.888889e+00,   -4.883529e+01
    6078,   -5.626165e+01,    8.888889e+00,   -4.508368e+01
    6079,   -5.629922e+01,    8.888889e+00,   -4.134607e+01
    6080,   -5.633572e+01,    8.888889e+00,   -3.761834e+01
    6081,   -5.635568e+01,    8.888889e+00,   -3.389973e+01
    6082,   -5.634747e+01,    8.888889e+00,   -3.017919e+01
    6083,   -5.631641e+01,    8.888889e+00,   -2.645546e+01
    6084,   -5.628223e+01,    8.888889e+00,   -2.272354e+01
    6085,   -5.624963e+01,    8.888889e+00,   -1.898311e+01
    6086,   -5.622410e+01,    8.888889e+00,   -1.522601e+01
    6087,   -5.618666e+01,    8.888889e+00,   -1.144687e+01
    6088,   -5.613394e+01,    8.888889e+00,   -7.640012e+00
    6089,   -8.044087e+00,    8.888889e+00,   -5.591023e+01
    6090,   -1.206938e+01,    8.888889e+00,   -5.586990e+01
    6091,   -1.610040e+01,    8.888889e+00,   -5.584096e+01
    6092,   -2.013519e+01,    8.888889e+00,   -5.583006e+01
    6093,   -2.417184e+01,    8.888889e+00,   -5.585447e+01
    6094,   -2.820346e+01,    8.888889e+00,   -5.591860e+01
    6095,   -3.222779e+01,    8.888889e+00,   -5.601957e+01
    6096,   -3.624236e+01,    8.888889e+00,   -5.612282e+01
    6097,   -4.024982e+01,    8.888889e+00,   -5.620258e+01
    6098,   -4.425161e+01,    8.888889e+00,   -5.625513e+01
    6099,   -4.823789e+01,    8.888889e+00,   -5.629205e+01
    6100,   -5.218996e+01,    8.888889e+00,   -5.633814e+01
    6101,   -5.217123e+01,    8.888889e+00,   -7.691497e+00
    6102,   -4.819075e+01,    8.888889e+00,   -7.750098e+00
    6103,   -4.420137e+01,    8.888889e+00,   -7.828434e+00
    6104,   -4.020054e+01,    8.888889e+00,   -7.941831e+00
    6105,   -3.618944e+01,    8.888889e+00,   -8.108358e+00
    6106,   -3.216027e+01,    8.888889e+00,   -8.297896e+00
    6107,   -2.811375e+01,    8.888889e+00,   -8.513622e+00
    6108,   -2.403827e+01,    8.888889e+00,   -8.756792e+00
    6109,   -1.993288e+01,    8.888889e+00,   -9.069484e+00
    6110,   -1.578934e+01,    8.888889e+00,   -9.715301e+00
    6111,   -1.170668e+01,    8.888889e+00,   -1.074393e+01
    6112,   -8.423687e+00,    8.888889e+00,   -1.221792e+01
    6113,   -8.316469e+00,    8.888889e+00,   -1.541730e+01
    6114,   -8.236029e+00,    8.888889e+00,   -1.926114e+01
    6115,   -8.219369e+00,    8.888889e+00,   -2.331056e+01
    6116,   -8.239699e+00,    8.888889e+00,   -2.739323e+01
    6117,   -8.265579e+00,    8.888889e+00,   -3.148147e+01
    6118,   -8.273084e+00,    8.888889e+00,   -3.556770e+01
    6119,   -8.240382e+00,    8.888889e+00,   -3.964843e+01
    6120,   -8.192245e+00,    8.888889e+00,   -4.372225e+01
    6121,   -8.136224e+00,    8.888889e+00,   -4.778985e+01
    6122,   -8.085436e+00,    8.888889e+00,   -5.185396e+01
    6123,   -5.224626e+01,    8.888889e+00,   -1.152373e+01
    6124,   -4.829314e+01,    8.888889e+00,   -1.161397e+01
    6125,   -4.431485e+01,    8.888889e+00,   -1.173139e+01
    6126,   -4.032016e+01,    8.888889e+00,   -1.190685e+01
    6127,   -3.631246e+01,    8.888889e+00,   -1.213484e+01
    6128,   -3.229299e+01,    8.888889e+00,   -1.242196e+01
    6129,   -2.825289e+01,    8.888889e+00,   -1.273552e+01
    6130,   -2.419574e+01,    8.888889e+00,   -1.306983e+01
    6131,   -2.012986e+01,    8.888889e+00,   -1.345063e+01
    6132,   -1.608424e+01,    8.888889e+00,   -1.395758e+01
    6133,   -1.209490e+01,    8.888889e+00,   -1.474574e+01
    6134,   -5.226386e+01,    8.888889e+00,   -5.254251e+01
    6135,   -5.233284e+01,    8.888889e+00,   -4.877400e+01
    6136,   -5.239996e+01,    8.888889e+00,   -4.503494e+01
    6137,   -5.247159e+01,    8.888889e+00,   -4.131900e+01
    6138,   -5.253777e+01,    8.888889e+00,   -3.762081e+01
    6139,   -5.256561e+01,    8.888889e+00,   -3.392927e+01
    6140,   -5.254329e+01,    8.888889e+00,   -3.023924e+01
    6141,   -5.249241e+01,    8.888889e+00,   -2.653969e+01
    6142,   -5.243179e+01,    8.888889e+00,   -2.282548e+01
    6143,   -5.237635e+01,    8.888889e+00,   -1.909500e+01
    6144,   -5.231523e+01,    8.888889e+00,   -1.532593e+01
    6145,   -1.213515e+01,    8.888889e+00,   -5.178574e+01
    6146,   -1.619423e+01,    8.888889e+00,   -5.173182e+01
    6147,   -2.025492e+01,    8.888889e+00,   -5.171444e+01
    6148,   -2.431728e+01,    8.888889e+00,   -5.174212e+01
    6149,   -2.836758e+01,    8.888889e+00,   -5.185167e+01
    6150,   -3.240028e+01,    8.888889e+00,   -5.203046e+01
    6151,   -3.641463e+01,    8.888889e+00,   -5.220267e+01
    6152,   -4.041592e+01,    8.888889e+00,   -5.233079e+01
    6153,   -4.439742e+01,    8.888889e+00,   -5.241406e+01
    6154,   -4.833856e+01,    8.888889e+00,   -5.248438e+01
    6155,   -1.222426e+01,    8.888889e+00,   -1.877690e+01
    6156,   -1.229914e+01,    8.888889e+00,   -2.290522e+01
    6157,   -1.237120e+01,    8.888889e+00,   -2.704759e+01
    6158,   -1.243258e+01,    8.888889e+00,   -3.119038e+01
    6159,   -1.244354e+01,    8.888889e+00,   -3.533185e+01
    6160,   -1.239760e+01,    8.888889e+00,   -3.946204e+01
    6161,   -1.231059e+01,    8.888889e+00,   -4.358086e+01
    6162,   -1.222223e+01,    8.888889e+00,   -4.768857e+01
    6163,   -4.844346e+01,    8.888889e+00,   -4.870951e+01
    6164,   -4.855193e+01,    8.888889e+00,   -4.498157e+01
    6165,   -4.866539e+01,    8.888889e+00,   -4.129024e+01
    6166,   -4.876571e+01,    8.888889e+00,   -3.762678e+01
    6167,   -4.881000e+01,    8.888889e+00,   -3.397807e+01
    6168,   -4.876527e+01,    8.888889e+00,   -3.033051e+01
    6169,   -4.867532e+01,    8.888889e+00,   -2.666728e+01
    6170,   -4.858184e+01,    8.888889e+00,   -2.297479e+01
    6171,   -4.849139e+01,    8.888889e+00,   -1.924188e+01
    6172,   -4.838663e+01,    8.888889e+00,   -1.544562e+01
    6173,   -4.443792e+01,    8.888889e+00,   -1.560928e+01
    6174,   -4.046543e+01,    8.888889e+00,   -1.583216e+01
    6175,   -3.647077e+01,    8.888889e+00,   -1.613602e+01
    6176,   -3.246027e+01,    8.888889e+00,   -1.651560e+01
    6177,   -2.842895e+01,    8.888889e+00,   -1.693650e+01
    6178,   -2.437473e+01,    8.888889e+00,   -1.734377e+01
    6179,   -2.030809e+01,    8.888889e+00,   -1.775921e+01
    6180,   -1.625143e+01,    8.888889e+00,   -1.824387e+01
    6181,   -1.638743e+01,    8.888889e+00,   -2.246847e+01
    6182,   -1.651673e+01,    8.888889e+00,   -2.667835e+01
    6183,   -1.662485e+01,    8.888889e+00,   -3.088863e+01
    6184,   -1.666739e+01,    8.888889e+00,   -3.509104e+01
    6185,   -1.658355e+01,    8.888889e+00,   -3.928382e+01
    6186,   -1.645313e+01,    8.888889e+00,   -4.345410e+01
    6187,   -1.631575e+01,    8.888889e+00,   -4.760832e+01
    6188,   -2.041976e+01,    8.888889e+00,   -4.756100e+01
    6189,   -2.451811e+01,    8.888889e+00,   -4.759407e+01
    6190,   -2.859828e+01,    8.888889e+00,   -4.775635e+01
    6191,   -3.263441e+01,    8.888889e+00,   -4.805211e+01
    6192,   -3.664043e+01,    8.888889e+00,   -4.831909e+01
    6193,   -4.061560e+01,    8.888889e+00,   -4.850419e+01
    6194,   -4.454133e+01,    8.888889e+00,   -4.863162e+01
    6195,   -4.470072e+01,    8.888889e+00,   -4.490204e+01
    6196,   -4.487276e+01,    8.888889e+00,   -4.123089e+01
    6197,   -4.503076e+01,    8.888889e+00,   -3.761664e+01
    6198,   -4.510962e+01,    8.888889e+00,   -3.404532e+01
    6199,   -4.501614e+01,    8.888889e+00,   -3.047770e+01
    6200,   -4.487282e+01,    8.888889e+00,   -2.686807e+01
    6201,   -4.472264e+01,    8.888889e+00,   -2.319222e+01
    6202,   -4.457364e+01,    8.888889e+00,   -1.943422e+01
    6203,   -4.063455e+01,    8.888889e+00,   -1.970445e+01
    6204,   -3.667198e+01,    8.888889e+00,   -2.008092e+01
    6205,   -3.267982e+01,    8.888889e+00,   -2.057254e+01
    6206,   -2.865664e+01,    8.888889e+00,   -2.112353e+01
    6207,   -2.458646e+01,    8.888889e+00,   -2.159899e+01
    6208,   -2.048949e+01,    8.888889e+00,   -2.203322e+01
    6209,   -2.067813e+01,    8.888889e+00,   -2.630010e+01
    6210,   -2.086901e+01,    8.888889e+00,   -3.057085e+01
    6211,   -2.096505e+01,    8.888889e+00,   -3.485740e+01
    6212,   -2.081979e+01,    8.888889e+00,   -3.913545e+01
    6213,   -2.061252e+01,    8.888889e+00,   -4.337641e+01
    6214,   -2.478770e+01,    8.888889e+00,   -4.338748e+01
    6215,   -2.892802e+01,    8.888889e+00,   -4.360926e+01
    6216,   -3.296132e+01,    8.888889e+00,   -4.410147e+01
    6217,   -3.693084e+01,    8.888889e+00,   -4.450223e+01
    6218,   -4.083398e+01,    8.888889e+00,   -4.475463e+01
    6219,   -4.108382e+01,    8.888889e+00,   -4.109714e+01
    6220,   -4.135014e+01,    8.888889e+00,   -3.755602e+01
    6221,   -4.150514e+01,    8.888889e+00,   -3.413102e+01
    6222,   -4.131276e+01,    8.888889e+00,   -3.071564e+01
    6223,   -4.107056e+01,    8.888889e+00,   -2.717580e+01
    6224,   -4.083681e+01,    8.888889e+00,   -2.349670e+01
    6225,   -3.692934e+01,    8.888889e+00,   -2.394005e+01
    6226,   -3.298198e+01,    8.888889e+00,   -2.457932e+01
    6227,   -2.897656e+01,    8.888889e+00,   -2.532721e+01
    6228,   -2.485101e+01,    8.888889e+00,   -2.586385e+01
    6229,   -2.516973e+01,    8.888889e+00,   -3.020464e+01
    6230,   -2.538900e+01,    8.888889e+00,   -3.463844e+01
    6231,   -2.509557e+01,    8.888889e+00,   -3.908993e+01
    6232,   -2.941451e+01,    8.888889e+00,   -3.936981e+01
    6233,   -3.349574e+01,    8.888889e+00,   -4.026963e+01
    6234,   -3.728914e+01,    8.888889e+00,   -4.081105e+01
    6235,   -3.775459e+01,    8.888889e+00,   -3.734669e+01
    6236,   -3.810609e+01,    8.888889e+00,   -3.421833e+01
    6237,   -3.772930e+01,    8.888889e+00,   -3.112135e+01
    6238,   -3.725660e+01,    8.888889e+00,   -2.766857e+01
    6239,   -3.350341e+01,    8.888889e+00,   -2.840590e+01
    6240,   -2.946424e+01,    8.888889e+00,   -2.957500e+01
    6241,   -3.054960e+01,    8.888889e+00,   -3.443427e+01
    6242,   -3.428202e+01,    8.888889e+00,   -3.674692e+01
    6243,   -3.554451e+01,    8.888889e+00,   -3.429482e+01
    6244,   -3.429427e+01,    8.888889e+00,   -3.191604e+01
    6245,   -6.004450e+01,    1.244444e+01,   -6.020553e+01
    6246,   -6.006815e+01,    1.244444e+01,   -5.642340e+01
    6247,   -6.008754e+01,    1.244444e+01,   -5.265448e+01
    6248,   -6.010842e+01,    1.244444e+01,   -4.889050e+01
    6249,   -6.012619e+01,    1.244444e+01,   -4.512964e+01
    6250,   -6.015026e+01,    1.244444e+01,   -4.137737e+01
    6251,   -6.015733e+01,    1.244444e+01,   -3.762822e+01
    6252,   -6.017194e+01,    1.244444e+01,   -3.388362e+01
    6253,   -6.016783e+01,    1.244444e+01,   -3.014297e+01
    6254,   -6.015480e+01,    1.244444e+01,   -2.639758e+01
    6255,   -6.013826e+01,    1.244444e+01,   -2.264856e+01
    6256,   -6.012219e+01,    1.244444e+01,   -1.889530e+01
    6257,   -6.011310e+01,    1.244444e+01,   -1.513779e+01
    6258,   -6.009829e+01,    1.244444e+01,   -1.137036e+01
    6259,   -6.007952e+01,    1.244444e+01,   -7.594722e+00
    6260,   -6.004102e+01,    1.244444e+01,   -3.801737e+00
    6261,   -5.181160e+00,    1.244444e+01,   -1.066320e+01
    6262,   -4.396518e+00,    1.244444e+01,   -1.540453e+01
    6263,   -4.188320e+00,    1.244444e+01,   -1.957733e+01
    6264,   -4.126120e+00,    1.244444e+01,   -2.364870e+01
    6265,   -4.115800e+00,    1.244444e+01,   -2.770471e+01
    6266,   -4.123113e+00,    1.244444e+01,   -3.174847e+01
    6267,   -4.123831e+00,    1.244444e+01,   -3.579079e+01
    6268,   -4.112666e+00,    1.244444e+01,   -3.982944e+01
    6269,   -4.088603e+00,    1.244444e+01,   -4.386483e+01
    6270,   -4.063652e+00,    1.244444e+01,   -4.789640e+01
    6271,   -4.039547e+00,    1.244444e+01,   -5.192639e+01
    6272,   -4.021931e+00,    1.244444e+01,   -5.595381e+01
    6273,   -4.009483e+00,    1.244444e+01,   -5.997829e+01
    6274,   -5.607354e+01,    1.244444e+01,   -3.827061e+00
    6275,   -5.209155e+01,    1.244444e+01,   -3.847202e+00
    6276,   -4.809531e+01,    1.244444e+01,   -3.874664e+00
    6277,   -4.409635e+01,    1.244444e+01,   -3.913494e+00
    6278,   -4.009418e+01,    1.244444e+01,   -3.971292e+00
    6279,   -3.608638e+01,    1.244444e+01,   -4.051405e+00
    6280,   -3.206513e+01,    1.244444e+01,   -4.156780e+00
    6281,   -2.802246e+01,    1.244444e+01,   -4.266520e+00
    6282,   -2.394117e+01,    1.244444e+01,   -4.397421e+00
    6283,   -1.977936e+01,    1.244444e+01,   -4.589580e+00
    6284,   -1.551855e+01,    1.244444e+01,   -5.022280e+00
    6285,   -1.048338e+01,    1.244444e+01,   -6.047545e+00
    6286,   -8.017862e+00,    1.244444e+01,   -5.995816e+01
    6287,   -1.202702e+01,    1.244444e+01,   -5.994046e+01
    6288,   -1.603765e+01,    1.244444e+01,   -5.992551e+01
    6289,   -2.005617e+01,    1.244444e+01,   -5.992426e+01
    6290,   -2.407114e+01,    1.244444e+01,   -5.993504e+01
    6291,   -2.808739e+01,    1.244444e+01,   -5.996632e+01
    6292,   -3.209944e+01,    1.244444e+01,   -6.001246e+01
    6293,   -3.610917e+01,    1.244444e+01,   -6.005959e+01
    6294,   -4.011448e+01,    1.244444e+01,   -6.009752e+01
    6295,   -4.411830e+01,    1.244444e+01,   -6.012436e+01
    6296,   -4.812006e+01,    1.244444e+01,   -6.013839e+01
    6297,   -5.211095e+01,    1.244444e+01,   -6.015322e+01
    6298,   -5.607669e+01,    1.244444e+01,   -6.018041e+01
    6299,   -5.613444e+01,    1.244444e+01,   -5.637906e+01
    6300,   -5.617755e+01,    1.244444e+01,   -5.259974e+01
    6301,   -5.621710e+01,    1.244444e+01,   -4.883529e+01
    6302,   -5.626165e+01,    1.244444e+01,   -4.508368e+01
    6303,   -5.629922e+01,    1.244444e+01,   -4.134607e+01
    6304,   -5.633572e+01,    1.244444e+01,   -3.761834e+01
    6305,   -5.635568e+01,    1.244444e+01,   -3.389973e+01
    6306,   -5.634747e+01,    1.244444e+01,   -3.017919e+01
    6307,   -5.631641e+01,    1.244444e+01,   -2.645546e+01
    6308,   -5.628223e+01,    1.244444e+01,   -2.272354e+01
    6309,   -5.624963e+01,    1.244444e+01,   -1.898311e+01
    6310,   -5.622410e+01,    1.244444e+01,   -1.522601e+01
    6311,   -5.618666e+01,    1.244444e+01,   -1.144687e+01
    6312,   -5.613394e+01,    1.244444e+01,   -7.640012e+00
    6313,   -8.044087e+00,    1.244444e+01,   -5.591023e+01
    6314,   -1.206938e+01,    1.244444e+01,   -5.586990e+01
    6315,   -1.610040e+01,    1.244444e+01,   -5.584096e+01
    6316,   -2.013519e+01,    1.244444e+01,   -5.583006e+01
    6317,   -2.417184e+01,    1.244444e+01,   -5.585447e+01
    6318,   -2.820346e+01,    1.244444e+01,   -5.591860e+01
    6319,   -3.222779e+01,    1.244444e+01,   -5.601957e+01
    6320,   -3.624236e+01,    1.244444e+01,   -5.612282e+01
    6321,   -4.024982e+01,    1.244444e+01,   -5.620258e+01
    6322,   -4.425161e+01,    1.244444e+01,   -5.625513e+01
    6323,   -4.823789e+01,    1.244444e+01,   -5.629205e+01
    6324,   -5.218996e+01,    1.244444e+01,   -5.633814e+01
    6325,   -5.217123e+01,    1.244444e+01,   -7.691497e+00
    6326,   -4.819075e+01,    1.244444e+01,   -7.750098e+00
    6327,   -4.420137e+01,    1.244444e+01,   -7.828434e+00
    6328,   -4.020054e+01,    1.244444e+01,   -7.941831e+00
    6329,   -3.618944e+01,    1.244444e+01,   -8.108358e+00
    6330,   -3.216027e+01,    1.244444e+01,   -8.297896e+00
    6331,   -2.811375e+01,    1.244444e+01,   -8.513622e+00
    6332,   -2.403827e+01,    1.244444e+01,   -8.756792e+00
    6333,   -1.993288e+01,    1.244444e+01,   -9.069484e+00
    6334,   -1.578934e+01,    1.244444e+01,   -9.715301e+00
    6335,   -1.170668e+01,    1.244444e+01,   -1.074393e+01
    6336,   -8.423687e+00,    1.244444e+01,   -1.221792e+01
    6337,   -8.316469e+00,    1.244444e+01,   -1.541730e+01
    6338,   -8.236029e+00,    1.244444e+01,   -1.926114e+01
    6339,   -8.219369e+00,    1.244444e+01,   -2.331056e+01
    6340,   -8.239699e+00,    1.244444e+01,   -2.739323e+01
    6341,   -8.265579e+00,    1.244444e+01,   -3.148147e+01
    6342,   -8.273084e+00,    1.244444e+01,   -3.556770e+01
    6343,   -8.240382e+00,    1.244444e+01,   -3.964843e+01
    6344,   -8.192245e+00,    1.244444e+01,   -4.372225e+01
    6345,   -8.136224e+00,    1.244444e+01,   -4.778985e+01
    6346,   -8.085436e+00,    1.244444e+01,   -5.185396e+01
    6347,   -5.224626e+01,    1.244444e+01,   -1.152373e+01
    6348,   -4.829314e+01,    1.244444e+01,   -1.161397e+01
    6349,   -4.431485e+01,    1.244444e+01,   -1.173139e+01
    6350,   -4.032016e+01,    1.244444e+01,   -1.190685e+01
    6351,   -3.631246e+01,    1.244444e+01,   -1.213484e+01
    6352,   -3.229299e+01,    1.244444e+01,   -1.242196e+01
    6353,   -2.825289e+01,    1.244444e+01,   -1.273552e+01
    6354,   -2.419574e+01,    1.244444e+01,   -1.306983e+01
    6355,   -2.012986e+01,    1.244444e+01,   -1.345063e+01
    6356,   -1.608424e+01,    1.244444e+01,   -1.395758e+01
    6357,   -1.209490e+01,    1.244444e+01,   -1.474574e+01
    6358,   -5.226386e+01,    1.244444e+01,   -5.254251e+01
    6359,   -5.233284e+01,    1.244444e+01,   -4.877400e+01
    6360,   -5.239996e+01,    1.244444e+01,   -4.503494e+01
    6361,   -5.247159e+01,    1.244444e+01,   -4.131900e+01
    6362,   -5.253777e+01,    1.244444e+01,   -3.762081e+01
    6363,   -5.256561e+01,    1.244444e+01,   -3.392927e+01
    6364,   -5.254329e+01,    1.244444e+01,   -3.023924e+01
    6365,   -5.249241e+01,    1.244444e+01,   -2.653969e+01
    6366,   -5.243179e+01,    1.244444e+01,   -2.282548e+01
    6367,   -5.237635e+01,    1.244444e+01,   -1.909500e+01
    6368,   -5.231523e+01,    1.244444e+01,   -1.532593e+01
    6369,   -1.213515e+01,    1.244444e+01,   -5.178574e+01
    6370,   -1.619423e+01,    1.244444e+01,   -5.173182e+01
    6371,   -2.025492e+01,    1.244444e+01,   -5.171444e+01
    6372,   -2.431728e+01,    1.244444e+01,   -5.174212e+01
    6373,   -2.836758e+01,    1.244444e+01,   -5.185167e+01
    6374,   -3.240028e+01,    1.244444e+01,   -5.203046e+01
    6375,   -3.641463e+01,    1.244444e+01,   -5.220267e+01
    6376,   -4.041592e+01,    1.244444e+01,   -5.233079e+01
    6377,   -4.439742e+01,    1.244444e+01,   -5.241406e+01
    6378,   -4.833856e+01,    1.244444e+01,   -5.248438e+01
    6379,   -1.222426e+01,    1.244444e+01,   -1.877690e+01
    6380,   -1.229914e+01,    1.244444e+01,   -2.290522e+01
    6381,   -1.237120e+01,    1.244444e+01,   -2.704759e+01
    6382,   -1.243258e+01,    1.244444e+01,   -3.119038e+01
    6383,   -1.244354e+01,    1.244444e+01,   -3.533185e+01
    6384,   -1.239760e+01,    1.244444e+01,   -3.946204e+01
    6385,   -1.231059e+01,    1.244444e+01,   -4.358086e+01
    6386,   -1.222223e+01,    1.244444e+01,   -4.768857e+01
    6387,   -4.844346e+01,    1.244444e+01,   -4.870951e+01
    6388,   -4.855193e+01,    1.244444e+01,   -4.498157e+01
    6389,   -4.866539e+01,    1.244444e+01,   -4.129024e+01
    6390,   -4.876571e+01,    1.244444e+01,   -3.762678e+01
    6391,   -4.881000e+01,    1.244444e+01,   -3.397807e+01
    6392,   -4.876527e+01,    1.244444e+01,   -3.033051e+01
    6393,   -4.867532e+01,    1.244444e+01,   -2.666728e+01
    6394,   -4.858184e+01,    1.244444e+01,   -2.297479e+01
    6395,   -4.849139e+01,    1.244444e+01,   -1.924188e+01
    6396,   -4.838663e+01,    1.244444e+01,   -1.544562e+01
    6397,   -4.443792e+01,    1.244444e+01,   -1.560928e+01
    6398,   -4.046543e+01,    1.244444e+01,   -1.583216e+01
    6399,   -3.647077e+01,    1.244444e+01,   -1.613602e+01
    6400,   -3.246027e+01,    1.244444e+01,   -1.651560e+01
    6401,   -2.842895e+01,    1.244444e+01,   -1.693650e+01
    6402,   -2.437473e+01,    1.244444e+01,   -1.734377e+01
    6403,   -2.030809e+01,    1.244444e+01,   -1.775921e+01
    6404,   -1.625143e+01,    1.244444e+01,   -1.824387e+01
    6405,   -1.638743e+01,    1.244444e+01,   -2.246847e+01
    6406,   -1.651673e+01,    1.244444e+01,   -2.667835e+01
    6407,   -1.662485e+01,    1.244444e+01,   -3.088863e+01
    6408,   -1.666739e+01,    1.244444e+01,   -3.509104e+01
    6409,   -1.658355e+01,    1.244444e+01,   -3.928382e+01
    6410,   -1.645313e+01,    1.244444e+01,   -4.345410e+01
    6411,   -1.631575e+01,    1.244444e+01,   -4.760832e+01
    6412,   -2.041976e+01,    1.244444e+01,   -4.756100e+01
    6413,   -2.451811e+01,    1.244444e+01,   -4.759407e+01
    6414,   -2.859828e+01,    1.244444e+01,   -4.775635e+01
    6415,   -3.263441e+01,    1.244444e+01,   -4.805211e+01
    6416,   -3.664043e+01,    1.244444e+01,   -4.831909e+01
    6417,   -4.061560e+01,    1.244444e+01,   -4.850419e+01
    6418,   -4.454133e+01,    1.244444e+01,   -4.863162e+01
    6419,   -4.470072e+01,    1.244444e+01,   -4.490204e+01
    6420,   -4.487276e+01,    1.244444e+01,   -4.123089e+01
    6421,   -4.503076e+01,    1.244444e+01,   -3.761664e+01
    6422,   -4.510962e+01,    1.244444e+01,   -3.404532e+01
    6423,   -4.501614e+01,    1.244444e+01,   -3.047770e+01
    6424,   -4.487282e+01,    1.244444e+01,   -2.686807e+01
    6425,   -4.472264e+01,    1.244444e+01,   -2.319222e+01
    6426,   -4.457364e+01,    1.244444e+01,   -1.943422e+01
    6427,   -4.063455e+01,    1.244444e+01,   -1.970445e+01
    6428,   -3.667198e+01,    1.244444e+01,   -2.008092e+01
    6429,   -3.267982e+01,    1.244444e+01,   -2.057254e+01
    6430,   -2.865664e+01,    1.244444e+01,   -2.112353e+01
    6431,   -2.458646e+01,    1.244444e+01,   -2.159899e+01
    6432,   -2.048949e+01,    1.244444e+01,   -2.203322e+01
    6433,   -2.067813e+01,    1.244444e+01,   -2.630010e+01
    6434,   -2.086901e+01,    1.244444e+01,   -3.057085e+01
    6435,   -2.096505e+01,    1.244444e+01,   -3.485740e+01
    6436,   -2.081979e+01,    1.244444e+01,   -3.913545e+01
    6437,   -2.061252e+01,    1.244444e+01,   -4.337641e+01
    6438,   -2.478770e+01,    1.244444e+01,   -4.338748e+01
    6439,   -2.892802e+01,    1.244444e+01,   -4.360926e+01
    6440,   -3.296132e+01,    1.244444e+01,   -4.410147e+01
    6441,   -3.693084e+01,    1.244444e+01,   -4.450223e+01
    6442,   -4.083398e+01,    1.244444e+01,   -4.475463e+01
    6443,   -4.108382e+01,    1.244444e+01,   -4.109714e+01
    6444,   -4.135014e+01,    1.244444e+01,   -3.755602e+01
    6445,   -4.150514e+01,    1.244444e+01,   -3.413102e+01
    6446,   -4.131276e+01,    1.244444e+01,   -3.071564e+01
    6447,   -4.107056e+01,    1.244444e+01,   -2.717580e+01
    6448,   -4.083681e+01,    1.244444e+01,   -2.349670e+01
    6449,   -3.692934e+01,    1.244444e+01,   -2.394005e+01
    6450,   -3.298198e+01,    1.244444e+01,   -2.457932e+01
    6451,   -2.897656e+01,    1.244444e+01,   -2.532721e+01
    6452,   -2.485101e+01,    1.244444e+01,   -2.586385e+01
    6453,   -2.516973e+01,    1.244444e+01,   -3.020464e+01
    6454,   -2.538900e+01,    1.244444e+01,   -3.463844e+01
    6455,   -2.509557e+01,    1.244444e+01,   -3.908993e+01
    6456,   -2.941451e+01,    1.244444e+01,   -3.936981e+01
    6457,   -3.349574e+01,    1.244444e+01,   -4.026963e+01
    6458,   -3.728914e+01,    1.244444e+01,   -4.081105e+01
    6459,   -3.775459e+01,    1.244444e+01,   -3.734669e+01
    6460,   -3.810609e+01,    1.244444e+01,   -3.421833e+01
    6461,   -3.772930e+01,    1.244444e+01,   -3.112135e+01
    6462,   -3.725660e+01,    1.244444e+01,   -2.766857e+01
    6463,   -3.350341e+01,    1.244444e+01,   -2.840590e+01
    6464,   -2.946424e+01,    1.244444e+01,   -2.957500e+01
    6465,   -3.054960e+01,    1.244444e+01,   -3.443427e+01
    6466,   -3.428202e+01,    1.244444e+01,   -3.674692e+01
    6467,   -3.554451e+01,    1.244444e+01,   -3.429482e+01
    6468,   -3.429427e+01,    1.244444e+01,   -3.191604e+01
    6469,   -6.004450e+01,    1.600000e+01,   -6.020553e+01
    6470,   -6.006815e+01,    1.600000e+01,   -5.642340e+01
    6471,   -6.008754e+01,    1.600000e+01,   -5.265448e+01
    6472,   -6.010842e+01,    1.600000e+01,   -4.889050e+01
    6473,   -6.012619e+01,    1.600000e+01,   -4.512964e+01
    6474,   -6.015026e+01,    1.600000e+01,   -4.137737e+01
    6475,   -6.015733e+01,    1.600000e+01,   -3.762822e+01
    6476,   -6.017194e+01,    1.600000e+01,   -3.388362e+01
    6477,   -6.016783e+01,    1.600000e+01,   -3.014297e+01
    6478,   -6.015480e+01,    1.600000e+01,   -2.639758e+01
    6479,   -6.013826e+01,    1.600000e+01,   -2.264856e+01
    6480,   -6.012219e+01,    1.600000e+01,   -1.889530e+01
    6481,   -6.011310e+01,    1.600000e+01,   -1.513779e+01
    6482,   -6.009829e+01,    1.600000e+01,   -1.137036e+01
    6483,   -6.007952e+01,    1.600000e+01,   -7.594722e+00
    6484,   -6.004102e+01,    1.600000e+01,   -3.801737e+00
    6485,   -5.181160e+00,    1.600000e+01,   -1.066320e+01
    6486,   -4.396518e+00,    1.600000e+01,   -1.540453e+01
    6487,   -4.188320e+00,    1.600000e+01,   -1.957733e+01
    6488,   -4.126120e+00,    1.600000e+01,   -2.364870e+01
    6489,   -4.115800e+00,    1.600000e+01,   -2.770471e+01
    6490,   -4.123113e+00,    1.600000e+01,   -3.174847e+01
    6491,   -4.123831e+00,    1.600000e+01,   -3.579079e+01
    6492,   -4.112666e+00,    1.600000e+01,   -3.982944e+01
    6493,   -4.088603e+00,    1.600000e+01,   -4.386483e+01
    6494,   -4.063652e+00,    1.600000e+01,   -4.789640e+01
    6495,   -4.039547e+00,    1.600000e+01,   -5.192639e+01
    6496,   -4.021931e+00,    1.600000e+01,   -5.595381e+01
    6497,   -4.009483e+00,    1.600000e+01,   -5.997829e+01
    6498,   -5.607354e+01,    1.600000e+01,   -3.827061e+00
    6499,   -5.209155e+01,    1.600000e+01,   -3.847202e+00
    6500,   -4.809531e+01,    1.600000e+01,   -3.874664e+00
    6501,   -4.409635e+01,    1.600000e+01,   -3.913494e+00
    6502,   -4.009418e+01,    1.600000e+01,   -3.971292e+00
    6503,   -3.608638e+01,    1.600000e+01,   -4.051405e+00
    6504,   -3.206513e+01,    1.600000e+01,   -4.156780e+00
    6505,   -2.802246e+01,    1.600000e+01,   -4.266520e+00
    6506,   -2.394117e+01,    1.600000e+01,   -4.397421e+00
    6507,   -1.977936e+01,    1.600000e+01,   -4.589580e+00
    6508,   -1.551855e+01,    1.600000e+01,   -5.022280e+00
    6509,   -1.048338e+01,    1.600000e+01,   -6.047545e+00
    6510,   -8.017862e+00,    1.600000e+01,   -5.995816e+01
    6511,   -1.202702e+01,    1.600000e+01,   -5.994046e+01
    6512,   -1.603765e+01,    1.600000e+01,   -5.992551e+01
    6513,   -2.005617e+01,    1.600000e+01,   -5.992426e+01
    6514,   -2.407114e+01,    1.600000e+01,   -5.993504e+01
    6515,   -2.808739e+01,    1.600000e+01,   -5.996632e+01
    6516,   -3.209944e+01,    1.600000e+01,   -6.001246e+01
    6517,   -3.610917e+01,    1.600000e+01,   -6.005959e+01
    6518,   -4.011448e+01,    1.600000e+01,   -6.009752e+01
    6519,   -4.411830e+01,    1.600000e+01,   -6.012436e+01
    6520,   -4.812006e+01,    1.600000e+01,   -6.013839e+01
    6521,   -5.211095e+01,    1.600000e+01,   -6.015322e+01
    6522,   -5.607669e+01,    1.600000e+01,   -6.018041e+01
    6523,   -5.613444e+01,    1.600000e+01,   -5.637906e+01
    6524,   -5.617755e+01,    1.600000e+01,   -5.259974e+01
    6525,   -5.621710e+01,    1.600000e+01,   -4.883529e+01
    6526,   -5.626165e+01,    1.600000e+01,   -4.508368e+01
    6527,   -5.629922e+01,    1.600000e+01,   -4.134607e+01
    6528,   -5.633572e+01,    1.600000e+01,   -3.761834e+01
    6529,   -5.635568e+01,    1.600000e+01,   -3.389973e+01
    6530,   -5.634747e+01,    1.600000e+01,   -3.017919e+01
    6531,   -5.631641e+01,    1.600000e+01,   -2.645546e+01
    6532,   -5.628223e+01,    1.600000e+01,   -2.272354e+01
    6533,   -5.624963e+01,    1.600000e+01,   -1.898311e+01
    6534,   -5.622410e+01,    1.600000e+01,   -1.522601e+01
    6535,   -5.618666e+01,    1.600000e+01,   -1.144687e+01
    6536,   -5.613394e+01,    1.600000e+01,   -7.640012e+00
    6537,   -8.044087e+00,    1.600000e+01,   -5.591023e+01
    6538,   -1.206938e+01,    1.600000e+01,   -5.586990e+01
    6539,   -1.610040e+01,    1.600000e+01,   -5.584096e+01
    6540,   -2.013519e+01,    1.600000e+01,   -5.583006e+01
    6541,   -2.417184e+01,    1.600000e+01,   -5.585447e+01
    6542,   -2.820346e+01,    1.600000e+01,   -5.591860e+01
    6543,   -3.222779e+01,    1.600000e+01,   -5.601957e+01
    6544,   -3.624236e+01,    1.600000e+01,   -5.612282e+01
    6545,   -4.024982e+01,    1.600000e+01,   -5.620258e+01
    6546,   -4.425161e+01,    1.600000e+01,   -5.625513e+01
    6547,   -4.823789e+01,    1.600000e+01,   -5.629205e+01
    6548,   -5.218996e+01,    1.600000e+01,   -5.633814e+01
    6549,   -5.217123e+01,    1.600000e+01,   -7.691497e+00
    6550,   -4.819075e+01,    1.600000e+01,   -7.750098e+00
    6551,   -4.420137e+01,    1.600000e+01,   -7.828434e+00
    6552,   -4.020054e+01,    1.600000e+01,   -7.941831e+00
    6553,   -3.618944e+01,    1.600000e+01,   -8.108358e+00
    6554,   -3.216027e+01,    1.600000e+01,   -8.297896e+00
    6555,   -2.811375e+01,    1.600000e+01,   -8.513622e+00
    6556,   -2.403827e+01,    1.600000e+01,   -8.756792e+00
    6557,   -1.993288e+01,    1.600000e+01,   -9.069484e+00
    6558,   -1.578934e+01,    1.600000e+01,   -9.715301e+00
    6559,   -1.170668e+01,    1.600000e+01,   -1.074393e+01
    6560,   -8.423687e+00,    1.600000e+01,   -1.221792e+01
    6561,   -8.316469e+00,    1.600000e+01,   -1.541730e+01
    6562,   -8.236029e+00,    1.600000e+01,   -1.926114e+01
    6563,   -8.219369e+00,    1.600000e+01,   -2.331056e+01
    6564,   -8.239699e+00,    1.600000e+01,   -2.739323e+01
    6565,   -8.265579e+00,    1.600000e+01,   -3.148147e+01
    6566,   -8.273084e+00,    1.600000e+01,   -3.556770e+01
    6567,   -8.240382e+00,    1.600000e+01,   -3.964843e+01
    6568,   -8.192245e+00,    1.600000e+01,   -4.372225e+01
    6569,   -8.136224e+00,    1.600000e+01,   -4.778985e+01
    6570,   -8.085436e+00,    1.600000e+01,   -5.185396e+01
    6571,   -5.224626e+01,    1.600000e+01,   -1.152373e+01
    6572,   -4.829314e+01,    1.600000e+01,   -1.161397e+01
    6573,   -4.431485e+01,    1.600000e+01,   -1.173139e+01
    6574,   -4.032016e+01,    1.600000e+01,   -1.190685e+01
    6575,   -3.631246e+01,    1.600000e+01,   -1.213484e+01
    6576,   -3.229299e+01,    1.600000e+01,   -1.242196e+01
    6577,   -2.825289e+01,    1.600000e+01,   -1.273552e+01
    6578,   -2.419574e+01,    1.600000e+01,   -1.306983e+01
    6579,   -2.012986e+01,    1.600000e+01,   -1.345063e+01
    6580,   -1.608424e+01,    1.600000e+01,   -1.395758e+01
    6581,   -1.209490e+01,    1.600000e+01,   -1.474574e+01
    6582,   -5.226386e+01,    1.600000e+01,   -5.254251e+01
    6583,   -5.233284e+01,    1.600000e+01,   -4.877400e+01
    6584,   -5.239996e+01,    1.600000e+01,   -4.503494e+01
    6585,   -5.247159e+01,    1.600000e+01,   -4.131900e+01
    6586,   -5.253777e+01,    1.600000e+01,   -3.762081e+01
    6587,   -5.256561e+01,    1.600000e+01,   -3.392927e+01
    6588,   -5.254329e+01,    1.600000e+01,   -3.023924e+01
    6589,   -5.249241e+01,    1.600000e+01,   -2.653969e+01
    6590,   -5.243179e+01,    1.600000e+01,   -2.282548e+01
    6591,   -5.237635e+01,    1.600000e+01,   -1.909500e+01
    6592,   -5.231523e+01,    1.600000e+01,   -1.532593e+01
    6593,   -1.213515e+01,    1.600000e+01,   -5.178574e+01
    6594,   -1.619423e+01,    1.600000e+01,   -5.173182e+01
    6595,   -2.025492e+01,    1.600000e+01,   -5.171444e+01
    6596,   -2.431728e+01,    1.600000e+01,   -5.174212e+01
    6597,   -2.836758e+01,    1.600000e+01,   -5.185167e+01
    6598,   -3.240028e+01,    1.600000e+01,   -5.203046e+01
    6599,   -3.641463e+01,    1.600000e+01,   -5.220267e+01
    6600,   -4.041592e+01,    1.600000e+01,   -5.233079e+01
    6601,   -4.439742e+01,    1.600000e+01,   -5.241406e+01
    6602,   -4.833856e+01,    1.600000e+01,   -5.248438e+01
    6603,   -1.222426e+01,    1.600000e+01,   -1.877690e+01
    6604,   -1.229914e+01,    1.600000e+01,   -2.290522e+01
    6605,   -1.237120e+01,    1.600000e+01,   -2.704759e+01
    6606,   -1.243258e+01,    1.600000e+01,   -3.119038e+01
    6607,   -1.244354e+01,    1.600000e+01,   -3.533185e+01
    6608,   -1.239760e+01,    1.600000e+01,   -3.946204e+01
    6609,   -1.231059e+01,    1.600000e+01,   -4.358086e+01
    6610,   -1.222223e+01,    1.600000e+01,   -4.768857e+01
    6611,   -4.844346e+01,    1.600000e+01,   -4.870951e+01
    6612,   -4.855193e+01,    1.600000e+01,   -4.498157e+01
    6613,   -4.866539e+01,    1.600000e+01,   -4.129024e+01
    6614,   -4.876571e+01,    1.600000e+01,   -3.762678e+01
    6615,   -4.881000e+01,    1.600000e+01,   -3.397807e+01
    6616,   -4.876527e+01,    1.600000e+01,   -3.033051e+01
    6617,   -4.867532e+01,    1.600000e+01,   -2.666728e+01
    6618,   -4.858184e+01,    1.600000e+01,   -2.297479e+01
    6619,   -4.849139e+01,    1.600000e+01,   -1.924188e+01
    6620,   -4.838663e+01,    1.600000e+01,   -1.544562e+01
    6621,   -4.443792e+01,    1.600000e+01,   -1.560928e+01
    6622,   -4.046543e+01,    1.600000e+01,   -1.583216e+01
    6623,   -3.647077e+01,    1.600000e+01,   -1.613602e+01
    6624,   -3.246027e+01,    1.600000e+01,   -1.651560e+01
    6625,   -2.842895e+01,    1.600000e+01,   -1.693650e+01
    6626,   -2.437473e+01,    1.600000e+01,   -1.734377e+01
    6627,   -2.030809e+01,    1.600000e+01,   -1.775921e+01
    6628,   -1.625143e+01,    1.600000e+01,   -1.824387e+01
    6629,   -1.638743e+01,    1.600000e+01,   -2.246847e+01
    6630,   -1.651673e+01,    1.600000e+01,   -2.667835e+01
    6631,   -1.662485e+01,    1.600000e+01,   -3.088863e+01
    6632,   -1.666739e+01,    1.600000e+01,   -3.509104e+01
    6633,   -1.658355e+01,    1.600000e+01,   -3.928382e+01
    6634,   -1.645313e+01,    1.600000e+01,   -4.345410e+01
    6635,   -1.631575e+01,    1.600000e+01,   -4.760832e+01
    6636,   -2.041976e+01,    1.600000e+01,   -4.756100e+01
    6637,   -2.451811e+01,    1.600000e+01,   -4.759407e+01
    6638,   -2.859828e+01,    1.600000e+01,   -4.775635e+01
    6639,   -3.263441e+01,    1.600000e+01,   -4.805211e+01
    6640,   -3.664043e+01,    1.600000e+01,   -4.831909e+01
    6641,   -4.061560e+01,    1.600000e+01,   -4.850419e+01
    6642,   -4.454133e+01,    1.600000e+01,   -4.863162e+01
    6643,   -4.470072e+01,    1.600000e+01,   -4.490204e+01
    6644,   -4.487276e+01,    1.600000e+01,   -4.123089e+01
    6645,   -4.503076e+01,    1.600000e+01,   -3.761664e+01
    6646,   -4.510962e+01,    1.600000e+01,   -3.404532e+01
    6647,   -4.501614e+01,    1.600000e+01,   -3.047770e+01
    6648,   -4.487282e+01,    1.600000e+01,   -2.686807e+01
    6649,   -4.472264e+01,    1.600000e+01,   -2.319222e+01
    6650,   -4.457364e+01,    1.600000e+01,   -1.943422e+01
    6651,   -4.063455e+01,    1.600000e+01,   -1.970445e+01
    6652,   -3.667198e+01,    1.600000e+01,   -2.008092e+01
    6653,   -3.267982e+01,    1.600000e+01,   -2.057254e+01
    6654,   -2.865664e+01,    1.600000e+01,   -2.112353e+01
    6655,   -2.458646e+01,    1.600000e+01,   -2.159899e+01
    6656,   -2.048949e+01,    1.600000e+01,   -2.203322e+01
    6657,   -2.067813e+01,    1.600000e+01,   -2.630010e+01
    6658,   -2.086901e+01,    1.600000e+01,   -3.057085e+01
    6659,   -2.096505e+01,    1.600000e+01,   -3.485740e+01
    6660,   -2.081979e+01,    1.600000e+01,   -3.913545e+01
    6661,   -2.061252e+01,    1.600000e+01,   -4.337641e+01
    6662,   -2.478770e+01,    1.600000e+01,   -4.338748e+01
    6663,   -2.892802e+01,    1.600000e+01,   -4.360926e+01
    6664,   -3.296132e+01,    1.600000e+01,   -4.410147e+01
    6665,   -3.693084e+01,    1.600000e+01,   -4.450223e+01
    6666,   -4.083398e+01,    1.600000e+01,   -4.475463e+01
    6667,   -4.108382e+01,    1.600000e+01,   -4.109714e+01
    6668,   -4.135014e+01,    1.600000e+01,   -3.755602e+01
    6669,   -4.150514e+01,    1.600000e+01,   -3.413102e+01
    6670,   -4.131276e+01,    1.600000e+01,   -3.071564e+01
    6671,   -4.107056e+01,    1.600000e+01,   -2.717580e+01
    6672,   -4.083681e+01,    1.600000e+01,   -2.349670e+01
    6673,   -3.692934e+01,    1.600000e+01,   -2.394005e+01
    6674,   -3.298198e+01,    1.600000e+01,   -2.457932e+01
    6675,   -2.897656e+01,    1.600000e+01,   -2.532721e+01
    6676,   -2.485101e+01,    1.600000e+01,   -2.586385e+01
    6677,   -2.516973e+01,    1.600000e+01,   -3.020464e+01
    6678,   -2.538900e+01,    1.600000e+01,   -3.463844e+01
    6679,   -2.509557e+01,    1.600000e+01,   -3.908993e+01
    6680,   -2.941451e+01,    1.600000e+01,   -3.936981e+01
    6681,   -3.349574e+01,    1.600000e+01,   -4.026963e+01
    6682,   -3.728914e+01,    1.600000e+01,   -4.081105e+01
    6683,   -3.775459e+01,    1.600000e+01,   -3.734669e+01
    6684,   -3.810609e+01,    1.600000e+01,   -3.421833e+01
    6685,   -3.772930e+01,    1.600000e+01,   -3.112135e+01
    6686,   -3.725660e+01,    1.600000e+01,   -2.766857e+01
    6687,   -3.350341e+01,    1.600000e+01,   -2.840590e+01
    6688,   -2.946424e+01,    1.600000e+01,   -2.957500e+01
    6689,   -3.054960e+01,    1.600000e+01,   -3.443427e+01
    6690,   -3.428202e+01,    1.600000e+01,   -3.674692e+01
    6691,   -3.554451e+01,    1.600000e+01,   -3.429482e+01
    6692,   -3.429427e+01,    1.600000e+01,   -3.191604e+01
    6693,   -6.400000e+01,    0.000000e+00,    0.000000e+00
    6694,   -6.000000e+01,    0.000000e+00,    0.000000e+00
    6695,   -5.600000e+01,    0.000000e+00,    0.000000e+00
    6696,   -5.200000e+01,    0.000000e+00,    0.000000e+00
    6697,   -4.800000e+01,    0.000000e+00,    0.000000e+00
    6698,   -4.400000e+01,    0.000000e+00,    0.000000e+00
    6699,   -4.000000e+01,    0.000000e+00,    0.000000e+00
    6700,   -3.600000e+01,    0.000000e+00,    0.000000e+00
    6701,   -3.200000e+01,    0.000000e+00,    0.000000e+00
    6702,   -2.800000e+01,    0.000000e+00,    0.000000e+00
    6703,   -2.400000e+01,    0.000000e+00,    0.000000e+00
    6704,   -2.000000e+01,    0.000000e+00,    0.000000e+00
    6705,   -1.600000e+01,    0.000000e+00,    0.000000e+00
    6706,   -1.200000e+01,    0.000000e+00,    0.000000e+00
    6707,   -6.400000e+01,    0.000000e+00,   -6.400000e+01
    6708,   -6.400000e+01,    0.000000e+00,   -3.764706e+00
    6709,   -6.400000e+01,    0.000000e+00,   -7.529412e+00
    6710,   -6.400000e+01,    0.000000e+00,   -1.129412e+01
    6711,   -6.400000e+01,    0.000000e+00,   -1.505882e+01
    6712,   -6.400000e+01,    0.000000e+00,   -1.882353e+01
    6713,   -6.400000e+01,    0.000000e+00,   -2.258824e+01
    6714,   -6.400000e+01,    0.000000e+00,   -2.635294e+01
    6715,   -6.400000e+01,    0.000000e+00,   -3.011765e+01
    6716,   -6.400000e+01,    0.000000e+00,   -3.388235e+01
    6717,   -6.400000e+01,    0.000000e+00,   -3.764706e+01
    6718,   -6.400000e+01,    0.000000e+00,   -4.141176e+01
    6719,   -6.400000e+01,    0.000000e+00,   -4.517647e+01
    6720,   -6.400000e+01,    0.000000e+00,   -4.894118e+01
    6721,   -6.400000e+01,    0.000000e+00,   -5.270588e+01
    6722,   -6.400000e+01,    0.000000e+00,   -5.647059e+01
    6723,   -6.400000e+01,    0.000000e+00,   -6.023529e+01
    6724,   -4.000000e+00,    0.000000e+00,   -6.400000e+01
    6725,   -8.000000e+00,    0.000000e+00,   -6.400000e+01
    6726,   -1.200000e+01,    0.000000e+00,   -6.400000e+01
    6727,   -1.600000e+01,    0.000000e+00,   -6.400000e+01
    6728,   -2.000000e+01,    0.000000e+00,   -6.400000e+01
    6729,   -2.400000e+01,    0.000000e+00,   -6.400000e+01
    6730,   -2.800000e+01,    0.000000e+00,   -6.400000e+01
    6731,   -3.200000e+01,    0.000000e+00,   -6.400000e+01
    6732,   -3.600000e+01,    0.000000e+00,   -6.400000e+01
    6733,   -4.000000e+01,    0.000000e+00,   -6.400000e+01
    6734,   -4.400000e+01,    0.000000e+00,   -6.400000e+01
    6735,   -4.800000e+01,    0.000000e+00,   -6.400000e+01
    6736,   -5.200000e+01,    0.000000e+00,   -6.400000e+01
    6737,   -5.600000e+01,    0.000000e+00,   -6.400000e+01
    6738,   -6.000000e+01,    0.000000e+00,   -6.400000e+01
    6739,   -6.004450e+01,    0.000000e+00,   -6.020553e+01
    6740,   -6.006815e+01,    0.000000e+00,   -5.642340e+01
    6741,   -6.008754e+01,    0.000000e+00,   -5.265448e+01
    6742,   -6.010842e+01,    0.000000e+00,   -4.889050e+01
    6743,   -6.012619e+01,    0.000000e+00,   -4.512964e+01
    6744,   -6.015026e+01,    0.000000e+00,   -4.137737e+01
    6745,   -6.015733e+01,    0.000000e+00,   -3.762822e+01
    6746,   -6.017194e+01,    0.000000e+00,   -3.388362e+01
    6747,   -6.016783e+01,    0.000000e+00,   -3.014297e+01
    6748,   -6.015480e+01,    0.000000e+00,   -2.639758e+01
    6749,   -6.013826e+01,    0.000000e+00,   -2.264856e+01
    6750,   -6.012219e+01,    0.000000e+00,   -1.889530e+01
    6751,   -6.011310e+01,    0.000000e+00,   -1.513779e+01
    6752,   -6.009829e+01,    0.000000e+00,   -1.137036e+01
    6753,   -6.007952e+01,    0.000000e+00,   -7.594722e+00
    6754,   -6.004102e+01,    0.000000e+00,   -3.801737e+00
    6755,   -5.181160e+00,    0.000000e+00,   -1.066320e+01
    6756,   -4.396518e+00,    0.000000e+00,   -1.540453e+01
    6757,   -4.188320e+00,    0.000000e+00,   -1.957733e+01
    6758,   -4.126120e+00,    0.000000e+00,   -2.364870e+01
    6759,   -4.115800e+00,    0.000000e+00,   -2.770471e+01
    6760,   -4.123113e+00,    0.000000e+00,   -3.174847e+01
    6761,   -4.123831e+00,    0.000000e+00,   -3.579079e+01
    6762,   -4.112666e+00,    0.000000e+00,   -3.982944e+01
    6763,   -4.088603e+00,    0.000000e+00,   -4.386483e+01
    6764,   -4.063652e+00,    0.000000e+00,   -4.789640e+01
    6765,   -4.039547e+00,    0.000000e+00,   -5.192639e+01
    6766,   -4.021931e+00,    0.000000e+00,   -5.595381e+01
    6767,   -4.009483e+00,    0.000000e+00,   -5.997829e+01
    6768,   -5.607354e+01,    0.000000e+00,   -3.827061e+00
    6769,   -5.209155e+01,    0.000000e+00,   -3.847202e+00
    6770,   -4.809531e+01,    0.000000e+00,   -3.874664e+00
    6771,   -4.409635e+01,    0.000000e+00,   -3.913494e+00
    6772,   -4.009418e+01,    0.000000e+00,   -3.971292e+00
    6773,   -3.608638e+01,    0.000000e+00,   -4.051405e+00
    6774,   -3.206513e+01,    0.000000e+00,   -4.156780e+00
    6775,   -2.802246e+01,    0.000000e+00,   -4.266520e+00
    6776,   -2.394117e+01,    0.000000e+00,   -4.397421e+00
    6777,   -1.977936e+01,    0.000000e+00,   -4.589580e+00
    6778,   -1.551855e+01,    0.000000e+00,   -5.022280e+00
    6779,   -1.048338e+01,    0.000000e+00,   -6.047545e+00
    6780,   -8.017862e+00,    0.000000e+00,   -5.995816e+01
    6781,   -1.202702e+01,    0.000000e+00,   -5.994046e+01
    6782,   -1.603765e+01,    0.000000e+00,   -5.992551e+01
    6783,   -2.005617e+01,    0.000000e+00,   -5.992426e+01
    6784,   -2.407114e+01,    0.000000e+00,   -5.993504e+01
    6785,   -2.808739e+01,    0.000000e+00,   -5.996632e+01
    6786,   -3.209944e+01,    0.000000e+00,   -6.001246e+01
    6787,   -3.610917e+01,    0.000000e+00,   -6.005959e+01
    6788,   -4.011448e+01,    0.000000e+00,   -6.009752e+01
    6789,   -4.411830e+01,    0.000000e+00,   -6.012436e+01
    6790,   -4.812006e+01,    0.000000e+00,   -6.013839e+01
    6791,   -5.211095e+01,    0.000000e+00,   -6.015322e+01
    6792,   -5.607669e+01,    0.000000e+00,   -6.018041e+01
    6793,   -5.613444e+01,    0.000000e+00,   -5.637906e+01
    6794,   -5.617755e+01,    0.000000e+00,   -5.259974e+01
    6795,   -5.621710e+01,    0.000000e+00,   -4.883529e+01
    6796,   -5.626165e+01,    0.000000e+00,   -4.508368e+01
    6797,   -5.629922e+01,    0.000000e+00,   -4.134607e+01
    6798,   -5.633572e+01,    0.000000e+00,   -3.761834e+01
    6799,   -5.635568e+01,    0.000000e+00,   -3.389973e+01
    6800,   -5.634747e+01,    0.000000e+00,   -3.017919e+01
    6801,   -5.631641e+01,    0.000000e+00,   -2.645546e+01
    6802,   -5.628223e+01,    0.000000e+00,   -2.272354e+01
    6803,   -5.624963e+01,    0.000000e+00,   -1.898311e+01
    6804,   -5.622410e+01,    0.000000e+00,   -1.522601e+01
    6805,   -5.618666e+01,    0.000000e+00,   -1.144687e+01
    6806,   -5.613394e+01,    0.000000e+00,   -7.640012e+00
    6807,   -8.044087e+00,    0.000000e+00,   -5.591023e+01
    6808,   -1.206938e+01,    0.000000e+00,   -5.586990e+01
    6809,   -1.610040e+01,    0.000000e+00,   -5.584096e+01
    6810,   -2.013519e+01,    0.000000e+00,   -5.583006e+01
    6811,   -2.417184e+01,    0.000000e+00,   -5.585447e+01
    6812,   -2.820346e+01,    0.000000e+00,   -5.591860e+01
    6813,   -3.222779e+01,    0.000000e+00,   -5.601957e+01
    6814,   -3.624236e+01,    0.000000e+00,   -5.612282e+01
    6815,   -4.024982e+01,    0.000000e+00,   -5.620258e+01
    6816,   -4.425161e+01,    0.000000e+00,   -5.625513e+01
    6817,   -4.823789e+01,    0.000000e+00,   -5.629205e+01
    6818,   -5.218996e+01,    0.000000e+00,   -5.633814e+01
    6819,   -5.217123e+01,    0.000000e+00,   -7.691497e+00
    6820,   -4.819075e+01,    0.000000e+00,   -7.750098e+00
    6821,   -4.420137e+01,    0.000000e+00,   -7.828434e+00
    6822,   -4.020054e+01,    0.000000e+00,   -7.941831e+00
    6823,   -3.618944e+01,    0.000000e+00,   -8.108358e+00
    6824,   -3.216027e+01,    0.000000e+00,   -8.297896e+00
    6825,   -2.811375e+01,    0.000000e+00,   -8.513622e+00
    6826,   -2.403827e+01,    0.000000e+00,   -8.756792e+00
    6827,   -1.993288e+01,    0.000000e+00,   -9.069484e+00
    6828,   -1.578934e+01,    0.000000e+00,   -9.715301e+00
    6829,   -1.170668e+01,    0.000000e+00,   -1.074393e+01
    6830,   -8.423687e+00,    0.000000e+00,   -1.221792e+01
    6831,   -8.316469e+00,    0.000000e+00,   -1.541730e+01
    6832,   -8.236029e+00,    0.000000e+00,   -1.926114e+01
    6833,   -8.219369e+00,    0.000000e+00,   -2.331056e+01
    6834,   -8.239699e+00,    0.000000e+00,   -2.739323e+01
    6835,   -8.265579e+00,    0.000000e+00,   -3.148147e+01
    6836,   -8.273084e+00,    0.000000e+00,   -3.556770e+01
    6837,   -8.240382e+00,    0.000000e+00,   -3.964843e+01
    6838,   -8.192245e+00,    0.000000e+00,   -4.372225e+01
    6839,   -8.136224e+00,    0.000000e+00,   -4.778985e+01
    6840,   -8.085436e+00,    0.000000e+00,   -5.185396e+01
    6841,   -5.224626e+01,    0.000000e+00,   -1.152373e+01
    6842,   -4.829314e+01,    0.000000e+00,   -1.161397e+01
    6843,   -4.431485e+01,    0.000000e+00,   -1.173139e+01
    6844,   -4.032016e+01,    0.000000e+00,   -1.190685e+01
    6845,   -3.631246e+01,    0.000000e+00,   -1.213484e+01
    6846,   -3.229299e+01,    0.000000e+00,   -1.242196e+01
    6847,   -2.825289e+01,    0.000000e+00,   -1.273552e+01
    6848,   -2.419574e+01,    0.000000e+00,   -1.306983e+01
    6849,   -2.012986e+01,    0.000000e+00,   -1.345063e+01
    6850,   -1.608424e+01,    0.000000e+00,   -1.395758e+01
    6851,   -1.209490e+01,    0.000000e+00,   -1.474574e+01
    6852,   -5.226386e+01,    0.000000e+00,   -5.254251e+01
    6853,   -5.233284e+01,    0.000000e+00,   -4.877400e+01
    6854,   -5.239996e+01,    0.000000e+00,   -4.503494e+01
    6855,   -5.247159e+01,    0.000000e+00,   -4.131900e+01
    6856,   -5.253777e+01,    0.000000e+00,   -3.762081e+01
    6857,   -5.256561e+01,    0.000000e+00,   -3.392927e+01
    6858,   -5.254329e+01,    0.000000e+00,   -3.023924e+01
    6859,   -5.249241e+01,    0.000000e+00,   -2.653969e+01
    6860,   -5.243179e+01,    0.000000e+00,   -2.282548e+01
    6861,   -5.237635e+01,    0.000000e+00,   -1.909500e+01
    6862,   -5.231523e+01,    0.000000e+00,   -1.532593e+01
    6863,   -1.213515e+01,    0.000000e+00,   -5.178574e+01
    6864,   -1.619423e+01,    0.000000e+00,   -5.173182e+01
    6865,   -2.025492e+01,    0.000000e+00,   -5.171444e+01
    6866,   -2.431728e+01,    0.000000e+00,   -5.174212e+01
    6867,   -2.836758e+01,    0.000000e+00,   -5.185167e+01
    6868,   -3.240028e+01,    0.000000e+00,   -5.203046e+01
    6869,   -3.641463e+01,    0.000000e+00,   -5.220267e+01
    6870,   -4.041592e+01,    0.000000e+00,   -5.233079e+01
    6871,   -4.439742e+01,    0.000000e+00,   -5.241406e+01
    6872,   -4.833856e+01,    0.000000e+00,   -5.248438e+01
    6873,   -1.222426e+01,    0.000000e+00,   -1.877690e+01
    6874,   -1.229914e+01,    0.000000e+00,   -2.290522e+01
    6875,   -1.237120e+01,    0.000000e+00,   -2.704759e+01
    6876,   -1.243258e+01,    0.000000e+00,   -3.119038e+01
    6877,   -1.244354e+01,    0.000000e+00,   -3.533185e+01
    6878,   -1.239760e+01,    0.000000e+00,   -3.946204e+01
    6879,   -1.231059e+01,    0.000000e+00,   -4.358086e+01
    6880,   -1.222223e+01,    0.000000e+00,   -4.768857e+01
    6881,   -4.844346e+01,    0.000000e+00,   -4.870951e+01
    6882,   -4.855193e+01,    0.000000e+00,   -4.498157e+01
    6883,   -4.866539e+01,    0.000000e+00,   -4.129024e+01
    6884,   -4.876571e+01,    0.000000e+00,   -3.762678e+01
    6885,   -4.881000e+01,    0.000000e+00,   -3.397807e+01
    6886,   -4.876527e+01,    0.000000e+00,   -3.033051e+01
    6887,   -4.867532e+01,    0.000000e+00,   -2.666728e+01
    6888,   -4.858184e+01,    0.000000e+00,   -2.297479e+01
    6889,   -4.849139e+01,    0.000000e+00,   -1.924188e+01
    6890,   -4.838663e+01,    0.000000e+00,   -1.544562e+01
    6891,   -4.443792e+01,    0.000000e+00,   -1.560928e+01
    6892,   -4.046543e+01,    0.000000e+00,   -1.583216e+01
    6893,   -3.647077e+01,    0.000000e+00,   -1.613602e+01
    6894,   -3.246027e+01,    0.000000e+00,   -1.651560e+01
    6895,   -2.842895e+01,    0.000000e+00,   -1.693650e+01
    6896,   -2.437473e+01,    0.000000e+00,   -1.734377e+01
    6897,   -2.030809e+01,    0.000000e+00,   -1.775921e+01
    6898,   -1.625143e+01,    0.000000e+00,   -1.824387e+01
    6899,   -1.638743e+01,    0.000000e+00,   -2.246847e+01
    6900,   -1.651673e+01,    0.000000e+00,   -2.667835e+01
    6901,   -1.662485e+01,    0.000000e+00,   -3.088863e+01
    6902,   -1.666739e+01,    0.000000e+00,   -3.509104e+01
    6903,   -1.658355e+01,    0.000000e+00,   -3.928382e+01
    6904,   -1.645313e+01,    0.000000e+00,   -4.345410e+01
    6905,   -1.631575e+01,    0.000000e+00,   -4.760832e+01
    6906,   -2.041976e+01,    0.000000e+00,   -4.756100e+01
    6907,   -2.451811e+01,    0.000000e+00,   -4.759407e+01
    6908,   -2.859828e+01,    0.000000e+00,   -4.775635e+01
    6909,   -3.263441e+01,    0.000000e+00,   -4.805211e+01
    6910,   -3.664043e+01,    0.000000e+00,   -4.831909e+01
    6911,   -4.061560e+01,    0.000000e+00,   -4.850419e+01
    6912,   -4.454133e+01,    0.000000e+00,   -4.863162e+01
    6913,   -4.470072e+01,    0.000000e+00,   -4.490204e+01
    6914,   -4.487276e+01,    0.000000e+00,   -4.123089e+01
    6915,   -4.503076e+01,    0.000000e+00,   -3.761664e+01
    6916,   -4.510962e+01,    0.000000e+00,   -3.404532e+01
    6917,   -4.501614e+01,    0.000000e+00,   -3.047770e+01
    6918,   -4.487282e+01,    0.000000e+00,   -2.686807e+01
    6919,   -4.472264e+01,    0.000000e+00,   -2.319222e+01
    6920,   -4.457364e+01,    0.000000e+00,   -1.943422e+01
    6921,   -4.063455e+01,    0.000000e+00,   -1.970445e+01
    6922,   -3.667198e+01,    0.000000e+00,   -2.008092e+01
    6923,   -3.267982e+01,    0.000000e+00,   -2.057254e+01
    6924,   -2.865664e+01,    0.000000e+00,   -2.112353e+01
    6925,   -2.458646e+01,    0.000000e+00,   -2.159899e+01
    6926,   -2.048949e+01,    0.000000e+00,   -2.203322e+01
    6927,   -2.067813e+01,    0.000000e+00,   -2.630010e+01
    6928,   -2.086901e+01,    0.000000e+00,   -3.057085e+01
    6929,   -2.096505e+01,    0.000000e+00,   -3.485740e+01
    6930,   -2.081979e+01,    0.000000e+00,   -3.913545e+01
    6931,   -2.061252e+01,    0.000000e+00,   -4.337641e+01
    6932,   -2.478770e+01,    0.000000e+00,   -4.338748e+01
    6933,   -2.892802e+01,    0.000000e+00,   -4.360926e+01
    6934,   -3.296132e+01,    0.000000e+00,   -4.410147e+01
    6935,   -3.693084e+01,    0.000000e+00,   -4.450223e+01
    6936,   -4.083398e+01,    0.000000e+00,   -4.475463e+01
    6937,   -4.108382e+01,    0.000000e+00,   -4.109714e+01
    6938,   -4.135014e+01,    0.000000e+00,   -3.755602e+01
    6939,   -4.150514e+01,    0.000000e+00,   -3.413102e+01
    6940,   -4.131276e+01,    0.000000e+00,   -3.071564e+01
    6941,   -4.107056e+01,    0.000000e+00,   -2.717580e+01
    6942,   -4.083681e+01,    0.000000e+00,   -2.349670e+01
    6943,   -3.692934e+01,    0.000000e+00,   -2.394005e+01
    6944,   -3.298198e+01,    0.000000e+00,   -2.457932e+01
    6945,   -2.897656e+01,    0.000000e+00,   -2.532721e+01
    6946,   -2.485101e+01,    0.000000e+00,   -2.586385e+01
    6947,   -2.516973e+01,    0.000000e+00,   -3.020464e+01
    6948,   -2.538900e+01,    0.000000e+00,   -3.463844e+01
    6949,   -2.509557e+01,    0.000000e+00,   -3.908993e+01
    6950,   -2.941451e+01,    0.000000e+00,   -3.936981e+01
    6951,   -3.349574e+01,    0.000000e+00,   -4.026963e+01
    6952,   -3.728914e+01,    0.000000e+00,   -4.081105e+01
    6953,   -3.775459e+01,    0.000000e+00,   -3.734669e+01
    6954,   -3.810609e+01,    0.000000e+00,   -3.421833e+01
    6955,   -3.772930e+01,    0.000000e+00,   -3.112135e+01
    6956,   -3.725660e+01,    0.000000e+00,   -2.766857e+01
    6957,   -3.350341e+01,    0.000000e+00,   -2.840590e+01
    6958,   -2.946424e+01,    0.000000e+00,   -2.957500e+01
    6959,   -3.054960e+01,    0.000000e+00,   -3.443427e+01
    6960,   -3.428202e+01,    0.000000e+00,   -3.674692e+01
    6961,   -3.554451e+01,    0.000000e+00,   -3.429482e+01
    6962,   -3.429427e+01,    0.000000e+00,   -3.191604e+01
    7133,    0.000000e+00,   -5.510911e-16,   -9.000000e+00
    7134,    0.000000e+00,   -4.898587e-16,   -8.000000e+00
    7135,    0.000000e+00,   -5.000000e+01,   -9.000000e+00
    7136,    0.000000e+00,   -4.615385e+01,   -9.000000e+00
    7137,    0.000000e+00,   -4.230769e+01,   -9.000000e+00
    7138,    0.000000e+00,   -3.846154e+01,   -9.000000e+00
    7139,    0.000000e+00,   -3.461538e+01,   -9.000000e+00
    7140,    0.000000e+00,   -3.076923e+01,   -9.000000e+00
    7141,    0.000000e+00,   -2.692308e+01,   -9.000000e+00
    7142,    0.000000e+00,   -2.307692e+01,   -9.000000e+00
    7143,    0.000000e+00,   -1.923077e+01,   -9.000000e+00
    7144,    0.000000e+00,   -1.538462e+01,   -9.000000e+00
    7145,    0.000000e+00,   -1.153846e+01,   -9.000000e+00
    7146,    0.000000e+00,   -7.692308e+00,   -9.000000e+00
    7147,    0.000000e+00,   -3.846154e+00,   -9.000000e+00
    7148,    0.000000e+00,   -5.000000e+01,   -8.000000e+00
    7149,    0.000000e+00,   -3.846154e+00,   -8.000000e+00
    7150,    0.000000e+00,   -7.692308e+00,   -8.000000e+00
    7151,    0.000000e+00,   -1.153846e+01,   -8.000000e+00
    7152,    0.000000e+00,   -1.538462e+01,   -8.000000e+00
    7153,    0.000000e+00,   -1.923077e+01,   -8.000000e+00
    7154,    0.000000e+00,   -2.307692e+01,   -8.000000e+00
    7155,    0.000000e+00,   -2.692308e+01,   -8.000000e+00
    7156,    0.000000e+00,   -3.076923e+01,   -8.000000e+00
    7157,    0.000000e+00,   -3.461538e+01,   -8.000000e+00
    7158,    0.000000e+00,   -3.846154e+01,   -8.000000e+00
    7159,    0.000000e+00,   -4.230769e+01,   -8.000000e+00
    7160,    0.000000e+00,   -4.615385e+01,   -8.000000e+00
    7161,    9.000000e+00,   -5.000000e+01,    1.530808e-15
    7162,    4.500000e+00,   -5.000000e+01,   -7.794229e+00
    7163,    7.794229e+00,   -5.000000e+01,   -4.500000e+00
    7164,    8.000000e+00,   -5.000000e+01,    1.530808e-15
    7165,    6.928203e+00,   -5.000000e+01,   -4.000000e+00
    7166,    4.000000e+00,   -5.000000e+01,   -6.928203e+00
    7167,    9.000000e+00,    0.000000e+00,   -1.530808e-15
    7168,    7.794229e+00,   -2.755455e-16,   -4.500000e+00
    7169,    4.500000e+00,   -4.772589e-16,   -7.794229e+00
    7170,    9.000000e+00,   -4.615385e+01,    1.295299e-15
    7171,    9.000000e+00,   -4.230769e+01,    1.059790e-15
    7172,    9.000000e+00,   -3.846154e+01,    8.242815e-16
    7173,    9.000000e+00,   -3.461538e+01,    5.887725e-16
    7174,    9.000000e+00,   -3.076923e+01,    3.532635e-16
    7175,    9.000000e+00,   -2.692308e+01,    1.177545e-16
    7176,    9.000000e+00,   -2.307692e+01,   -1.177545e-16
    7177,    9.000000e+00,   -1.923077e+01,   -3.532635e-16
    7178,    9.000000e+00,   -1.538462e+01,   -5.887725e-16
    7179,    9.000000e+00,   -1.153846e+01,   -8.242815e-16
    7180,    9.000000e+00,   -7.692308e+00,   -1.059790e-15
    7181,    9.000000e+00,   -3.846154e+00,   -1.295299e-15
    7182,    4.500000e+00,   -4.615385e+01,   -7.794229e+00
    7183,    4.500000e+00,   -4.230769e+01,   -7.794229e+00
    7184,    4.500000e+00,   -3.846154e+01,   -7.794229e+00
    7185,    4.500000e+00,   -3.461538e+01,   -7.794229e+00
    7186,    4.500000e+00,   -3.076923e+01,   -7.794229e+00
    7187,    4.500000e+00,   -2.692308e+01,   -7.794229e+00
    7188,    4.500000e+00,   -2.307692e+01,   -7.794229e+00
    7189,    4.500000e+00,   -1.923077e+01,   -7.794229e+00
    7190,    4.500000e+00,   -1.538462e+01,   -7.794229e+00
    7191,    4.500000e+00,   -1.153846e+01,   -7.794229e+00
    7192,    4.500000e+00,   -7.692308e+00,   -7.794229e+00
    7193,    4.500000e+00,   -3.846154e+00,   -7.794229e+00
    7194,    7.794229e+00,   -4.615385e+01,   -4.500000e+00
    7195,    7.794229e+00,   -4.230769e+01,   -4.500000e+00
    7196,    7.794229e+00,   -3.846154e+01,   -4.500000e+00
    7197,    7.794229e+00,   -3.461538e+01,   -4.500000e+00
    7198,    7.794229e+00,   -3.076923e+01,   -4.500000e+00
    7199,    7.794229e+00,   -2.692308e+01,   -4.500000e+00
    7200,    7.794229e+00,   -2.307692e+01,   -4.500000e+00
    7201,    7.794229e+00,   -1.923077e+01,   -4.500000e+00
    7202,    7.794229e+00,   -1.538462e+01,   -4.500000e+00
    7203,    7.794229e+00,   -1.153846e+01,   -4.500000e+00
    7204,    7.794229e+00,   -7.692308e+00,   -4.500000e+00
    7205,    7.794229e+00,   -3.846154e+00,   -4.500000e+00
    7206,    8.000000e+00,    0.000000e+00,   -1.530808e-15
    7207,    8.000000e+00,   -3.846154e+00,   -1.295299e-15
    7208,    8.000000e+00,   -7.692308e+00,   -1.059790e-15
    7209,    8.000000e+00,   -1.153846e+01,   -8.242815e-16
    7210,    8.000000e+00,   -1.538462e+01,   -5.887725e-16
    7211,    8.000000e+00,   -1.923077e+01,   -3.532635e-16
    7212,    8.000000e+00,   -2.307692e+01,   -1.177545e-16
    7213,    8.000000e+00,   -2.692308e+01,    1.177545e-16
    7214,    8.000000e+00,   -3.076923e+01,    3.532635e-16
    7215,    8.000000e+00,   -3.461538e+01,    5.887725e-16
    7216,    8.000000e+00,   -3.846154e+01,    8.242815e-16
    7217,    8.000000e+00,   -4.230769e+01,    1.059790e-15
    7218,    8.000000e+00,   -4.615385e+01,    1.295299e-15
    7219,    4.000000e+00,   -4.242301e-16,   -6.928203e+00
    7220,    6.928203e+00,   -2.449294e-16,   -4.000000e+00
    7221,    4.000000e+00,   -3.846154e+00,   -6.928203e+00
    7222,    4.000000e+00,   -7.692308e+00,   -6.928203e+00
    7223,    4.000000e+00,   -1.153846e+01,   -6.928203e+00
    7224,    4.000000e+00,   -1.538462e+01,   -6.928203e+00
    7225,    4.000000e+00,   -1.923077e+01,   -6.928203e+00
    7226,    4.000000e+00,   -2.307692e+01,   -6.928203e+00
    7227,    4.000000e+00,   -2.692308e+01,   -6.928203e+00
    7228,    4.000000e+00,   -3.076923e+01,   -6.928203e+00
    7229,    4.000000e+00,   -3.461538e+01,   -6.928203e+00
    7230,    4.000000e+00,   -3.846154e+01,   -6.928203e+00
    7231,    4.000000e+00,   -4.230769e+01,   -6.928203e+00
    7232,    4.000000e+00,   -4.615385e+01,   -6.928203e+00
    7233,    6.928203e+00,   -3.846154e+00,   -4.000000e+00
    7234,    6.928203e+00,   -7.692308e+00,   -4.000000e+00
    7235,    6.928203e+00,   -1.153846e+01,   -4.000000e+00
    7236,    6.928203e+00,   -1.538462e+01,   -4.000000e+00
    7237,    6.928203e+00,   -1.923077e+01,   -4.000000e+00
    7238,    6.928203e+00,   -2.307692e+01,   -4.000000e+00
    7239,    6.928203e+00,   -2.692308e+01,   -4.000000e+00
    7240,    6.928203e+00,   -3.076923e+01,   -4.000000e+00
    7241,    6.928203e+00,   -3.461538e+01,   -4.000000e+00
    7242,    6.928203e+00,   -3.846154e+01,   -4.000000e+00
    7243,    6.928203e+00,   -4.230769e+01,   -4.000000e+00
    7244,    6.928203e+00,   -4.615385e+01,   -4.000000e+00
    8840,   -8.000000e+00,    9.373499e-32,    0.000000e+00
    8841,   -6.928203e+00,   -2.449294e-16,   -4.000000e+00
    8842,   -4.000000e+00,   -4.242301e-16,   -6.928203e+00
    8843,   -8.000000e+00,   -5.000000e+01,    0.000000e+00
    8844,   -8.000000e+00,   -4.615385e+01,    1.295299e-15
    8845,   -8.000000e+00,   -4.230769e+01,    1.059790e-15
    8846,   -8.000000e+00,   -3.846154e+01,    8.242815e-16
    8847,   -8.000000e+00,   -3.461538e+01,    5.887725e-16
    8848,   -8.000000e+00,   -3.076923e+01,    3.532635e-16
    8849,   -8.000000e+00,   -2.692308e+01,    1.177545e-16
    8850,   -8.000000e+00,   -2.307692e+01,   -1.177545e-16
    8851,   -8.000000e+00,   -1.923077e+01,   -3.532635e-16
    8852,   -8.000000e+00,   -1.538462e+01,   -5.887725e-16
    8853,   -8.000000e+00,   -1.153846e+01,   -8.242815e-16
    8854,   -8.000000e+00,   -7.692308e+00,   -1.059790e-15
    8855,   -8.000000e+00,   -3.846154e+00,   -1.295299e-15
    8856,   -4.000000e+00,   -5.000000e+01,   -6.928203e+00
    8857,   -6.928203e+00,   -5.000000e+01,   -4.000000e+00
    8858,   -4.000000e+00,   -4.615385e+01,   -6.928203e+00
    8859,   -4.000000e+00,   -4.230769e+01,   -6.928203e+00
    8860,   -4.000000e+00,   -3.846154e+01,   -6.928203e+00
    8861,   -4.000000e+00,   -3.461538e+01,   -6.928203e+00
    8862,   -4.000000e+00,   -3.076923e+01,   -6.928203e+00
    8863,   -4.000000e+00,   -2.692308e+01,   -6.928203e+00
    8864,   -4.000000e+00,   -2.307692e+01,   -6.928203e+00
    8865,   -4.000000e+00,   -1.923077e+01,   -6.928203e+00
    8866,   -4.000000e+00,   -1.538462e+01,   -6.928203e+00
    8867,   -4.000000e+00,   -1.153846e+01,   -6.928203e+00
    8868,   -4.000000e+00,   -7.692308e+00,   -6.928203e+00
    8869,   -4.000000e+00,   -3.846154e+00,   -6.928203e+00
    8870,   -6.928203e+00,   -4.615385e+01,   -4.000000e+00
    8871,   -6.928203e+00,   -4.230769e+01,   -4.000000e+00
    8872,   -6.928203e+00,   -3.846154e+01,   -4.000000e+00
    8873,   -6.928203e+00,   -3.461538e+01,   -4.000000e+00
    8874,   -6.928203e+00,   -3.076923e+01,   -4.000000e+00
    8875,   -6.928203e+00,   -2.692308e+01,   -4.000000e+00
    8876,   -6.928203e+00,   -2.307692e+01,   -4.000000e+00
    8877,   -6.928203e+00,   -1.923077e+01,   -4.000000e+00
    8878,   -6.928203e+00,   -1.538462e+01,   -4.000000e+00
    8879,   -6.928203e+00,   -1.153846e+01,   -4.000000e+00
    8880,   -6.928203e+00,   -7.692308e+00,   -4.000000e+00
    8881,   -6.928203e+00,   -3.846154e+00,   -4.000000e+00
    8882,   -9.000000e+00,    9.373499e-32,    0.000000e+00
    8883,   -4.500000e+00,   -4.772589e-16,   -7.794229e+00
    8884,   -7.794229e+00,   -2.755455e-16,   -4.500000e+00
    8885,   -9.000000e+00,   -5.000000e+01,    0.000000e+00
    8886,   -9.000000e+00,   -3.846154e+00,   -1.295299e-15
    8887,   -9.000000e+00,   -7.692308e+00,   -1.059790e-15
    8888,   -9.000000e+00,   -1.153846e+01,   -8.242815e-16
    8889,   -9.000000e+00,   -1.538462e+01,   -5.887725e-16
    8890,   -9.000000e+00,   -1.923077e+01,   -3.532635e-16
    8891,   -9.000000e+00,   -2.307692e+01,   -1.177545e-16
    8892,   -9.000000e+00,   -2.692308e+01,    1.177545e-16
    8893,   -9.000000e+00,   -3.076923e+01,    3.532635e-16
    8894,   -9.000000e+00,   -3.461538e+01,    5.887725e-16
    8895,   -9.000000e+00,   -3.846154e+01,    8.242815e-16
    8896,   -9.000000e+00,   -4.230769e+01,    1.059790e-15
    8897,   -9.000000e+00,   -4.615385e+01,    1.295299e-15
    8898,   -7.794229e+00,   -5.000000e+01,   -4.500000e+00
    8899,   -4.500000e+00,   -5.000000e+01,   -7.794229e+00
    8900,   -4.500000e+00,   -3.846154e+00,   -7.794229e+00
    8901,   -4.500000e+00,   -7.692308e+00,   -7.794229e+00
    8902,   -4.500000e+00,   -1.153846e+01,   -7.794229e+00
    8903,   -4.500000e+00,   -1.538462e+01,   -7.794229e+00
    8904,   -4.500000e+00,   -1.923077e+01,   -7.794229e+00
    8905,   -4.500000e+00,   -2.307692e+01,   -7.794229e+00
    8906,   -4.500000e+00,   -2.692308e+01,   -7.794229e+00
    8907,   -4.500000e+00,   -3.076923e+01,   -7.794229e+00
    8908,   -4.500000e+00,   -3.461538e+01,   -7.794229e+00
    8909,   -4.500000e+00,   -3.846154e+01,   -7.794229e+00
    8910,   -4.500000e+00,   -4.230769e+01,   -7.794229e+00
    8911,   -4.500000e+00,   -4.615385e+01,   -7.794229e+00
    8912,   -7.794229e+00,   -3.846154e+00,   -4.500000e+00
    8913,   -7.794229e+00,   -7.692308e+00,   -4.500000e+00
    8914,   -7.794229e+00,   -1.153846e+01,   -4.500000e+00
    8915,   -7.794229e+00,   -1.538462e+01,   -4.500000e+00
    8916,   -7.794229e+00,   -1.923077e+01,   -4.500000e+00
    8917,   -7.794229e+00,   -2.307692e+01,   -4.500000e+00
    8918,   -7.794229e+00,   -2.692308e+01,   -4.500000e+00
    8919,   -7.794229e+00,   -3.076923e+01,   -4.500000e+00
    8920,   -7.794229e+00,   -3.461538e+01,   -4.500000e+00
    8921,   -7.794229e+00,   -3.846154e+01,   -4.500000e+00
    8922,   -7.794229e+00,   -4.230769e+01,   -4.500000e+00
    8923,   -7.794229e+00,   -4.615385e+01,   -4.500000e+00
********************************** E L E M E N T S ****************************
*ELEMENT, TYPE=C3D8R, ELSET=steel
       1,    2027,    1913,    1917,    2044,    1901,    1900,    1903,    1905
       2,    2043,    2011,    2027,    2044,    1906,    1902,    1901,    1905
       3,    1969,    1924,    2011,    2043,    1899,    1898,    1902,    1906
       4,    1915,    1908,    1969,    2043,    1904,    1897,    1899,    1906
       5,    1917,    1915,    2043,    2044,    1903,    1904,    1906,    1905
       6,    2028,    1914,    1918,    2046,    2027,    1913,    1917,    2044
       7,    2045,    2012,    2028,    2046,    2043,    2011,    2027,    2044
       8,    1968,    1925,    2012,    2045,    1969,    1924,    2011,    2043
       9,    1916,    1909,    1968,    2045,    1915,    1908,    1969,    2043
      10,    1918,    1916,    2045,    2046,    1917,    1915,    2043,    2044
      11,    2029,    1910,    1911,    2048,    2028,    1914,    1918,    2046
      12,    2047,    2013,    2029,    2048,    2045,    2012,    2028,    2046
      13,    1967,    1926,    2013,    2047,    1968,    1925,    2012,    2045
      14,    1912,    1907,    1967,    2047,    1916,    1909,    1968,    2045
      15,    1911,    1912,    2047,    2048,    1918,    1916,    2045,    2046
      16,    2030,    1920,    1921,    2050,    2029,    1910,    1911,    2048
      17,    2049,    2014,    2030,    2050,    2047,    2013,    2029,    2048
      18,    1966,    1927,    2014,    2049,    1967,    1926,    2013,    2047
      19,    1922,    1919,    1966,    2049,    1912,    1907,    1967,    2047
      20,    1921,    1922,    2049,    2050,    1911,    1912,    2047,    2048
      21,    2031,    1982,    1986,    2052,    2030,    1920,    1921,    2050
      22,    2051,    2015,    2031,    2052,    2049,    2014,    2030,    2050
      23,    1965,    1928,    2015,    2051,    1966,    1927,    2014,    2049
      24,    1985,    1952,    1965,    2051,    1922,    1919,    1966,    2049
      25,    1986,    1985,    2051,    2052,    1921,    1922,    2049,    2050
      26,    2032,    1981,    1988,    2054,    2031,    1982,    1986,    2052
      27,    2053,    2016,    2032,    2054,    2051,    2015,    2031,    2052
      28,    1964,    1929,    2016,    2053,    1965,    1928,    2015,    2051
      29,    1987,    1951,    1964,    2053,    1985,    1952,    1965,    2051
      30,    1988,    1987,    2053,    2054,    1986,    1985,    2051,    2052
      31,    2033,    1980,    1990,    2056,    2032,    1981,    1988,    2054
      32,    2055,    2017,    2033,    2056,    2053,    2016,    2032,    2054
      33,    1963,    1930,    2017,    2055,    1964,    1929,    2016,    2053
      34,    1989,    1950,    1963,    2055,    1987,    1951,    1964,    2053
      35,    1990,    1989,    2055,    2056,    1988,    1987,    2053,    2054
      36,    2034,    1979,    1992,    2058,    2033,    1980,    1990,    2056
      37,    2057,    2018,    2034,    2058,    2055,    2017,    2033,    2056
      38,    1962,    1931,    2018,    2057,    1963,    1930,    2017,    2055
      39,    1991,    1949,    1962,    2057,    1989,    1950,    1963,    2055
      40,    1992,    1991,    2057,    2058,    1990,    1989,    2055,    2056
      41,    2035,    1978,    1994,    2060,    2034,    1979,    1992,    2058
      42,    2059,    2019,    2035,    2060,    2057,    2018,    2034,    2058
      43,    1961,    1932,    2019,    2059,    1962,    1931,    2018,    2057
      44,    1993,    1948,    1961,    2059,    1991,    1949,    1962,    2057
      45,    1994,    1993,    2059,    2060,    1992,    1991,    2057,    2058
      46,    2036,    1977,    1996,    2062,    2035,    1978,    1994,    2060
      47,    2061,    2020,    2036,    2062,    2059,    2019,    2035,    2060
      48,    1960,    1933,    2020,    2061,    1961,    1932,    2019,    2059
      49,    1995,    1947,    1960,    2061,    1993,    1948,    1961,    2059
      50,    1996,    1995,    2061,    2062,    1994,    1993,    2059,    2060
      51,    2037,    1976,    1998,    2064,    2036,    1977,    1996,    2062
      52,    2063,    2021,    2037,    2064,    2061,    2020,    2036,    2062
      53,    1959,    1934,    2021,    2063,    1960,    1933,    2020,    2061
      54,    1997,    1946,    1959,    2063,    1995,    1947,    1960,    2061
      55,    1998,    1997,    2063,    2064,    1996,    1995,    2061,    2062
      56,    2038,    1975,    2000,    2066,    2037,    1976,    1998,    2064
      57,    2065,    2022,    2038,    2066,    2063,    2021,    2037,    2064
      58,    1958,    1935,    2022,    2065,    1959,    1934,    2021,    2063
      59,    1999,    1945,    1958,    2065,    1997,    1946,    1959,    2063
      60,    2000,    1999,    2065,    2066,    1998,    1997,    2063,    2064
      61,    2039,    1974,    2002,    2068,    2038,    1975,    2000,    2066
      62,    2067,    2023,    2039,    2068,    2065,    2022,    2038,    2066
      63,    1957,    1936,    2023,    2067,    1958,    1935,    2022,    2065
      64,    2001,    1944,    1957,    2067,    1999,    1945,    1958,    2065
      65,    2002,    2001,    2067,    2068,    2000,    1999,    2065,    2066
      66,    2040,    1973,    2004,    2070,    2039,    1974,    2002,    2068
      67,    2069,    2024,    2040,    2070,    2067,    2023,    2039,    2068
      68,    1956,    1937,    2024,    2069,    1957,    1936,    2023,    2067
      69,    2003,    1943,    1956,    2069,    2001,    1944,    1957,    2067
      70,    2004,    2003,    2069,    2070,    2002,    2001,    2067,    2068
      71,    2041,    1972,    2006,    2072,    2040,    1973,    2004,    2070
      72,    2071,    2025,    2041,    2072,    2069,    2024,    2040,    2070
      73,    1955,    1938,    2025,    2071,    1956,    1937,    2024,    2069
      74,    2005,    1942,    1955,    2071,    2003,    1943,    1956,    2069
      75,    2006,    2005,    2071,    2072,    2004,    2003,    2069,    2070
      76,    2042,    1971,    2008,    2074,    2041,    1972,    2006,    2072
      77,    2073,    2026,    2042,    2074,    2071,    2025,    2041,    2072
      78,    1954,    1939,    2026,    2073,    1955,    1938,    2025,    2071
      79,    2007,    1941,    1954,    2073,    2005,    1942,    1955,    2071
      80,    2008,    2007,    2073,    2074,    2006,    2005,    2071,    2072
      81,    2010,    1970,    1984,    2076,    2042,    1971,    2008,    2074
      82,    2075,    2009,    2010,    2076,    2073,    2026,    2042,    2074
      83,    1953,    1923,    2009,    2075,    1954,    1939,    2026,    2073
      84,    1983,    1940,    1953,    2075,    2007,    1941,    1954,    2073
      85,    1984,    1983,    2075,    2076,    2008,    2007,    2073,    2074
      86,    3492,    3493,    3495,    3496,    2356,    2357,    2359,    2360
      87,    3496,    3494,    3491,    3492,    2360,    2358,    2355,    2356
      88,    3489,    3490,    3494,    3496,    2353,    2354,    2358,    2360
      89,    3488,    3489,    3496,    3495,    2352,    2353,    2360,    2359
      90,    3487,    3488,    3495,    3493,    2351,    2352,    2359,    2357
      91,    3485,    3486,    3487,    3493,    2349,    2350,    2351,    2357
      92,    3483,    3484,    3491,    3494,    2347,    2348,    2355,    2358
      93,    3482,    3483,    3494,    3490,    2346,    2347,    2358,    2354
      94,    3480,    3481,    3485,    3493,    2344,    2345,    2349,    2357
      95,    3479,    3480,    3493,    3492,    2343,    2344,    2357,    2356
      96,    3478,    3479,    3492,    3491,    2342,    2343,    2356,    2355
      97,    3477,    3478,    3491,    3484,    2341,    2342,    2355,    2348
      98,    3475,    3476,    3482,    3490,    2339,    2340,    2346,    2354
      99,    3474,    3475,    3490,    3489,    2338,    2339,    2354,    2353
     100,    3473,    3474,    3489,    3488,    2337,    2338,    2353,    2352
     101,    3472,    3473,    3488,    3487,    2336,    2337,    2352,    2351
     102,    3471,    3472,    3487,    3486,    2335,    2336,    2351,    2350
     103,    3469,    3470,    3471,    3486,    2333,    2334,    2335,    2350
     104,    3468,    3469,    3486,    3485,    2332,    2333,    2350,    2349
     105,    3467,    3468,    3485,    3481,    2331,    2332,    2349,    2345
     106,    3465,    3466,    3477,    3484,    2329,    2330,    2341,    2348
     107,    3464,    3465,    3484,    3483,    2328,    2329,    2348,    2347
     108,    3463,    3464,    3483,    3482,    2327,    2328,    2347,    2346
     109,    3462,    3463,    3482,    3476,    2326,    2327,    2346,    2340
     110,    3460,    3461,    3467,    3481,    2324,    2325,    2331,    2345
     111,    3459,    3460,    3481,    3480,    2323,    2324,    2345,    2344
     112,    3458,    3459,    3480,    3479,    2322,    2323,    2344,    2343
     113,    3457,    3458,    3479,    3478,    2321,    2322,    2343,    2342
     114,    3456,    3457,    3478,    3477,    2320,    2321,    2342,    2341
     115,    3455,    3456,    3477,    3466,    2319,    2320,    2341,    2330
     116,    3453,    3454,    3462,    3476,    2317,    2318,    2326,    2340
     117,    3452,    3453,    3476,    3475,    2316,    2317,    2340,    2339
     118,    3451,    3452,    3475,    3474,    2315,    2316,    2339,    2338
     119,    3450,    3451,    3474,    3473,    2314,    2315,    2338,    2337
     120,    3449,    3450,    3473,    3472,    2313,    2314,    2337,    2336
     121,    3448,    3449,    3472,    3471,    2312,    2313,    2336,    2335
     122,    3447,    3448,    3471,    3470,    2311,    2312,    2335,    2334
     123,    3445,    3446,    3447,    3470,    2309,    2310,    2311,    2334
     124,    3444,    3445,    3470,    3469,    2308,    2309,    2334,    2333
     125,    3443,    3444,    3469,    3468,    2307,    2308,    2333,    2332
     126,    3442,    3443,    3468,    3467,    2306,    2307,    2332,    2331
     127,    3441,    3442,    3467,    3461,    2305,    2306,    2331,    2325
     128,    3439,    3440,    3455,    3466,    2303,    2304,    2319,    2330
     129,    3438,    3439,    3466,    3465,    2302,    2303,    2330,    2329
     130,    3437,    3438,    3465,    3464,    2301,    2302,    2329,    2328
     131,    3436,    3437,    3464,    3463,    2300,    2301,    2328,    2327
     132,    3435,    3436,    3463,    3462,    2299,    2300,    2327,    2326
     133,    3434,    3435,    3462,    3454,    2298,    2299,    2326,    2318
     134,    3432,    3433,    3441,    3461,    2296,    2297,    2305,    2325
     135,    3431,    3432,    3461,    3460,    2295,    2296,    2325,    2324
     136,    3430,    3431,    3460,    3459,    2294,    2295,    2324,    2323
     137,    3429,    3430,    3459,    3458,    2293,    2294,    2323,    2322
     138,    3428,    3429,    3458,    3457,    2292,    2293,    2322,    2321
     139,    3427,    3428,    3457,    3456,    2291,    2292,    2321,    2320
     140,    3426,    3427,    3456,    3455,    2290,    2291,    2320,    2319
     141,    3425,    3426,    3455,    3440,    2289,    2290,    2319,    2304
     142,    3423,    3424,    3434,    3454,    2287,    2288,    2298,    2318
     143,    3422,    3423,    3454,    3453,    2286,    2287,    2318,    2317
     144,    3421,    3422,    3453,    3452,    2285,    2286,    2317,    2316
     145,    3420,    3421,    3452,    3451,    2284,    2285,    2316,    2315
     146,    3419,    3420,    3451,    3450,    2283,    2284,    2315,    2314
     147,    3418,    3419,    3450,    3449,    2282,    2283,    2314,    2313
     148,    3417,    3418,    3449,    3448,    2281,    2282,    2313,    2312
     149,    3416,    3417,    3448,    3447,    2280,    2281,    2312,    2311
     150,    3415,    3416,    3447,    3446,    2279,    2280,    2311,    2310
     151,    3413,    3414,    3415,    3446,    2277,    2278,    2279,    2310
     152,    3412,    3413,    3446,    3445,    2276,    2277,    2310,    2309
     153,    3411,    3412,    3445,    3444,    2275,    2276,    2309,    2308
     154,    3410,    3411,    3444,    3443,    2274,    2275,    2308,    2307
     155,    3409,    3410,    3443,    3442,    2273,    2274,    2307,    2306
     156,    3408,    3409,    3442,    3441,    2272,    2273,    2306,    2305
     157,    3407,    3408,    3441,    3433,    2271,    2272,    2305,    2297
     158,    3405,    3406,    3425,    3440,    2269,    2270,    2289,    2304
     159,    3404,    3405,    3440,    3439,    2268,    2269,    2304,    2303
     160,    3403,    3404,    3439,    3438,    2267,    2268,    2303,    2302
     161,    3402,    3403,    3438,    3437,    2266,    2267,    2302,    2301
     162,    3401,    3402,    3437,    3436,    2265,    2266,    2301,    2300
     163,    3400,    3401,    3436,    3435,    2264,    2265,    2300,    2299
     164,    3399,    3400,    3435,    3434,    2263,    2264,    2299,    2298
     165,    3398,    3399,    3434,    3424,    2262,    2263,    2298,    2288
     166,    3384,    3385,    3407,    3433,    2248,    2249,    2271,    2297
     167,    3383,    3384,    3433,    3432,    2247,    2248,    2297,    2296
     168,    3382,    3383,    3432,    3431,    2246,    2247,    2296,    2295
     169,    3381,    3382,    3431,    3430,    2245,    2246,    2295,    2294
     170,    3380,    3381,    3430,    3429,    2244,    2245,    2294,    2293
     171,    3379,    3380,    3429,    3428,    2243,    2244,    2293,    2292
     172,    3378,    3379,    3428,    3427,    2242,    2243,    2292,    2291
     173,    3377,    3378,    3427,    3426,    2241,    2242,    2291,    2290
     174,    3376,    3377,    3426,    3425,    2240,    2241,    2290,    2289
     175,    3375,    3376,    3425,    3406,    2239,    2240,    2289,    2270
     176,    3396,    3397,    3398,    3424,    2260,    2261,    2262,    2288
     177,    3395,    3396,    3424,    3423,    2259,    2260,    2288,    2287
     178,    3394,    3395,    3423,    3422,    2258,    2259,    2287,    2286
     179,    3393,    3394,    3422,    3421,    2257,    2258,    2286,    2285
     180,    3392,    3393,    3421,    3420,    2256,    2257,    2285,    2284
     181,    3391,    3392,    3420,    3419,    2255,    2256,    2284,    2283
     182,    3390,    3391,    3419,    3418,    2254,    2255,    2283,    2282
     183,    3389,    3390,    3418,    3417,    2253,    2254,    2282,    2281
     184,    3388,    3389,    3417,    3416,    2252,    2253,    2281,    2280
     185,    3387,    3388,    3416,    3415,    2251,    2252,    2280,    2279
     186,    3386,    3387,    3415,    3414,    2250,    2251,    2279,    2278
     187,    3373,    3374,    3386,    3414,    2237,    2238,    2250,    2278
     188,    3372,    3373,    3414,    3413,    2236,    2237,    2278,    2277
     189,    3371,    3372,    3413,    3412,    2235,    2236,    2277,    2276
     190,    3370,    3371,    3412,    3411,    2234,    2235,    2276,    2275
     191,    3369,    3370,    3411,    3410,    2233,    2234,    2275,    2274
     192,    3368,    3369,    3410,    3409,    2232,    2233,    2274,    2273
     193,    3367,    3368,    3409,    3408,    2231,    2232,    2273,    2272
     194,    3366,    3367,    3408,    3407,    2230,    2231,    2272,    2271
     195,    3365,    3366,    3407,    3385,    2229,    2230,    2271,    2249
     196,    3350,    3351,    3375,    3406,    2214,    2215,    2239,    2270
     197,    3349,    3350,    3406,    3405,    2213,    2214,    2270,    2269
     198,    3348,    3349,    3405,    3404,    2212,    2213,    2269,    2268
     199,    3347,    3348,    3404,    3403,    2211,    2212,    2268,    2267
     200,    3346,    3347,    3403,    3402,    2210,    2211,    2267,    2266
     201,    3345,    3346,    3402,    3401,    2209,    2210,    2266,    2265
     202,    3344,    3345,    3401,    3400,    2208,    2209,    2265,    2264
     203,    3343,    3344,    3400,    3399,    2207,    2208,    2264,    2263
     204,    3342,    3343,    3399,    3398,    2206,    2207,    2263,    2262
     205,    3341,    3342,    3398,    3397,    2205,    2206,    2262,    2261
     206,    3339,    3340,    3341,    3397,    2203,    2204,    2205,    2261
     207,    3338,    3339,    3397,    3396,    2202,    2203,    2261,    2260
     208,    3337,    3338,    3396,    3395,    2201,    2202,    2260,    2259
     209,    3336,    3337,    3395,    3394,    2200,    2201,    2259,    2258
     210,    3335,    3336,    3394,    3393,    2199,    2200,    2258,    2257
     211,    3334,    3335,    3393,    3392,    2198,    2199,    2257,    2256
     212,    3333,    3334,    3392,    3391,    2197,    2198,    2256,    2255
     213,    3332,    3333,    3391,    3390,    2196,    2197,    2255,    2254
     214,    3331,    3332,    3390,    3389,    2195,    2196,    2254,    2253
     215,    3330,    3331,    3389,    3388,    2194,    2195,    2253,    2252
     216,    3329,    3330,    3388,    3387,    2193,    2194,    2252,    2251
     217,    3328,    3329,    3387,    3386,    2192,    2193,    2251,    2250
     218,    3327,    3328,    3386,    3374,    2191,    2192,    2250,    2238
     219,    3363,    3364,    3365,    3385,    2227,    2228,    2229,    2249
     220,    3362,    3363,    3385,    3384,    2226,    2227,    2249,    2248
     221,    3361,    3362,    3384,    3383,    2225,    2226,    2248,    2247
     222,    3360,    3361,    3383,    3382,    2224,    2225,    2247,    2246
     223,    3359,    3360,    3382,    3381,    2223,    2224,    2246,    2245
     224,    3358,    3359,    3381,    3380,    2222,    2223,    2245,    2244
     225,    3357,    3358,    3380,    3379,    2221,    2222,    2244,    2243
     226,    3356,    3357,    3379,    3378,    2220,    2221,    2243,    2242
     227,    3355,    3356,    3378,    3377,    2219,    2220,    2242,    2241
     228,    3354,    3355,    3377,    3376,    2218,    2219,    2241,    2240
     229,    3353,    3354,    3376,    3375,    2217,    2218,    2240,    2239
     230,    3352,    3353,    3375,    3351,    2216,    2217,    2239,    2215
     231,    3312,    3313,    3327,    3374,    2176,    2177,    2191,    2238
     232,    3311,    3312,    3374,    3373,    2175,    2176,    2238,    2237
     233,    3310,    3311,    3373,    3372,    2174,    2175,    2237,    2236
     234,    3309,    3310,    3372,    3371,    2173,    2174,    2236,    2235
     235,    3308,    3309,    3371,    3370,    2172,    2173,    2235,    2234
     236,    3307,    3308,    3370,    3369,    2171,    2172,    2234,    2233
     237,    3306,    3307,    3369,    3368,    2170,    2171,    2233,    2232
     238,    3305,    3306,    3368,    3367,    2169,    2170,    2232,    2231
     239,    3304,    3305,    3367,    3366,    2168,    2169,    2231,    2230
     240,    3303,    3304,    3366,    3365,    2167,    2168,    2230,    2229
     241,    3302,    3303,    3365,    3364,    2166,    2167,    2229,    2228
     242,    3301,    3302,    3364,    3363,    2165,    2166,    2228,    2227
     243,    3300,    3301,    3363,    3362,    2164,    2165,    2227,    2226
     244,    3299,    3300,    3362,    3361,    2163,    2164,    2226,    2225
     245,    3298,    3299,    3361,    3360,    2162,    2163,    2225,    2224
     246,    3297,    3298,    3360,    3359,    2161,    2162,    2224,    2223
     247,    3296,    3297,    3359,    3358,    2160,    2161,    2223,    2222
     248,    3295,    3296,    3358,    3357,    2159,    2160,    2222,    2221
     249,    3294,    3295,    3357,    3356,    2158,    2159,    2221,    2220
     250,    3293,    3294,    3356,    3355,    2157,    2158,    2220,    2219
     251,    3292,    3293,    3355,    3354,    2156,    2157,    2219,    2218
     252,    3291,    3292,    3354,    3353,    2155,    2156,    2218,    2217
     253,    3290,    3291,    3353,    3352,    2154,    2155,    2217,    2216
     254,    3326,    3289,    3290,    3352,    2190,    2153,    2154,    2216
     255,    3325,    3326,    3352,    3351,    2189,    2190,    2216,    2215
     256,    3324,    3325,    3351,    3350,    2188,    2189,    2215,    2214
     257,    3323,    3324,    3350,    3349,    2187,    2188,    2214,    2213
     258,    3322,    3323,    3349,    3348,    2186,    2187,    2213,    2212
     259,    3321,    3322,    3348,    3347,    2185,    2186,    2212,    2211
     260,    3320,    3321,    3347,    3346,    2184,    2185,    2211,    2210
     261,    3319,    3320,    3346,    3345,    2183,    2184,    2210,    2209
     262,    3318,    3319,    3345,    3344,    2182,    2183,    2209,    2208
     263,    3317,    3318,    3344,    3343,    2181,    2182,    2208,    2207
     264,    3316,    3317,    3343,    3342,    2180,    2181,    2207,    2206
     265,    3315,    3316,    3342,    3341,    2179,    2180,    2206,    2205
     266,    3314,    3315,    3341,    3340,    2178,    2179,    2205,    2204
     267,    3287,    3288,    3314,    3340,    2151,    2152,    2178,    2204
     268,    3286,    3287,    3340,    3339,    2150,    2151,    2204,    2203
     269,    3285,    3286,    3339,    3338,    2149,    2150,    2203,    2202
     270,    3284,    3285,    3338,    3337,    2148,    2149,    2202,    2201
     271,    3283,    3284,    3337,    3336,    2147,    2148,    2201,    2200
     272,    3282,    3283,    3336,    3335,    2146,    2147,    2200,    2199
     273,    3281,    3282,    3335,    3334,    2145,    2146,    2199,    2198
     274,    3280,    3281,    3334,    3333,    2144,    2145,    2198,    2197
     275,    3279,    3280,    3333,    3332,    2143,    2144,    2197,    2196
     276,    3278,    3279,    3332,    3331,    2142,    2143,    2196,    2195
     277,    3277,    3278,    3331,    3330,    2141,    2142,    2195,    2194
     278,    3276,    3277,    3330,    3329,    2140,    2141,    2194,    2193
     279,    3275,    3276,    3329,    3328,    2139,    2140,    2193,    2192
     280,    3274,    3275,    3328,    3327,    2138,    2139,    2192,    2191
     281,    3273,    3274,    3327,    3313,    2137,    2138,    2191,    2177
     282,    1922,    1921,    3302,    3301,    1912,    1911,    2166,    2165
     283,    3241,    3242,    3289,    3326,    2123,    2122,    2153,    2190
     284,    3240,    3241,    3326,    3325,    2124,    2123,    2190,    2189
     285,    3239,    3240,    3325,    3324,    2125,    2124,    2189,    2188
     286,    3238,    3239,    3324,    3323,    2126,    2125,    2188,    2187
     287,    3237,    3238,    3323,    3322,    2127,    2126,    2187,    2186
     288,    3236,    3237,    3322,    3321,    2128,    2127,    2186,    2185
     289,    3235,    3236,    3321,    3320,    2129,    2128,    2185,    2184
     290,    3234,    3235,    3320,    3319,    2130,    2129,    2184,    2183
     291,    3233,    3234,    3319,    3318,    2131,    2130,    2183,    2182
     292,    3232,    3233,    3318,    3317,    2132,    2131,    2182,    2181
     293,    3231,    3232,    3317,    3316,    2133,    2132,    2181,    2180
     294,    3230,    3231,    3316,    3315,    2134,    2133,    2180,    2179
     295,    3229,    3230,    3315,    3314,    2135,    2134,    2179,    2178
     296,    3228,    3229,    3314,    3288,    2136,    2135,    2178,    2152
     297,    3255,    3256,    3273,    3313,    2093,    2092,    2137,    2177
     298,    3254,    3255,    3313,    3312,    2094,    2093,    2177,    2176
     299,    3253,    3254,    3312,    3311,    2095,    2094,    2176,    2175
     300,    3252,    3253,    3311,    3310,    2096,    2095,    2175,    2174
     301,    3251,    3252,    3310,    3309,    2097,    2096,    2174,    2173
     302,    3250,    3251,    3309,    3308,    2098,    2097,    2173,    2172
     303,    3249,    3250,    3308,    3307,    2099,    2098,    2172,    2171
     304,    3248,    3249,    3307,    3306,    2100,    2099,    2171,    2170
     305,    3247,    3248,    3306,    3305,    2101,    2100,    2170,    2169
     306,    3246,    3247,    3305,    3304,    2102,    2101,    2169,    2168
     307,    3245,    3246,    3304,    3303,    2103,    2102,    2168,    2167
     308,    3244,    3245,    3303,    3302,    2104,    2103,    2167,    2166
     309,    1920,    3244,    3302,    1921,    1910,    2104,    2166,    1911
     310,    3214,    1919,    1922,    3301,    2090,    1907,    1912,    2165
     311,    3215,    3214,    3301,    3300,    2089,    2090,    2165,    2164
     312,    3216,    3215,    3300,    3299,    2088,    2089,    2164,    2163
     313,    3217,    3216,    3299,    3298,    2087,    2088,    2163,    2162
     314,    3218,    3217,    3298,    3297,    2086,    2087,    2162,    2161
     315,    3219,    3218,    3297,    3296,    2085,    2086,    2161,    2160
     316,    3220,    3219,    3296,    3295,    2084,    2085,    2160,    2159
     317,    3221,    3220,    3295,    3294,    2083,    2084,    2159,    2158
     318,    3222,    3221,    3294,    3293,    2082,    2083,    2158,    2157
     319,    3223,    3222,    3293,    3292,    2081,    2082,    2157,    2156
     320,    3224,    3223,    3292,    3291,    2080,    2081,    2156,    2155
     321,    3225,    3224,    3291,    3290,    2079,    2080,    2155,    2154
     322,    3226,    3225,    3290,    3289,    2078,    2079,    2154,    2153
     323,    3213,    3226,    3289,    3242,    2077,    2078,    2153,    2122
     324,    3272,    3227,    3228,    3288,    2106,    2105,    2136,    2152
     325,    3271,    3272,    3288,    3287,    2107,    2106,    2152,    2151
     326,    3270,    3271,    3287,    3286,    2108,    2107,    2151,    2150
     327,    3269,    3270,    3286,    3285,    2109,    2108,    2150,    2149
     328,    3268,    3269,    3285,    3284,    2110,    2109,    2149,    2148
     329,    3267,    3268,    3284,    3283,    2111,    2110,    2148,    2147
     330,    3266,    3267,    3283,    3282,    2112,    2111,    2147,    2146
     331,    3265,    3266,    3282,    3281,    2113,    2112,    2146,    2145
     332,    3264,    3265,    3281,    3280,    2114,    2113,    2145,    2144
     333,    3263,    3264,    3280,    3279,    2115,    2114,    2144,    2143
     334,    3262,    3263,    3279,    3278,    2116,    2115,    2143,    2142
     335,    3261,    3262,    3278,    3277,    2117,    2116,    2142,    2141
     336,    3260,    3261,    3277,    3276,    2118,    2117,    2141,    2140
     337,    3259,    3260,    3276,    3275,    2119,    2118,    2140,    2139
     338,    3258,    3259,    3275,    3274,    2120,    2119,    2139,    2138
     339,    3257,    3258,    3274,    3273,    2121,    2120,    2138,    2137
     340,    3243,    3257,    3273,    3256,    2091,    2121,    2137,    2092
     341,    2356,    2357,    2359,    2360,    2760,    2761,    2763,    2764
     342,    2360,    2358,    2355,    2356,    2764,    2762,    2759,    2760
     343,    2353,    2354,    2358,    2360,    2757,    2758,    2762,    2764
     344,    2352,    2353,    2360,    2359,    2756,    2757,    2764,    2763
     345,    2351,    2352,    2359,    2357,    2755,    2756,    2763,    2761
     346,    2349,    2350,    2351,    2357,    2753,    2754,    2755,    2761
     347,    2347,    2348,    2355,    2358,    2751,    2752,    2759,    2762
     348,    2346,    2347,    2358,    2354,    2750,    2751,    2762,    2758
     349,    2344,    2345,    2349,    2357,    2748,    2749,    2753,    2761
     350,    2343,    2344,    2357,    2356,    2747,    2748,    2761,    2760
     351,    2342,    2343,    2356,    2355,    2746,    2747,    2760,    2759
     352,    2341,    2342,    2355,    2348,    2745,    2746,    2759,    2752
     353,    2339,    2340,    2346,    2354,    2743,    2744,    2750,    2758
     354,    2338,    2339,    2354,    2353,    2742,    2743,    2758,    2757
     355,    2337,    2338,    2353,    2352,    2741,    2742,    2757,    2756
     356,    2336,    2337,    2352,    2351,    2740,    2741,    2756,    2755
     357,    2335,    2336,    2351,    2350,    2739,    2740,    2755,    2754
     358,    2333,    2334,    2335,    2350,    2737,    2738,    2739,    2754
     359,    2332,    2333,    2350,    2349,    2736,    2737,    2754,    2753
     360,    2331,    2332,    2349,    2345,    2735,    2736,    2753,    2749
     361,    2329,    2330,    2341,    2348,    2733,    2734,    2745,    2752
     362,    2328,    2329,    2348,    2347,    2732,    2733,    2752,    2751
     363,    2327,    2328,    2347,    2346,    2731,    2732,    2751,    2750
     364,    2326,    2327,    2346,    2340,    2730,    2731,    2750,    2744
     365,    2324,    2325,    2331,    2345,    2728,    2729,    2735,    2749
     366,    2323,    2324,    2345,    2344,    2727,    2728,    2749,    2748
     367,    2322,    2323,    2344,    2343,    2726,    2727,    2748,    2747
     368,    2321,    2322,    2343,    2342,    2725,    2726,    2747,    2746
     369,    2320,    2321,    2342,    2341,    2724,    2725,    2746,    2745
     370,    2319,    2320,    2341,    2330,    2723,    2724,    2745,    2734
     371,    2317,    2318,    2326,    2340,    2721,    2722,    2730,    2744
     372,    2316,    2317,    2340,    2339,    2720,    2721,    2744,    2743
     373,    2315,    2316,    2339,    2338,    2719,    2720,    2743,    2742
     374,    2314,    2315,    2338,    2337,    2718,    2719,    2742,    2741
     375,    2313,    2314,    2337,    2336,    2717,    2718,    2741,    2740
     376,    2312,    2313,    2336,    2335,    2716,    2717,    2740,    2739
     377,    2311,    2312,    2335,    2334,    2715,    2716,    2739,    2738
     378,    2309,    2310,    2311,    2334,    2713,    2714,    2715,    2738
     379,    2308,    2309,    2334,    2333,    2712,    2713,    2738,    2737
     380,    2307,    2308,    2333,    2332,    2711,    2712,    2737,    2736
     381,    2306,    2307,    2332,    2331,    2710,    2711,    2736,    2735
     382,    2305,    2306,    2331,    2325,    2709,    2710,    2735,    2729
     383,    2303,    2304,    2319,    2330,    2707,    2708,    2723,    2734
     384,    2302,    2303,    2330,    2329,    2706,    2707,    2734,    2733
     385,    2301,    2302,    2329,    2328,    2705,    2706,    2733,    2732
     386,    2300,    2301,    2328,    2327,    2704,    2705,    2732,    2731
     387,    2299,    2300,    2327,    2326,    2703,    2704,    2731,    2730
     388,    2298,    2299,    2326,    2318,    2702,    2703,    2730,    2722
     389,    2296,    2297,    2305,    2325,    2700,    2701,    2709,    2729
     390,    2295,    2296,    2325,    2324,    2699,    2700,    2729,    2728
     391,    2294,    2295,    2324,    2323,    2698,    2699,    2728,    2727
     392,    2293,    2294,    2323,    2322,    2697,    2698,    2727,    2726
     393,    2292,    2293,    2322,    2321,    2696,    2697,    2726,    2725
     394,    2291,    2292,    2321,    2320,    2695,    2696,    2725,    2724
     395,    2290,    2291,    2320,    2319,    2694,    2695,    2724,    2723
     396,    2289,    2290,    2319,    2304,    2693,    2694,    2723,    2708
     397,    2287,    2288,    2298,    2318,    2691,    2692,    2702,    2722
     398,    2286,    2287,    2318,    2317,    2690,    2691,    2722,    2721
     399,    2285,    2286,    2317,    2316,    2689,    2690,    2721,    2720
     400,    2284,    2285,    2316,    2315,    2688,    2689,    2720,    2719
     401,    2283,    2284,    2315,    2314,    2687,    2688,    2719,    2718
     402,    2282,    2283,    2314,    2313,    2686,    2687,    2718,    2717
     403,    2281,    2282,    2313,    2312,    2685,    2686,    2717,    2716
     404,    2280,    2281,    2312,    2311,    2684,    2685,    2716,    2715
     405,    2279,    2280,    2311,    2310,    2683,    2684,    2715,    2714
     406,    2277,    2278,    2279,    2310,    2681,    2682,    2683,    2714
     407,    2276,    2277,    2310,    2309,    2680,    2681,    2714,    2713
     408,    2275,    2276,    2309,    2308,    2679,    2680,    2713,    2712
     409,    2274,    2275,    2308,    2307,    2678,    2679,    2712,    2711
     410,    2273,    2274,    2307,    2306,    2677,    2678,    2711,    2710
     411,    2272,    2273,    2306,    2305,    2676,    2677,    2710,    2709
     412,    2271,    2272,    2305,    2297,    2675,    2676,    2709,    2701
     413,    2269,    2270,    2289,    2304,    2673,    2674,    2693,    2708
     414,    2268,    2269,    2304,    2303,    2672,    2673,    2708,    2707
     415,    2267,    2268,    2303,    2302,    2671,    2672,    2707,    2706
     416,    2266,    2267,    2302,    2301,    2670,    2671,    2706,    2705
     417,    2265,    2266,    2301,    2300,    2669,    2670,    2705,    2704
     418,    2264,    2265,    2300,    2299,    2668,    2669,    2704,    2703
     419,    2263,    2264,    2299,    2298,    2667,    2668,    2703,    2702
     420,    2262,    2263,    2298,    2288,    2666,    2667,    2702,    2692
     421,    2248,    2249,    2271,    2297,    2652,    2653,    2675,    2701
     422,    2247,    2248,    2297,    2296,    2651,    2652,    2701,    2700
     423,    2246,    2247,    2296,    2295,    2650,    2651,    2700,    2699
     424,    2245,    2246,    2295,    2294,    2649,    2650,    2699,    2698
     425,    2244,    2245,    2294,    2293,    2648,    2649,    2698,    2697
     426,    2243,    2244,    2293,    2292,    2647,    2648,    2697,    2696
     427,    2242,    2243,    2292,    2291,    2646,    2647,    2696,    2695
     428,    2241,    2242,    2291,    2290,    2645,    2646,    2695,    2694
     429,    2240,    2241,    2290,    2289,    2644,    2645,    2694,    2693
     430,    2239,    2240,    2289,    2270,    2643,    2644,    2693,    2674
     431,    2260,    2261,    2262,    2288,    2664,    2665,    2666,    2692
     432,    2259,    2260,    2288,    2287,    2663,    2664,    2692,    2691
     433,    2258,    2259,    2287,    2286,    2662,    2663,    2691,    2690
     434,    2257,    2258,    2286,    2285,    2661,    2662,    2690,    2689
     435,    2256,    2257,    2285,    2284,    2660,    2661,    2689,    2688
     436,    2255,    2256,    2284,    2283,    2659,    2660,    2688,    2687
     437,    2254,    2255,    2283,    2282,    2658,    2659,    2687,    2686
     438,    2253,    2254,    2282,    2281,    2657,    2658,    2686,    2685
     439,    2252,    2253,    2281,    2280,    2656,    2657,    2685,    2684
     440,    2251,    2252,    2280,    2279,    2655,    2656,    2684,    2683
     441,    2250,    2251,    2279,    2278,    2654,    2655,    2683,    2682
     442,    2237,    2238,    2250,    2278,    2641,    2642,    2654,    2682
     443,    2236,    2237,    2278,    2277,    2640,    2641,    2682,    2681
     444,    2235,    2236,    2277,    2276,    2639,    2640,    2681,    2680
     445,    2234,    2235,    2276,    2275,    2638,    2639,    2680,    2679
     446,    2233,    2234,    2275,    2274,    2637,    2638,    2679,    2678
     447,    2232,    2233,    2274,    2273,    2636,    2637,    2678,    2677
     448,    2231,    2232,    2273,    2272,    2635,    2636,    2677,    2676
     449,    2230,    2231,    2272,    2271,    2634,    2635,    2676,    2675
     450,    2229,    2230,    2271,    2249,    2633,    2634,    2675,    2653
     451,    2214,    2215,    2239,    2270,    2618,    2619,    2643,    2674
     452,    2213,    2214,    2270,    2269,    2617,    2618,    2674,    2673
     453,    2212,    2213,    2269,    2268,    2616,    2617,    2673,    2672
     454,    2211,    2212,    2268,    2267,    2615,    2616,    2672,    2671
     455,    2210,    2211,    2267,    2266,    2614,    2615,    2671,    2670
     456,    2209,    2210,    2266,    2265,    2613,    2614,    2670,    2669
     457,    2208,    2209,    2265,    2264,    2612,    2613,    2669,    2668
     458,    2207,    2208,    2264,    2263,    2611,    2612,    2668,    2667
     459,    2206,    2207,    2263,    2262,    2610,    2611,    2667,    2666
     460,    2205,    2206,    2262,    2261,    2609,    2610,    2666,    2665
     461,    2203,    2204,    2205,    2261,    2607,    2608,    2609,    2665
     462,    2202,    2203,    2261,    2260,    2606,    2607,    2665,    2664
     463,    2201,    2202,    2260,    2259,    2605,    2606,    2664,    2663
     464,    2200,    2201,    2259,    2258,    2604,    2605,    2663,    2662
     465,    2199,    2200,    2258,    2257,    2603,    2604,    2662,    2661
     466,    2198,    2199,    2257,    2256,    2602,    2603,    2661,    2660
     467,    2197,    2198,    2256,    2255,    2601,    2602,    2660,    2659
     468,    2196,    2197,    2255,    2254,    2600,    2601,    2659,    2658
     469,    2195,    2196,    2254,    2253,    2599,    2600,    2658,    2657
     470,    2194,    2195,    2253,    2252,    2598,    2599,    2657,    2656
     471,    2193,    2194,    2252,    2251,    2597,    2598,    2656,    2655
     472,    2192,    2193,    2251,    2250,    2596,    2597,    2655,    2654
     473,    2191,    2192,    2250,    2238,    2595,    2596,    2654,    2642
     474,    2227,    2228,    2229,    2249,    2631,    2632,    2633,    2653
     475,    2226,    2227,    2249,    2248,    2630,    2631,    2653,    2652
     476,    2225,    2226,    2248,    2247,    2629,    2630,    2652,    2651
     477,    2224,    2225,    2247,    2246,    2628,    2629,    2651,    2650
     478,    2223,    2224,    2246,    2245,    2627,    2628,    2650,    2649
     479,    2222,    2223,    2245,    2244,    2626,    2627,    2649,    2648
     480,    2221,    2222,    2244,    2243,    2625,    2626,    2648,    2647
     481,    2220,    2221,    2243,    2242,    2624,    2625,    2647,    2646
     482,    2219,    2220,    2242,    2241,    2623,    2624,    2646,    2645
     483,    2218,    2219,    2241,    2240,    2622,    2623,    2645,    2644
     484,    2217,    2218,    2240,    2239,    2621,    2622,    2644,    2643
     485,    2216,    2217,    2239,    2215,    2620,    2621,    2643,    2619
     486,    2176,    2177,    2191,    2238,    2580,    2581,    2595,    2642
     487,    2175,    2176,    2238,    2237,    2579,    2580,    2642,    2641
     488,    2174,    2175,    2237,    2236,    2578,    2579,    2641,    2640
     489,    2173,    2174,    2236,    2235,    2577,    2578,    2640,    2639
     490,    2172,    2173,    2235,    2234,    2576,    2577,    2639,    2638
     491,    2171,    2172,    2234,    2233,    2575,    2576,    2638,    2637
     492,    2170,    2171,    2233,    2232,    2574,    2575,    2637,    2636
     493,    2169,    2170,    2232,    2231,    2573,    2574,    2636,    2635
     494,    2168,    2169,    2231,    2230,    2572,    2573,    2635,    2634
     495,    2167,    2168,    2230,    2229,    2571,    2572,    2634,    2633
     496,    2166,    2167,    2229,    2228,    2570,    2571,    2633,    2632
     497,    2165,    2166,    2228,    2227,    2569,    2570,    2632,    2631
     498,    2164,    2165,    2227,    2226,    2568,    2569,    2631,    2630
     499,    2163,    2164,    2226,    2225,    2567,    2568,    2630,    2629
     500,    2162,    2163,    2225,    2224,    2566,    2567,    2629,    2628
     501,    2161,    2162,    2224,    2223,    2565,    2566,    2628,    2627
     502,    2160,    2161,    2223,    2222,    2564,    2565,    2627,    2626
     503,    2159,    2160,    2222,    2221,    2563,    2564,    2626,    2625
     504,    2158,    2159,    2221,    2220,    2562,    2563,    2625,    2624
     505,    2157,    2158,    2220,    2219,    2561,    2562,    2624,    2623
     506,    2156,    2157,    2219,    2218,    2560,    2561,    2623,    2622
     507,    2155,    2156,    2218,    2217,    2559,    2560,    2622,    2621
     508,    2154,    2155,    2217,    2216,    2558,    2559,    2621,    2620
     509,    2190,    2153,    2154,    2216,    2594,    2557,    2558,    2620
     510,    2189,    2190,    2216,    2215,    2593,    2594,    2620,    2619
     511,    2188,    2189,    2215,    2214,    2592,    2593,    2619,    2618
     512,    2187,    2188,    2214,    2213,    2591,    2592,    2618,    2617
     513,    2186,    2187,    2213,    2212,    2590,    2591,    2617,    2616
     514,    2185,    2186,    2212,    2211,    2589,    2590,    2616,    2615
     515,    2184,    2185,    2211,    2210,    2588,    2589,    2615,    2614
     516,    2183,    2184,    2210,    2209,    2587,    2588,    2614,    2613
     517,    2182,    2183,    2209,    2208,    2586,    2587,    2613,    2612
     518,    2181,    2182,    2208,    2207,    2585,    2586,    2612,    2611
     519,    2180,    2181,    2207,    2206,    2584,    2585,    2611,    2610
     520,    2179,    2180,    2206,    2205,    2583,    2584,    2610,    2609
     521,    2178,    2179,    2205,    2204,    2582,    2583,    2609,    2608
     522,    2151,    2152,    2178,    2204,    2555,    2556,    2582,    2608
     523,    2150,    2151,    2204,    2203,    2554,    2555,    2608,    2607
     524,    2149,    2150,    2203,    2202,    2553,    2554,    2607,    2606
     525,    2148,    2149,    2202,    2201,    2552,    2553,    2606,    2605
     526,    2147,    2148,    2201,    2200,    2551,    2552,    2605,    2604
     527,    2146,    2147,    2200,    2199,    2550,    2551,    2604,    2603
     528,    2145,    2146,    2199,    2198,    2549,    2550,    2603,    2602
     529,    2144,    2145,    2198,    2197,    2548,    2549,    2602,    2601
     530,    2143,    2144,    2197,    2196,    2547,    2548,    2601,    2600
     531,    2142,    2143,    2196,    2195,    2546,    2547,    2600,    2599
     532,    2141,    2142,    2195,    2194,    2545,    2546,    2599,    2598
     533,    2140,    2141,    2194,    2193,    2544,    2545,    2598,    2597
     534,    2139,    2140,    2193,    2192,    2543,    2544,    2597,    2596
     535,    2138,    2139,    2192,    2191,    2542,    2543,    2596,    2595
     536,    2137,    2138,    2191,    2177,    2541,    2542,    2595,    2581
     537,    1912,    1911,    2166,    2165,    1916,    1918,    2570,    2569
     538,    2123,    2122,    2153,    2190,    2423,    2421,    2557,    2594
     539,    2124,    2123,    2190,    2189,    2425,    2423,    2594,    2593
     540,    2125,    2124,    2189,    2188,    2427,    2425,    2593,    2592
     541,    2126,    2125,    2188,    2187,    2429,    2427,    2592,    2591
     542,    2127,    2126,    2187,    2186,    2431,    2429,    2591,    2590
     543,    2128,    2127,    2186,    2185,    2433,    2431,    2590,    2589
     544,    2129,    2128,    2185,    2184,    2435,    2433,    2589,    2588
     545,    2130,    2129,    2184,    2183,    2437,    2435,    2588,    2587
     546,    2131,    2130,    2183,    2182,    2439,    2437,    2587,    2586
     547,    2132,    2131,    2182,    2181,    2441,    2439,    2586,    2585
     548,    2133,    2132,    2181,    2180,    2443,    2441,    2585,    2584
     549,    2134,    2133,    2180,    2179,    2445,    2443,    2584,    2583
     550,    2135,    2134,    2179,    2178,    2447,    2445,    2583,    2582
     551,    2136,    2135,    2178,    2152,    2449,    2447,    2582,    2556
     552,    2093,    2092,    2137,    2177,    2478,    2479,    2541,    2581
     553,    2094,    2093,    2177,    2176,    2477,    2478,    2581,    2580
     554,    2095,    2094,    2176,    2175,    2476,    2477,    2580,    2579
     555,    2096,    2095,    2175,    2174,    2475,    2476,    2579,    2578
     556,    2097,    2096,    2174,    2173,    2474,    2475,    2578,    2577
     557,    2098,    2097,    2173,    2172,    2473,    2474,    2577,    2576
     558,    2099,    2098,    2172,    2171,    2472,    2473,    2576,    2575
     559,    2100,    2099,    2171,    2170,    2471,    2472,    2575,    2574
     560,    2101,    2100,    2170,    2169,    2470,    2471,    2574,    2573
     561,    2102,    2101,    2169,    2168,    2469,    2470,    2573,    2572
     562,    2103,    2102,    2168,    2167,    2468,    2469,    2572,    2571
     563,    2104,    2103,    2167,    2166,    2467,    2468,    2571,    2570
     564,    1910,    2104,    2166,    1911,    1914,    2467,    2570,    1918
     565,    2090,    1907,    1912,    2165,    2377,    1909,    1916,    2569
     566,    2089,    2090,    2165,    2164,    2379,    2377,    2569,    2568
     567,    2088,    2089,    2164,    2163,    2381,    2379,    2568,    2567
     568,    2087,    2088,    2163,    2162,    2383,    2381,    2567,    2566
     569,    2086,    2087,    2162,    2161,    2385,    2383,    2566,    2565
     570,    2085,    2086,    2161,    2160,    2387,    2385,    2565,    2564
     571,    2084,    2085,    2160,    2159,    2389,    2387,    2564,    2563
     572,    2083,    2084,    2159,    2158,    2391,    2389,    2563,    2562
     573,    2082,    2083,    2158,    2157,    2393,    2391,    2562,    2561
     574,    2081,    2082,    2157,    2156,    2395,    2393,    2561,    2560
     575,    2080,    2081,    2156,    2155,    2397,    2395,    2560,    2559
     576,    2079,    2080,    2155,    2154,    2399,    2397,    2559,    2558
     577,    2078,    2079,    2154,    2153,    2401,    2399,    2558,    2557
     578,    2077,    2078,    2153,    2122,    2375,    2401,    2557,    2421
     579,    2106,    2105,    2136,    2152,    2540,    2420,    2449,    2556
     580,    2107,    2106,    2152,    2151,    2538,    2540,    2556,    2555
     581,    2108,    2107,    2151,    2150,    2536,    2538,    2555,    2554
     582,    2109,    2108,    2150,    2149,    2534,    2536,    2554,    2553
     583,    2110,    2109,    2149,    2148,    2532,    2534,    2553,    2552
     584,    2111,    2110,    2148,    2147,    2530,    2532,    2552,    2551
     585,    2112,    2111,    2147,    2146,    2528,    2530,    2551,    2550
     586,    2113,    2112,    2146,    2145,    2526,    2528,    2550,    2549
     587,    2114,    2113,    2145,    2144,    2524,    2526,    2549,    2548
     588,    2115,    2114,    2144,    2143,    2522,    2524,    2548,    2547
     589,    2116,    2115,    2143,    2142,    2520,    2522,    2547,    2546
     590,    2117,    2116,    2142,    2141,    2518,    2520,    2546,    2545
     591,    2118,    2117,    2141,    2140,    2516,    2518,    2545,    2544
     592,    2119,    2118,    2140,    2139,    2514,    2516,    2544,    2543
     593,    2120,    2119,    2139,    2138,    2512,    2514,    2543,    2542
     594,    2121,    2120,    2138,    2137,    2510,    2512,    2542,    2541
     595,    2091,    2121,    2137,    2092,    2452,    2510,    2541,    2479
     596,    2760,    2761,    2763,    2764,    2984,    2985,    2987,    2988
     597,    2764,    2762,    2759,    2760,    2988,    2986,    2983,    2984
     598,    2757,    2758,    2762,    2764,    2981,    2982,    2986,    2988
     599,    2756,    2757,    2764,    2763,    2980,    2981,    2988,    2987
     600,    2755,    2756,    2763,    2761,    2979,    2980,    2987,    2985
     601,    2753,    2754,    2755,    2761,    2977,    2978,    2979,    2985
     602,    2751,    2752,    2759,    2762,    2975,    2976,    2983,    2986
     603,    2750,    2751,    2762,    2758,    2974,    2975,    2986,    2982
     604,    2748,    2749,    2753,    2761,    2972,    2973,    2977,    2985
     605,    2747,    2748,    2761,    2760,    2971,    2972,    2985,    2984
     606,    2746,    2747,    2760,    2759,    2970,    2971,    2984,    2983
     607,    2745,    2746,    2759,    2752,    2969,    2970,    2983,    2976
     608,    2743,    2744,    2750,    2758,    2967,    2968,    2974,    2982
     609,    2742,    2743,    2758,    2757,    2966,    2967,    2982,    2981
     610,    2741,    2742,    2757,    2756,    2965,    2966,    2981,    2980
     611,    2740,    2741,    2756,    2755,    2964,    2965,    2980,    2979
     612,    2739,    2740,    2755,    2754,    2963,    2964,    2979,    2978
     613,    2737,    2738,    2739,    2754,    2961,    2962,    2963,    2978
     614,    2736,    2737,    2754,    2753,    2960,    2961,    2978,    2977
     615,    2735,    2736,    2753,    2749,    2959,    2960,    2977,    2973
     616,    2733,    2734,    2745,    2752,    2957,    2958,    2969,    2976
     617,    2732,    2733,    2752,    2751,    2956,    2957,    2976,    2975
     618,    2731,    2732,    2751,    2750,    2955,    2956,    2975,    2974
     619,    2730,    2731,    2750,    2744,    2954,    2955,    2974,    2968
     620,    2728,    2729,    2735,    2749,    2952,    2953,    2959,    2973
     621,    2727,    2728,    2749,    2748,    2951,    2952,    2973,    2972
     622,    2726,    2727,    2748,    2747,    2950,    2951,    2972,    2971
     623,    2725,    2726,    2747,    2746,    2949,    2950,    2971,    2970
     624,    2724,    2725,    2746,    2745,    2948,    2949,    2970,    2969
     625,    2723,    2724,    2745,    2734,    2947,    2948,    2969,    2958
     626,    2721,    2722,    2730,    2744,    2945,    2946,    2954,    2968
     627,    2720,    2721,    2744,    2743,    2944,    2945,    2968,    2967
     628,    2719,    2720,    2743,    2742,    2943,    2944,    2967,    2966
     629,    2718,    2719,    2742,    2741,    2942,    2943,    2966,    2965
     630,    2717,    2718,    2741,    2740,    2941,    2942,    2965,    2964
     631,    2716,    2717,    2740,    2739,    2940,    2941,    2964,    2963
     632,    2715,    2716,    2739,    2738,    2939,    2940,    2963,    2962
     633,    2713,    2714,    2715,    2738,    2937,    2938,    2939,    2962
     634,    2712,    2713,    2738,    2737,    2936,    2937,    2962,    2961
     635,    2711,    2712,    2737,    2736,    2935,    2936,    2961,    2960
     636,    2710,    2711,    2736,    2735,    2934,    2935,    2960,    2959
     637,    2709,    2710,    2735,    2729,    2933,    2934,    2959,    2953
     638,    2707,    2708,    2723,    2734,    2931,    2932,    2947,    2958
     639,    2706,    2707,    2734,    2733,    2930,    2931,    2958,    2957
     640,    2705,    2706,    2733,    2732,    2929,    2930,    2957,    2956
     641,    2704,    2705,    2732,    2731,    2928,    2929,    2956,    2955
     642,    2703,    2704,    2731,    2730,    2927,    2928,    2955,    2954
     643,    2702,    2703,    2730,    2722,    2926,    2927,    2954,    2946
     644,    2700,    2701,    2709,    2729,    2924,    2925,    2933,    2953
     645,    2699,    2700,    2729,    2728,    2923,    2924,    2953,    2952
     646,    2698,    2699,    2728,    2727,    2922,    2923,    2952,    2951
     647,    2697,    2698,    2727,    2726,    2921,    2922,    2951,    2950
     648,    2696,    2697,    2726,    2725,    2920,    2921,    2950,    2949
     649,    2695,    2696,    2725,    2724,    2919,    2920,    2949,    2948
     650,    2694,    2695,    2724,    2723,    2918,    2919,    2948,    2947
     651,    2693,    2694,    2723,    2708,    2917,    2918,    2947,    2932
     652,    2691,    2692,    2702,    2722,    2915,    2916,    2926,    2946
     653,    2690,    2691,    2722,    2721,    2914,    2915,    2946,    2945
     654,    2689,    2690,    2721,    2720,    2913,    2914,    2945,    2944
     655,    2688,    2689,    2720,    2719,    2912,    2913,    2944,    2943
     656,    2687,    2688,    2719,    2718,    2911,    2912,    2943,    2942
     657,    2686,    2687,    2718,    2717,    2910,    2911,    2942,    2941
     658,    2685,    2686,    2717,    2716,    2909,    2910,    2941,    2940
     659,    2684,    2685,    2716,    2715,    2908,    2909,    2940,    2939
     660,    2683,    2684,    2715,    2714,    2907,    2908,    2939,    2938
     661,    2681,    2682,    2683,    2714,    2905,    2906,    2907,    2938
     662,    2680,    2681,    2714,    2713,    2904,    2905,    2938,    2937
     663,    2679,    2680,    2713,    2712,    2903,    2904,    2937,    2936
     664,    2678,    2679,    2712,    2711,    2902,    2903,    2936,    2935
     665,    2677,    2678,    2711,    2710,    2901,    2902,    2935,    2934
     666,    2676,    2677,    2710,    2709,    2900,    2901,    2934,    2933
     667,    2675,    2676,    2709,    2701,    2899,    2900,    2933,    2925
     668,    2673,    2674,    2693,    2708,    2897,    2898,    2917,    2932
     669,    2672,    2673,    2708,    2707,    2896,    2897,    2932,    2931
     670,    2671,    2672,    2707,    2706,    2895,    2896,    2931,    2930
     671,    2670,    2671,    2706,    2705,    2894,    2895,    2930,    2929
     672,    2669,    2670,    2705,    2704,    2893,    2894,    2929,    2928
     673,    2668,    2669,    2704,    2703,    2892,    2893,    2928,    2927
     674,    2667,    2668,    2703,    2702,    2891,    2892,    2927,    2926
     675,    2666,    2667,    2702,    2692,    2890,    2891,    2926,    2916
     676,    2652,    2653,    2675,    2701,    2876,    2877,    2899,    2925
     677,    2651,    2652,    2701,    2700,    2875,    2876,    2925,    2924
     678,    2650,    2651,    2700,    2699,    2874,    2875,    2924,    2923
     679,    2649,    2650,    2699,    2698,    2873,    2874,    2923,    2922
     680,    2648,    2649,    2698,    2697,    2872,    2873,    2922,    2921
     681,    2647,    2648,    2697,    2696,    2871,    2872,    2921,    2920
     682,    2646,    2647,    2696,    2695,    2870,    2871,    2920,    2919
     683,    2645,    2646,    2695,    2694,    2869,    2870,    2919,    2918
     684,    2644,    2645,    2694,    2693,    2868,    2869,    2918,    2917
     685,    2643,    2644,    2693,    2674,    2867,    2868,    2917,    2898
     686,    2664,    2665,    2666,    2692,    2888,    2889,    2890,    2916
     687,    2663,    2664,    2692,    2691,    2887,    2888,    2916,    2915
     688,    2662,    2663,    2691,    2690,    2886,    2887,    2915,    2914
     689,    2661,    2662,    2690,    2689,    2885,    2886,    2914,    2913
     690,    2660,    2661,    2689,    2688,    2884,    2885,    2913,    2912
     691,    2659,    2660,    2688,    2687,    2883,    2884,    2912,    2911
     692,    2658,    2659,    2687,    2686,    2882,    2883,    2911,    2910
     693,    2657,    2658,    2686,    2685,    2881,    2882,    2910,    2909
     694,    2656,    2657,    2685,    2684,    2880,    2881,    2909,    2908
     695,    2655,    2656,    2684,    2683,    2879,    2880,    2908,    2907
     696,    2654,    2655,    2683,    2682,    2878,    2879,    2907,    2906
     697,    2641,    2642,    2654,    2682,    2865,    2866,    2878,    2906
     698,    2640,    2641,    2682,    2681,    2864,    2865,    2906,    2905
     699,    2639,    2640,    2681,    2680,    2863,    2864,    2905,    2904
     700,    2638,    2639,    2680,    2679,    2862,    2863,    2904,    2903
     701,    2637,    2638,    2679,    2678,    2861,    2862,    2903,    2902
     702,    2636,    2637,    2678,    2677,    2860,    2861,    2902,    2901
     703,    2635,    2636,    2677,    2676,    2859,    2860,    2901,    2900
     704,    2634,    2635,    2676,    2675,    2858,    2859,    2900,    2899
     705,    2633,    2634,    2675,    2653,    2857,    2858,    2899,    2877
     706,    2618,    2619,    2643,    2674,    2842,    2843,    2867,    2898
     707,    2617,    2618,    2674,    2673,    2841,    2842,    2898,    2897
     708,    2616,    2617,    2673,    2672,    2840,    2841,    2897,    2896
     709,    2615,    2616,    2672,    2671,    2839,    2840,    2896,    2895
     710,    2614,    2615,    2671,    2670,    2838,    2839,    2895,    2894
     711,    2613,    2614,    2670,    2669,    2837,    2838,    2894,    2893
     712,    2612,    2613,    2669,    2668,    2836,    2837,    2893,    2892
     713,    2611,    2612,    2668,    2667,    2835,    2836,    2892,    2891
     714,    2610,    2611,    2667,    2666,    2834,    2835,    2891,    2890
     715,    2609,    2610,    2666,    2665,    2833,    2834,    2890,    2889
     716,    2607,    2608,    2609,    2665,    2831,    2832,    2833,    2889
     717,    2606,    2607,    2665,    2664,    2830,    2831,    2889,    2888
     718,    2605,    2606,    2664,    2663,    2829,    2830,    2888,    2887
     719,    2604,    2605,    2663,    2662,    2828,    2829,    2887,    2886
     720,    2603,    2604,    2662,    2661,    2827,    2828,    2886,    2885
     721,    2602,    2603,    2661,    2660,    2826,    2827,    2885,    2884
     722,    2601,    2602,    2660,    2659,    2825,    2826,    2884,    2883
     723,    2600,    2601,    2659,    2658,    2824,    2825,    2883,    2882
     724,    2599,    2600,    2658,    2657,    2823,    2824,    2882,    2881
     725,    2598,    2599,    2657,    2656,    2822,    2823,    2881,    2880
     726,    2597,    2598,    2656,    2655,    2821,    2822,    2880,    2879
     727,    2596,    2597,    2655,    2654,    2820,    2821,    2879,    2878
     728,    2595,    2596,    2654,    2642,    2819,    2820,    2878,    2866
     729,    2631,    2632,    2633,    2653,    2855,    2856,    2857,    2877
     730,    2630,    2631,    2653,    2652,    2854,    2855,    2877,    2876
     731,    2629,    2630,    2652,    2651,    2853,    2854,    2876,    2875
     732,    2628,    2629,    2651,    2650,    2852,    2853,    2875,    2874
     733,    2627,    2628,    2650,    2649,    2851,    2852,    2874,    2873
     734,    2626,    2627,    2649,    2648,    2850,    2851,    2873,    2872
     735,    2625,    2626,    2648,    2647,    2849,    2850,    2872,    2871
     736,    2624,    2625,    2647,    2646,    2848,    2849,    2871,    2870
     737,    2623,    2624,    2646,    2645,    2847,    2848,    2870,    2869
     738,    2622,    2623,    2645,    2644,    2846,    2847,    2869,    2868
     739,    2621,    2622,    2644,    2643,    2845,    2846,    2868,    2867
     740,    2620,    2621,    2643,    2619,    2844,    2845,    2867,    2843
     741,    2580,    2581,    2595,    2642,    2804,    2805,    2819,    2866
     742,    2579,    2580,    2642,    2641,    2803,    2804,    2866,    2865
     743,    2578,    2579,    2641,    2640,    2802,    2803,    2865,    2864
     744,    2577,    2578,    2640,    2639,    2801,    2802,    2864,    2863
     745,    2576,    2577,    2639,    2638,    2800,    2801,    2863,    2862
     746,    2575,    2576,    2638,    2637,    2799,    2800,    2862,    2861
     747,    2574,    2575,    2637,    2636,    2798,    2799,    2861,    2860
     748,    2573,    2574,    2636,    2635,    2797,    2798,    2860,    2859
     749,    2572,    2573,    2635,    2634,    2796,    2797,    2859,    2858
     750,    2571,    2572,    2634,    2633,    2795,    2796,    2858,    2857
     751,    2570,    2571,    2633,    2632,    2794,    2795,    2857,    2856
     752,    2569,    2570,    2632,    2631,    2793,    2794,    2856,    2855
     753,    2568,    2569,    2631,    2630,    2792,    2793,    2855,    2854
     754,    2567,    2568,    2630,    2629,    2791,    2792,    2854,    2853
     755,    2566,    2567,    2629,    2628,    2790,    2791,    2853,    2852
     756,    2565,    2566,    2628,    2627,    2789,    2790,    2852,    2851
     757,    2564,    2565,    2627,    2626,    2788,    2789,    2851,    2850
     758,    2563,    2564,    2626,    2625,    2787,    2788,    2850,    2849
     759,    2562,    2563,    2625,    2624,    2786,    2787,    2849,    2848
     760,    2561,    2562,    2624,    2623,    2785,    2786,    2848,    2847
     761,    2560,    2561,    2623,    2622,    2784,    2785,    2847,    2846
     762,    2559,    2560,    2622,    2621,    2783,    2784,    2846,    2845
     763,    2558,    2559,    2621,    2620,    2782,    2783,    2845,    2844
     764,    2594,    2557,    2558,    2620,    2818,    2781,    2782,    2844
     765,    2593,    2594,    2620,    2619,    2817,    2818,    2844,    2843
     766,    2592,    2593,    2619,    2618,    2816,    2817,    2843,    2842
     767,    2591,    2592,    2618,    2617,    2815,    2816,    2842,    2841
     768,    2590,    2591,    2617,    2616,    2814,    2815,    2841,    2840
     769,    2589,    2590,    2616,    2615,    2813,    2814,    2840,    2839
     770,    2588,    2589,    2615,    2614,    2812,    2813,    2839,    2838
     771,    2587,    2588,    2614,    2613,    2811,    2812,    2838,    2837
     772,    2586,    2587,    2613,    2612,    2810,    2811,    2837,    2836
     773,    2585,    2586,    2612,    2611,    2809,    2810,    2836,    2835
     774,    2584,    2585,    2611,    2610,    2808,    2809,    2835,    2834
     775,    2583,    2584,    2610,    2609,    2807,    2808,    2834,    2833
     776,    2582,    2583,    2609,    2608,    2806,    2807,    2833,    2832
     777,    2555,    2556,    2582,    2608,    2779,    2780,    2806,    2832
     778,    2554,    2555,    2608,    2607,    2778,    2779,    2832,    2831
     779,    2553,    2554,    2607,    2606,    2777,    2778,    2831,    2830
     780,    2552,    2553,    2606,    2605,    2776,    2777,    2830,    2829
     781,    2551,    2552,    2605,    2604,    2775,    2776,    2829,    2828
     782,    2550,    2551,    2604,    2603,    2774,    2775,    2828,    2827
     783,    2549,    2550,    2603,    2602,    2773,    2774,    2827,    2826
     784,    2548,    2549,    2602,    2601,    2772,    2773,    2826,    2825
     785,    2547,    2548,    2601,    2600,    2771,    2772,    2825,    2824
     786,    2546,    2547,    2600,    2599,    2770,    2771,    2824,    2823
     787,    2545,    2546,    2599,    2598,    2769,    2770,    2823,    2822
     788,    2544,    2545,    2598,    2597,    2768,    2769,    2822,    2821
     789,    2543,    2544,    2597,    2596,    2767,    2768,    2821,    2820
     790,    2542,    2543,    2596,    2595,    2766,    2767,    2820,    2819
     791,    2541,    2542,    2595,    2581,    2765,    2766,    2819,    2805
     792,    1916,    1918,    2570,    2569,    1915,    1917,    2794,    2793
     793,    2423,    2421,    2557,    2594,    2424,    2422,    2781,    2818
     794,    2425,    2423,    2594,    2593,    2426,    2424,    2818,    2817
     795,    2427,    2425,    2593,    2592,    2428,    2426,    2817,    2816
     796,    2429,    2427,    2592,    2591,    2430,    2428,    2816,    2815
     797,    2431,    2429,    2591,    2590,    2432,    2430,    2815,    2814
     798,    2433,    2431,    2590,    2589,    2434,    2432,    2814,    2813
     799,    2435,    2433,    2589,    2588,    2436,    2434,    2813,    2812
     800,    2437,    2435,    2588,    2587,    2438,    2436,    2812,    2811
     801,    2439,    2437,    2587,    2586,    2440,    2438,    2811,    2810
     802,    2441,    2439,    2586,    2585,    2442,    2440,    2810,    2809
     803,    2443,    2441,    2585,    2584,    2444,    2442,    2809,    2808
     804,    2445,    2443,    2584,    2583,    2446,    2444,    2808,    2807
     805,    2447,    2445,    2583,    2582,    2448,    2446,    2807,    2806
     806,    2449,    2447,    2582,    2556,    2450,    2448,    2806,    2780
     807,    2478,    2479,    2541,    2581,    2491,    2492,    2765,    2805
     808,    2477,    2478,    2581,    2580,    2490,    2491,    2805,    2804
     809,    2476,    2477,    2580,    2579,    2489,    2490,    2804,    2803
     810,    2475,    2476,    2579,    2578,    2488,    2489,    2803,    2802
     811,    2474,    2475,    2578,    2577,    2487,    2488,    2802,    2801
     812,    2473,    2474,    2577,    2576,    2486,    2487,    2801,    2800
     813,    2472,    2473,    2576,    2575,    2485,    2486,    2800,    2799
     814,    2471,    2472,    2575,    2574,    2484,    2485,    2799,    2798
     815,    2470,    2471,    2574,    2573,    2483,    2484,    2798,    2797
     816,    2469,    2470,    2573,    2572,    2482,    2483,    2797,    2796
     817,    2468,    2469,    2572,    2571,    2481,    2482,    2796,    2795
     818,    2467,    2468,    2571,    2570,    2480,    2481,    2795,    2794
     819,    1914,    2467,    2570,    1918,    1913,    2480,    2794,    1917
     820,    2377,    1909,    1916,    2569,    2378,    1908,    1915,    2793
     821,    2379,    2377,    2569,    2568,    2380,    2378,    2793,    2792
     822,    2381,    2379,    2568,    2567,    2382,    2380,    2792,    2791
     823,    2383,    2381,    2567,    2566,    2384,    2382,    2791,    2790
     824,    2385,    2383,    2566,    2565,    2386,    2384,    2790,    2789
     825,    2387,    2385,    2565,    2564,    2388,    2386,    2789,    2788
     826,    2389,    2387,    2564,    2563,    2390,    2388,    2788,    2787
     827,    2391,    2389,    2563,    2562,    2392,    2390,    2787,    2786
     828,    2393,    2391,    2562,    2561,    2394,    2392,    2786,    2785
     829,    2395,    2393,    2561,    2560,    2396,    2394,    2785,    2784
     830,    2397,    2395,    2560,    2559,    2398,    2396,    2784,    2783
     831,    2399,    2397,    2559,    2558,    2400,    2398,    2783,    2782
     832,    2401,    2399,    2558,    2557,    2402,    2400,    2782,    2781
     833,    2375,    2401,    2557,    2421,    2376,    2402,    2781,    2422
     834,    2540,    2420,    2449,    2556,    2539,    2419,    2450,    2780
     835,    2538,    2540,    2556,    2555,    2537,    2539,    2780,    2779
     836,    2536,    2538,    2555,    2554,    2535,    2537,    2779,    2778
     837,    2534,    2536,    2554,    2553,    2533,    2535,    2778,    2777
     838,    2532,    2534,    2553,    2552,    2531,    2533,    2777,    2776
     839,    2530,    2532,    2552,    2551,    2529,    2531,    2776,    2775
     840,    2528,    2530,    2551,    2550,    2527,    2529,    2775,    2774
     841,    2526,    2528,    2550,    2549,    2525,    2527,    2774,    2773
     842,    2524,    2526,    2549,    2548,    2523,    2525,    2773,    2772
     843,    2522,    2524,    2548,    2547,    2521,    2523,    2772,    2771
     844,    2520,    2522,    2547,    2546,    2519,    2521,    2771,    2770
     845,    2518,    2520,    2546,    2545,    2517,    2519,    2770,    2769
     846,    2516,    2518,    2545,    2544,    2515,    2517,    2769,    2768
     847,    2514,    2516,    2544,    2543,    2513,    2515,    2768,    2767
     848,    2512,    2514,    2543,    2542,    2511,    2513,    2767,    2766
     849,    2510,    2512,    2542,    2541,    2509,    2511,    2766,    2765
     850,    2452,    2510,    2541,    2479,    2453,    2509,    2765,    2492
     851,    2984,    2985,    2987,    2988,    3208,    3209,    3211,    3212
     852,    2988,    2986,    2983,    2984,    3212,    3210,    3207,    3208
     853,    2981,    2982,    2986,    2988,    3205,    3206,    3210,    3212
     854,    2980,    2981,    2988,    2987,    3204,    3205,    3212,    3211
     855,    2979,    2980,    2987,    2985,    3203,    3204,    3211,    3209
     856,    2977,    2978,    2979,    2985,    3201,    3202,    3203,    3209
     857,    2975,    2976,    2983,    2986,    3199,    3200,    3207,    3210
     858,    2974,    2975,    2986,    2982,    3198,    3199,    3210,    3206
     859,    2972,    2973,    2977,    2985,    3196,    3197,    3201,    3209
     860,    2971,    2972,    2985,    2984,    3195,    3196,    3209,    3208
     861,    2970,    2971,    2984,    2983,    3194,    3195,    3208,    3207
     862,    2969,    2970,    2983,    2976,    3193,    3194,    3207,    3200
     863,    2967,    2968,    2974,    2982,    3191,    3192,    3198,    3206
     864,    2966,    2967,    2982,    2981,    3190,    3191,    3206,    3205
     865,    2965,    2966,    2981,    2980,    3189,    3190,    3205,    3204
     866,    2964,    2965,    2980,    2979,    3188,    3189,    3204,    3203
     867,    2963,    2964,    2979,    2978,    3187,    3188,    3203,    3202
     868,    2961,    2962,    2963,    2978,    3185,    3186,    3187,    3202
     869,    2960,    2961,    2978,    2977,    3184,    3185,    3202,    3201
     870,    2959,    2960,    2977,    2973,    3183,    3184,    3201,    3197
     871,    2957,    2958,    2969,    2976,    3181,    3182,    3193,    3200
     872,    2956,    2957,    2976,    2975,    3180,    3181,    3200,    3199
     873,    2955,    2956,    2975,    2974,    3179,    3180,    3199,    3198
     874,    2954,    2955,    2974,    2968,    3178,    3179,    3198,    3192
     875,    2952,    2953,    2959,    2973,    3176,    3177,    3183,    3197
     876,    2951,    2952,    2973,    2972,    3175,    3176,    3197,    3196
     877,    2950,    2951,    2972,    2971,    3174,    3175,    3196,    3195
     878,    2949,    2950,    2971,    2970,    3173,    3174,    3195,    3194
     879,    2948,    2949,    2970,    2969,    3172,    3173,    3194,    3193
     880,    2947,    2948,    2969,    2958,    3171,    3172,    3193,    3182
     881,    2945,    2946,    2954,    2968,    3169,    3170,    3178,    3192
     882,    2944,    2945,    2968,    2967,    3168,    3169,    3192,    3191
     883,    2943,    2944,    2967,    2966,    3167,    3168,    3191,    3190
     884,    2942,    2943,    2966,    2965,    3166,    3167,    3190,    3189
     885,    2941,    2942,    2965,    2964,    3165,    3166,    3189,    3188
     886,    2940,    2941,    2964,    2963,    3164,    3165,    3188,    3187
     887,    2939,    2940,    2963,    2962,    3163,    3164,    3187,    3186
     888,    2937,    2938,    2939,    2962,    3161,    3162,    3163,    3186
     889,    2936,    2937,    2962,    2961,    3160,    3161,    3186,    3185
     890,    2935,    2936,    2961,    2960,    3159,    3160,    3185,    3184
     891,    2934,    2935,    2960,    2959,    3158,    3159,    3184,    3183
     892,    2933,    2934,    2959,    2953,    3157,    3158,    3183,    3177
     893,    2931,    2932,    2947,    2958,    3155,    3156,    3171,    3182
     894,    2930,    2931,    2958,    2957,    3154,    3155,    3182,    3181
     895,    2929,    2930,    2957,    2956,    3153,    3154,    3181,    3180
     896,    2928,    2929,    2956,    2955,    3152,    3153,    3180,    3179
     897,    2927,    2928,    2955,    2954,    3151,    3152,    3179,    3178
     898,    2926,    2927,    2954,    2946,    3150,    3151,    3178,    3170
     899,    2924,    2925,    2933,    2953,    3148,    3149,    3157,    3177
     900,    2923,    2924,    2953,    2952,    3147,    3148,    3177,    3176
     901,    2922,    2923,    2952,    2951,    3146,    3147,    3176,    3175
     902,    2921,    2922,    2951,    2950,    3145,    3146,    3175,    3174
     903,    2920,    2921,    2950,    2949,    3144,    3145,    3174,    3173
     904,    2919,    2920,    2949,    2948,    3143,    3144,    3173,    3172
     905,    2918,    2919,    2948,    2947,    3142,    3143,    3172,    3171
     906,    2917,    2918,    2947,    2932,    3141,    3142,    3171,    3156
     907,    2915,    2916,    2926,    2946,    3139,    3140,    3150,    3170
     908,    2914,    2915,    2946,    2945,    3138,    3139,    3170,    3169
     909,    2913,    2914,    2945,    2944,    3137,    3138,    3169,    3168
     910,    2912,    2913,    2944,    2943,    3136,    3137,    3168,    3167
     911,    2911,    2912,    2943,    2942,    3135,    3136,    3167,    3166
     912,    2910,    2911,    2942,    2941,    3134,    3135,    3166,    3165
     913,    2909,    2910,    2941,    2940,    3133,    3134,    3165,    3164
     914,    2908,    2909,    2940,    2939,    3132,    3133,    3164,    3163
     915,    2907,    2908,    2939,    2938,    3131,    3132,    3163,    3162
     916,    2905,    2906,    2907,    2938,    3129,    3130,    3131,    3162
     917,    2904,    2905,    2938,    2937,    3128,    3129,    3162,    3161
     918,    2903,    2904,    2937,    2936,    3127,    3128,    3161,    3160
     919,    2902,    2903,    2936,    2935,    3126,    3127,    3160,    3159
     920,    2901,    2902,    2935,    2934,    3125,    3126,    3159,    3158
     921,    2900,    2901,    2934,    2933,    3124,    3125,    3158,    3157
     922,    2899,    2900,    2933,    2925,    3123,    3124,    3157,    3149
     923,    2897,    2898,    2917,    2932,    3121,    3122,    3141,    3156
     924,    2896,    2897,    2932,    2931,    3120,    3121,    3156,    3155
     925,    2895,    2896,    2931,    2930,    3119,    3120,    3155,    3154
     926,    2894,    2895,    2930,    2929,    3118,    3119,    3154,    3153
     927,    2893,    2894,    2929,    2928,    3117,    3118,    3153,    3152
     928,    2892,    2893,    2928,    2927,    3116,    3117,    3152,    3151
     929,    2891,    2892,    2927,    2926,    3115,    3116,    3151,    3150
     930,    2890,    2891,    2926,    2916,    3114,    3115,    3150,    3140
     931,    2876,    2877,    2899,    2925,    3100,    3101,    3123,    3149
     932,    2875,    2876,    2925,    2924,    3099,    3100,    3149,    3148
     933,    2874,    2875,    2924,    2923,    3098,    3099,    3148,    3147
     934,    2873,    2874,    2923,    2922,    3097,    3098,    3147,    3146
     935,    2872,    2873,    2922,    2921,    3096,    3097,    3146,    3145
     936,    2871,    2872,    2921,    2920,    3095,    3096,    3145,    3144
     937,    2870,    2871,    2920,    2919,    3094,    3095,    3144,    3143
     938,    2869,    2870,    2919,    2918,    3093,    3094,    3143,    3142
     939,    2868,    2869,    2918,    2917,    3092,    3093,    3142,    3141
     940,    2867,    2868,    2917,    2898,    3091,    3092,    3141,    3122
     941,    2888,    2889,    2890,    2916,    3112,    3113,    3114,    3140
     942,    2887,    2888,    2916,    2915,    3111,    3112,    3140,    3139
     943,    2886,    2887,    2915,    2914,    3110,    3111,    3139,    3138
     944,    2885,    2886,    2914,    2913,    3109,    3110,    3138,    3137
     945,    2884,    2885,    2913,    2912,    3108,    3109,    3137,    3136
     946,    2883,    2884,    2912,    2911,    3107,    3108,    3136,    3135
     947,    2882,    2883,    2911,    2910,    3106,    3107,    3135,    3134
     948,    2881,    2882,    2910,    2909,    3105,    3106,    3134,    3133
     949,    2880,    2881,    2909,    2908,    3104,    3105,    3133,    3132
     950,    2879,    2880,    2908,    2907,    3103,    3104,    3132,    3131
     951,    2878,    2879,    2907,    2906,    3102,    3103,    3131,    3130
     952,    2865,    2866,    2878,    2906,    3089,    3090,    3102,    3130
     953,    2864,    2865,    2906,    2905,    3088,    3089,    3130,    3129
     954,    2863,    2864,    2905,    2904,    3087,    3088,    3129,    3128
     955,    2862,    2863,    2904,    2903,    3086,    3087,    3128,    3127
     956,    2861,    2862,    2903,    2902,    3085,    3086,    3127,    3126
     957,    2860,    2861,    2902,    2901,    3084,    3085,    3126,    3125
     958,    2859,    2860,    2901,    2900,    3083,    3084,    3125,    3124
     959,    2858,    2859,    2900,    2899,    3082,    3083,    3124,    3123
     960,    2857,    2858,    2899,    2877,    3081,    3082,    3123,    3101
     961,    2842,    2843,    2867,    2898,    3066,    3067,    3091,    3122
     962,    2841,    2842,    2898,    2897,    3065,    3066,    3122,    3121
     963,    2840,    2841,    2897,    2896,    3064,    3065,    3121,    3120
     964,    2839,    2840,    2896,    2895,    3063,    3064,    3120,    3119
     965,    2838,    2839,    2895,    2894,    3062,    3063,    3119,    3118
     966,    2837,    2838,    2894,    2893,    3061,    3062,    3118,    3117
     967,    2836,    2837,    2893,    2892,    3060,    3061,    3117,    3116
     968,    2835,    2836,    2892,    2891,    3059,    3060,    3116,    3115
     969,    2834,    2835,    2891,    2890,    3058,    3059,    3115,    3114
     970,    2833,    2834,    2890,    2889,    3057,    3058,    3114,    3113
     971,    2831,    2832,    2833,    2889,    3055,    3056,    3057,    3113
     972,    2830,    2831,    2889,    2888,    3054,    3055,    3113,    3112
     973,    2829,    2830,    2888,    2887,    3053,    3054,    3112,    3111
     974,    2828,    2829,    2887,    2886,    3052,    3053,    3111,    3110
     975,    2827,    2828,    2886,    2885,    3051,    3052,    3110,    3109
     976,    2826,    2827,    2885,    2884,    3050,    3051,    3109,    3108
     977,    2825,    2826,    2884,    2883,    3049,    3050,    3108,    3107
     978,    2824,    2825,    2883,    2882,    3048,    3049,    3107,    3106
     979,    2823,    2824,    2882,    2881,    3047,    3048,    3106,    3105
     980,    2822,    2823,    2881,    2880,    3046,    3047,    3105,    3104
     981,    2821,    2822,    2880,    2879,    3045,    3046,    3104,    3103
     982,    2820,    2821,    2879,    2878,    3044,    3045,    3103,    3102
     983,    2819,    2820,    2878,    2866,    3043,    3044,    3102,    3090
     984,    2855,    2856,    2857,    2877,    3079,    3080,    3081,    3101
     985,    2854,    2855,    2877,    2876,    3078,    3079,    3101,    3100
     986,    2853,    2854,    2876,    2875,    3077,    3078,    3100,    3099
     987,    2852,    2853,    2875,    2874,    3076,    3077,    3099,    3098
     988,    2851,    2852,    2874,    2873,    3075,    3076,    3098,    3097
     989,    2850,    2851,    2873,    2872,    3074,    3075,    3097,    3096
     990,    2849,    2850,    2872,    2871,    3073,    3074,    3096,    3095
     991,    2848,    2849,    2871,    2870,    3072,    3073,    3095,    3094
     992,    2847,    2848,    2870,    2869,    3071,    3072,    3094,    3093
     993,    2846,    2847,    2869,    2868,    3070,    3071,    3093,    3092
     994,    2845,    2846,    2868,    2867,    3069,    3070,    3092,    3091
     995,    2844,    2845,    2867,    2843,    3068,    3069,    3091,    3067
     996,    2804,    2805,    2819,    2866,    3028,    3029,    3043,    3090
     997,    2803,    2804,    2866,    2865,    3027,    3028,    3090,    3089
     998,    2802,    2803,    2865,    2864,    3026,    3027,    3089,    3088
     999,    2801,    2802,    2864,    2863,    3025,    3026,    3088,    3087
    1000,    2800,    2801,    2863,    2862,    3024,    3025,    3087,    3086
    1001,    2799,    2800,    2862,    2861,    3023,    3024,    3086,    3085
    1002,    2798,    2799,    2861,    2860,    3022,    3023,    3085,    3084
    1003,    2797,    2798,    2860,    2859,    3021,    3022,    3084,    3083
    1004,    2796,    2797,    2859,    2858,    3020,    3021,    3083,    3082
    1005,    2795,    2796,    2858,    2857,    3019,    3020,    3082,    3081
    1006,    2794,    2795,    2857,    2856,    3018,    3019,    3081,    3080
    1007,    2793,    2794,    2856,    2855,    3017,    3018,    3080,    3079
    1008,    2792,    2793,    2855,    2854,    3016,    3017,    3079,    3078
    1009,    2791,    2792,    2854,    2853,    3015,    3016,    3078,    3077
    1010,    2790,    2791,    2853,    2852,    3014,    3015,    3077,    3076
    1011,    2789,    2790,    2852,    2851,    3013,    3014,    3076,    3075
    1012,    2788,    2789,    2851,    2850,    3012,    3013,    3075,    3074
    1013,    2787,    2788,    2850,    2849,    3011,    3012,    3074,    3073
    1014,    2786,    2787,    2849,    2848,    3010,    3011,    3073,    3072
    1015,    2785,    2786,    2848,    2847,    3009,    3010,    3072,    3071
    1016,    2784,    2785,    2847,    2846,    3008,    3009,    3071,    3070
    1017,    2783,    2784,    2846,    2845,    3007,    3008,    3070,    3069
    1018,    2782,    2783,    2845,    2844,    3006,    3007,    3069,    3068
    1019,    2818,    2781,    2782,    2844,    3042,    3005,    3006,    3068
    1020,    2817,    2818,    2844,    2843,    3041,    3042,    3068,    3067
    1021,    2816,    2817,    2843,    2842,    3040,    3041,    3067,    3066
    1022,    2815,    2816,    2842,    2841,    3039,    3040,    3066,    3065
    1023,    2814,    2815,    2841,    2840,    3038,    3039,    3065,    3064
    1024,    2813,    2814,    2840,    2839,    3037,    3038,    3064,    3063
    1025,    2812,    2813,    2839,    2838,    3036,    3037,    3063,    3062
    1026,    2811,    2812,    2838,    2837,    3035,    3036,    3062,    3061
    1027,    2810,    2811,    2837,    2836,    3034,    3035,    3061,    3060
    1028,    2809,    2810,    2836,    2835,    3033,    3034,    3060,    3059
    1029,    2808,    2809,    2835,    2834,    3032,    3033,    3059,    3058
    1030,    2807,    2808,    2834,    2833,    3031,    3032,    3058,    3057
    1031,    2806,    2807,    2833,    2832,    3030,    3031,    3057,    3056
    1032,    2779,    2780,    2806,    2832,    3003,    3004,    3030,    3056
    1033,    2778,    2779,    2832,    2831,    3002,    3003,    3056,    3055
    1034,    2777,    2778,    2831,    2830,    3001,    3002,    3055,    3054
    1035,    2776,    2777,    2830,    2829,    3000,    3001,    3054,    3053
    1036,    2775,    2776,    2829,    2828,    2999,    3000,    3053,    3052
    1037,    2774,    2775,    2828,    2827,    2998,    2999,    3052,    3051
    1038,    2773,    2774,    2827,    2826,    2997,    2998,    3051,    3050
    1039,    2772,    2773,    2826,    2825,    2996,    2997,    3050,    3049
    1040,    2771,    2772,    2825,    2824,    2995,    2996,    3049,    3048
    1041,    2770,    2771,    2824,    2823,    2994,    2995,    3048,    3047
    1042,    2769,    2770,    2823,    2822,    2993,    2994,    3047,    3046
    1043,    2768,    2769,    2822,    2821,    2992,    2993,    3046,    3045
    1044,    2767,    2768,    2821,    2820,    2991,    2992,    3045,    3044
    1045,    2766,    2767,    2820,    2819,    2990,    2991,    3044,    3043
    1046,    2765,    2766,    2819,    2805,    2989,    2990,    3043,    3029
    1047,    1915,    1917,    2794,    2793,    1904,    1903,    3018,    3017
    1048,    2424,    2422,    2781,    2818,    2405,    2404,    3005,    3042
    1049,    2426,    2424,    2818,    2817,    2406,    2405,    3042,    3041
    1050,    2428,    2426,    2817,    2816,    2407,    2406,    3041,    3040
    1051,    2430,    2428,    2816,    2815,    2408,    2407,    3040,    3039
    1052,    2432,    2430,    2815,    2814,    2409,    2408,    3039,    3038
    1053,    2434,    2432,    2814,    2813,    2410,    2409,    3038,    3037
    1054,    2436,    2434,    2813,    2812,    2411,    2410,    3037,    3036
    1055,    2438,    2436,    2812,    2811,    2412,    2411,    3036,    3035
    1056,    2440,    2438,    2811,    2810,    2413,    2412,    3035,    3034
    1057,    2442,    2440,    2810,    2809,    2414,    2413,    3034,    3033
    1058,    2444,    2442,    2809,    2808,    2415,    2414,    3033,    3032
    1059,    2446,    2444,    2808,    2807,    2416,    2415,    3032,    3031
    1060,    2448,    2446,    2807,    2806,    2417,    2416,    3031,    3030
    1061,    2450,    2448,    2806,    2780,    2418,    2417,    3030,    3004
    1062,    2491,    2492,    2765,    2805,    2455,    2454,    2989,    3029
    1063,    2490,    2491,    2805,    2804,    2456,    2455,    3029,    3028
    1064,    2489,    2490,    2804,    2803,    2457,    2456,    3028,    3027
    1065,    2488,    2489,    2803,    2802,    2458,    2457,    3027,    3026
    1066,    2487,    2488,    2802,    2801,    2459,    2458,    3026,    3025
    1067,    2486,    2487,    2801,    2800,    2460,    2459,    3025,    3024
    1068,    2485,    2486,    2800,    2799,    2461,    2460,    3024,    3023
    1069,    2484,    2485,    2799,    2798,    2462,    2461,    3023,    3022
    1070,    2483,    2484,    2798,    2797,    2463,    2462,    3022,    3021
    1071,    2482,    2483,    2797,    2796,    2464,    2463,    3021,    3020
    1072,    2481,    2482,    2796,    2795,    2465,    2464,    3020,    3019
    1073,    2480,    2481,    2795,    2794,    2466,    2465,    3019,    3018
    1074,    1913,    2480,    2794,    1917,    1900,    2466,    3018,    1903
    1075,    2378,    1908,    1915,    2793,    2374,    1897,    1904,    3017
    1076,    2380,    2378,    2793,    2792,    2373,    2374,    3017,    3016
    1077,    2382,    2380,    2792,    2791,    2372,    2373,    3016,    3015
    1078,    2384,    2382,    2791,    2790,    2371,    2372,    3015,    3014
    1079,    2386,    2384,    2790,    2789,    2370,    2371,    3014,    3013
    1080,    2388,    2386,    2789,    2788,    2369,    2370,    3013,    3012
    1081,    2390,    2388,    2788,    2787,    2368,    2369,    3012,    3011
    1082,    2392,    2390,    2787,    2786,    2367,    2368,    3011,    3010
    1083,    2394,    2392,    2786,    2785,    2366,    2367,    3010,    3009
    1084,    2396,    2394,    2785,    2784,    2365,    2366,    3009,    3008
    1085,    2398,    2396,    2784,    2783,    2364,    2365,    3008,    3007
    1086,    2400,    2398,    2783,    2782,    2363,    2364,    3007,    3006
    1087,    2402,    2400,    2782,    2781,    2362,    2363,    3006,    3005
    1088,    2376,    2402,    2781,    2422,    2361,    2362,    3005,    2404
    1089,    2539,    2419,    2450,    2780,    2508,    2403,    2418,    3004
    1090,    2537,    2539,    2780,    2779,    2507,    2508,    3004,    3003
    1091,    2535,    2537,    2779,    2778,    2506,    2507,    3003,    3002
    1092,    2533,    2535,    2778,    2777,    2505,    2506,    3002,    3001
    1093,    2531,    2533,    2777,    2776,    2504,    2505,    3001,    3000
    1094,    2529,    2531,    2776,    2775,    2503,    2504,    3000,    2999
    1095,    2527,    2529,    2775,    2774,    2502,    2503,    2999,    2998
    1096,    2525,    2527,    2774,    2773,    2501,    2502,    2998,    2997
    1097,    2523,    2525,    2773,    2772,    2500,    2501,    2997,    2996
    1098,    2521,    2523,    2772,    2771,    2499,    2500,    2996,    2995
    1099,    2519,    2521,    2771,    2770,    2498,    2499,    2995,    2994
    1100,    2517,    2519,    2770,    2769,    2497,    2498,    2994,    2993
    1101,    2515,    2517,    2769,    2768,    2496,    2497,    2993,    2992
    1102,    2513,    2515,    2768,    2767,    2495,    2496,    2992,    2991
    1103,    2511,    2513,    2767,    2766,    2494,    2495,    2991,    2990
    1104,    2509,    2511,    2766,    2765,    2493,    2494,    2990,    2989
    1105,    2453,    2509,    2765,    2492,    2451,    2493,    2989,    2454
    1106,    5539,    5522,    5577,    5580,    5488,    5487,    5490,    5492
    1107,    5579,    5523,    5539,    5580,    5493,    5489,    5488,    5492
    1108,    1954,    1939,    5523,    5579,    1953,    1923,    5489,    5493
    1109,    5578,    1941,    1954,    5579,    5491,    1940,    1953,    5493
    1110,    5577,    5578,    5579,    5580,    5490,    5491,    5493,    5492
    1111,    5540,    5521,    5575,    5582,    5539,    5522,    5577,    5580
    1112,    5581,    5524,    5540,    5582,    5579,    5523,    5539,    5580
    1113,    1955,    1938,    5524,    5581,    1954,    1939,    5523,    5579
    1114,    5576,    1942,    1955,    5581,    5578,    1941,    1954,    5579
    1115,    5575,    5576,    5581,    5582,    5577,    5578,    5579,    5580
    1116,    5541,    5520,    5573,    5584,    5540,    5521,    5575,    5582
    1117,    5583,    5525,    5541,    5584,    5581,    5524,    5540,    5582
    1118,    1956,    1937,    5525,    5583,    1955,    1938,    5524,    5581
    1119,    5574,    1943,    1956,    5583,    5576,    1942,    1955,    5581
    1120,    5573,    5574,    5583,    5584,    5575,    5576,    5581,    5582
    1121,    5542,    5519,    5571,    5586,    5541,    5520,    5573,    5584
    1122,    5585,    5526,    5542,    5586,    5583,    5525,    5541,    5584
    1123,    1957,    1936,    5526,    5585,    1956,    1937,    5525,    5583
    1124,    5572,    1944,    1957,    5585,    5574,    1943,    1956,    5583
    1125,    5571,    5572,    5585,    5586,    5573,    5574,    5583,    5584
    1126,    5543,    5518,    5569,    5588,    5542,    5519,    5571,    5586
    1127,    5587,    5527,    5543,    5588,    5585,    5526,    5542,    5586
    1128,    1958,    1935,    5527,    5587,    1957,    1936,    5526,    5585
    1129,    5570,    1945,    1958,    5587,    5572,    1944,    1957,    5585
    1130,    5569,    5570,    5587,    5588,    5571,    5572,    5585,    5586
    1131,    5544,    5517,    5567,    5590,    5543,    5518,    5569,    5588
    1132,    5589,    5528,    5544,    5590,    5587,    5527,    5543,    5588
    1133,    1959,    1934,    5528,    5589,    1958,    1935,    5527,    5587
    1134,    5568,    1946,    1959,    5589,    5570,    1945,    1958,    5587
    1135,    5567,    5568,    5589,    5590,    5569,    5570,    5587,    5588
    1136,    5545,    5516,    5565,    5592,    5544,    5517,    5567,    5590
    1137,    5591,    5529,    5545,    5592,    5589,    5528,    5544,    5590
    1138,    1960,    1933,    5529,    5591,    1959,    1934,    5528,    5589
    1139,    5566,    1947,    1960,    5591,    5568,    1946,    1959,    5589
    1140,    5565,    5566,    5591,    5592,    5567,    5568,    5589,    5590
    1141,    5546,    5515,    5563,    5594,    5545,    5516,    5565,    5592
    1142,    5593,    5530,    5546,    5594,    5591,    5529,    5545,    5592
    1143,    1961,    1932,    5530,    5593,    1960,    1933,    5529,    5591
    1144,    5564,    1948,    1961,    5593,    5566,    1947,    1960,    5591
    1145,    5563,    5564,    5593,    5594,    5565,    5566,    5591,    5592
    1146,    5547,    5514,    5561,    5596,    5546,    5515,    5563,    5594
    1147,    5595,    5531,    5547,    5596,    5593,    5530,    5546,    5594
    1148,    1962,    1931,    5531,    5595,    1961,    1932,    5530,    5593
    1149,    5562,    1949,    1962,    5595,    5564,    1948,    1961,    5593
    1150,    5561,    5562,    5595,    5596,    5563,    5564,    5593,    5594
    1151,    5548,    5513,    5559,    5598,    5547,    5514,    5561,    5596
    1152,    5597,    5532,    5548,    5598,    5595,    5531,    5547,    5596
    1153,    1963,    1930,    5532,    5597,    1962,    1931,    5531,    5595
    1154,    5560,    1950,    1963,    5597,    5562,    1949,    1962,    5595
    1155,    5559,    5560,    5597,    5598,    5561,    5562,    5595,    5596
    1156,    5549,    5512,    5557,    5600,    5548,    5513,    5559,    5598
    1157,    5599,    5533,    5549,    5600,    5597,    5532,    5548,    5598
    1158,    1964,    1929,    5533,    5599,    1963,    1930,    5532,    5597
    1159,    5558,    1951,    1964,    5599,    5560,    1950,    1963,    5597
    1160,    5557,    5558,    5599,    5600,    5559,    5560,    5597,    5598
    1161,    5550,    5511,    5555,    5602,    5549,    5512,    5557,    5600
    1162,    5601,    5534,    5550,    5602,    5599,    5533,    5549,    5600
    1163,    1965,    1928,    5534,    5601,    1964,    1929,    5533,    5599
    1164,    5556,    1952,    1965,    5601,    5558,    1951,    1964,    5599
    1165,    5555,    5556,    5601,    5602,    5557,    5558,    5599,    5600
    1166,    5551,    5506,    5508,    5604,    5550,    5511,    5555,    5602
    1167,    5603,    5535,    5551,    5604,    5601,    5534,    5550,    5602
    1168,    1966,    1927,    5535,    5603,    1965,    1928,    5534,    5601
    1169,    5507,    1919,    1966,    5603,    5556,    1952,    1965,    5601
    1170,    5508,    5507,    5603,    5604,    5555,    5556,    5601,    5602
    1171,    5552,    5497,    5501,    5606,    5551,    5506,    5508,    5604
    1172,    5605,    5536,    5552,    5606,    5603,    5535,    5551,    5604
    1173,    1967,    1926,    5536,    5605,    1966,    1927,    5535,    5603
    1174,    5500,    1907,    1967,    5605,    5507,    1919,    1966,    5603
    1175,    5501,    5500,    5605,    5606,    5508,    5507,    5603,    5604
    1176,    5553,    5498,    5504,    5608,    5552,    5497,    5501,    5606
    1177,    5607,    5537,    5553,    5608,    5605,    5536,    5552,    5606
    1178,    1968,    1925,    5537,    5607,    1967,    1926,    5536,    5605
    1179,    5502,    1909,    1968,    5607,    5500,    1907,    1967,    5605
    1180,    5504,    5502,    5607,    5608,    5501,    5500,    5605,    5606
    1181,    5554,    5499,    5505,    5610,    5553,    5498,    5504,    5608
    1182,    5609,    5538,    5554,    5610,    5607,    5537,    5553,    5608
    1183,    1969,    1924,    5538,    5609,    1968,    1925,    5537,    5607
    1184,    5503,    1908,    1969,    5609,    5502,    1909,    1968,    5607
    1185,    5505,    5503,    5609,    5610,    5504,    5502,    5607,    5608
    1186,    5510,    5494,    5496,    5612,    5554,    5499,    5505,    5610
    1187,    5611,    5509,    5510,    5612,    5609,    5538,    5554,    5610
    1188,    1899,    1898,    5509,    5611,    1969,    1924,    5538,    5609
    1189,    5495,    1897,    1899,    5611,    5503,    1908,    1969,    5609
    1190,    5496,    5495,    5611,    5612,    5505,    5503,    5609,    5610
    1191,    6959,    6960,    6961,    6962,    5879,    5880,    5881,    5882
    1192,    6962,    6957,    6958,    6959,    5882,    5877,    5878,    5879
    1193,    6955,    6956,    6957,    6962,    5875,    5876,    5877,    5882
    1194,    6954,    6955,    6962,    6961,    5874,    5875,    5882,    5881
    1195,    6953,    6954,    6961,    6960,    5873,    5874,    5881,    5880
    1196,    6947,    6948,    6959,    6958,    5867,    5868,    5879,    5878
    1197,    6951,    6952,    6953,    6960,    5871,    5872,    5873,    5880
    1198,    6950,    6951,    6960,    6959,    5870,    5871,    5880,    5879
    1199,    6949,    6950,    6959,    6948,    5869,    5870,    5879,    5868
    1200,    6945,    6946,    6947,    6958,    5865,    5866,    5867,    5878
    1201,    6944,    6945,    6958,    6957,    5864,    5865,    5878,    5877
    1202,    6943,    6944,    6957,    6956,    5863,    5864,    5877,    5876
    1203,    6941,    6942,    6943,    6956,    5861,    5862,    5863,    5876
    1204,    6940,    6941,    6956,    6955,    5860,    5861,    5876,    5875
    1205,    6939,    6940,    6955,    6954,    5859,    5860,    5875,    5874
    1206,    6938,    6939,    6954,    6953,    5858,    5859,    5874,    5873
    1207,    6937,    6938,    6953,    6952,    5857,    5858,    5873,    5872
    1208,    6935,    6936,    6937,    6952,    5855,    5856,    5857,    5872
    1209,    6934,    6935,    6952,    6951,    5854,    5855,    5872,    5871
    1210,    6933,    6934,    6951,    6950,    5853,    5854,    5871,    5870
    1211,    6932,    6933,    6950,    6949,    5852,    5853,    5870,    5869
    1212,    6930,    6931,    6932,    6949,    5850,    5851,    5852,    5869
    1213,    6929,    6930,    6949,    6948,    5849,    5850,    5869,    5868
    1214,    6928,    6929,    6948,    6947,    5848,    5849,    5868,    5867
    1215,    6927,    6928,    6947,    6946,    5847,    5848,    5867,    5866
    1216,    6925,    6926,    6927,    6946,    5845,    5846,    5847,    5866
    1217,    6924,    6925,    6946,    6945,    5844,    5845,    5866,    5865
    1218,    6923,    6924,    6945,    6944,    5843,    5844,    5865,    5864
    1219,    6922,    6923,    6944,    6943,    5842,    5843,    5864,    5863
    1220,    6921,    6922,    6943,    6942,    5841,    5842,    5863,    5862
    1221,    6919,    6920,    6921,    6942,    5839,    5840,    5841,    5862
    1222,    6918,    6919,    6942,    6941,    5838,    5839,    5862,    5861
    1223,    6917,    6918,    6941,    6940,    5837,    5838,    5861,    5860
    1224,    6916,    6917,    6940,    6939,    5836,    5837,    5860,    5859
    1225,    6915,    6916,    6939,    6938,    5835,    5836,    5859,    5858
    1226,    6914,    6915,    6938,    6937,    5834,    5835,    5858,    5857
    1227,    6913,    6914,    6937,    6936,    5833,    5834,    5857,    5856
    1228,    6911,    6912,    6913,    6936,    5831,    5832,    5833,    5856
    1229,    6910,    6911,    6936,    6935,    5830,    5831,    5856,    5855
    1230,    6909,    6910,    6935,    6934,    5829,    5830,    5855,    5854
    1231,    6908,    6909,    6934,    6933,    5828,    5829,    5854,    5853
    1232,    6907,    6908,    6933,    6932,    5827,    5828,    5853,    5852
    1233,    6906,    6907,    6932,    6931,    5826,    5827,    5852,    5851
    1234,    6904,    6905,    6906,    6931,    5824,    5825,    5826,    5851
    1235,    6903,    6904,    6931,    6930,    5823,    5824,    5851,    5850
    1236,    6902,    6903,    6930,    6929,    5822,    5823,    5850,    5849
    1237,    6901,    6902,    6929,    6928,    5821,    5822,    5849,    5848
    1238,    6900,    6901,    6928,    6927,    5820,    5821,    5848,    5847
    1239,    6899,    6900,    6927,    6926,    5819,    5820,    5847,    5846
    1240,    6897,    6898,    6899,    6926,    5817,    5818,    5819,    5846
    1241,    6896,    6897,    6926,    6925,    5816,    5817,    5846,    5845
    1242,    6895,    6896,    6925,    6924,    5815,    5816,    5845,    5844
    1243,    6894,    6895,    6924,    6923,    5814,    5815,    5844,    5843
    1244,    6893,    6894,    6923,    6922,    5813,    5814,    5843,    5842
    1245,    6892,    6893,    6922,    6921,    5812,    5813,    5842,    5841
    1246,    6891,    6892,    6921,    6920,    5811,    5812,    5841,    5840
    1247,    6889,    6890,    6891,    6920,    5809,    5810,    5811,    5840
    1248,    6888,    6889,    6920,    6919,    5808,    5809,    5840,    5839
    1249,    6887,    6888,    6919,    6918,    5807,    5808,    5839,    5838
    1250,    6886,    6887,    6918,    6917,    5806,    5807,    5838,    5837
    1251,    6885,    6886,    6917,    6916,    5805,    5806,    5837,    5836
    1252,    6884,    6885,    6916,    6915,    5804,    5805,    5836,    5835
    1253,    6883,    6884,    6915,    6914,    5803,    5804,    5835,    5834
    1254,    6882,    6883,    6914,    6913,    5802,    5803,    5834,    5833
    1255,    6881,    6882,    6913,    6912,    5801,    5802,    5833,    5832
    1256,    6871,    6872,    6881,    6912,    5791,    5792,    5801,    5832
    1257,    6870,    6871,    6912,    6911,    5790,    5791,    5832,    5831
    1258,    6869,    6870,    6911,    6910,    5789,    5790,    5831,    5830
    1259,    6868,    6869,    6910,    6909,    5788,    5789,    5830,    5829
    1260,    6867,    6868,    6909,    6908,    5787,    5788,    5829,    5828
    1261,    6866,    6867,    6908,    6907,    5786,    5787,    5828,    5827
    1262,    6865,    6866,    6907,    6906,    5785,    5786,    5827,    5826
    1263,    6864,    6865,    6906,    6905,    5784,    5785,    5826,    5825
    1264,    6880,    6863,    6864,    6905,    5800,    5783,    5784,    5825
    1265,    6879,    6880,    6905,    6904,    5799,    5800,    5825,    5824
    1266,    6878,    6879,    6904,    6903,    5798,    5799,    5824,    5823
    1267,    6877,    6878,    6903,    6902,    5797,    5798,    5823,    5822
    1268,    6876,    6877,    6902,    6901,    5796,    5797,    5822,    5821
    1269,    6875,    6876,    6901,    6900,    5795,    5796,    5821,    5820
    1270,    6874,    6875,    6900,    6899,    5794,    5795,    5820,    5819
    1271,    6873,    6874,    6899,    6898,    5793,    5794,    5819,    5818
    1272,    6850,    6851,    6873,    6898,    5770,    5771,    5793,    5818
    1273,    6849,    6850,    6898,    6897,    5769,    5770,    5818,    5817
    1274,    6848,    6849,    6897,    6896,    5768,    5769,    5817,    5816
    1275,    6847,    6848,    6896,    6895,    5767,    5768,    5816,    5815
    1276,    6846,    6847,    6895,    6894,    5766,    5767,    5815,    5814
    1277,    6845,    6846,    6894,    6893,    5765,    5766,    5814,    5813
    1278,    6844,    6845,    6893,    6892,    5764,    5765,    5813,    5812
    1279,    6843,    6844,    6892,    6891,    5763,    5764,    5812,    5811
    1280,    6842,    6843,    6891,    6890,    5762,    5763,    5811,    5810
    1281,    6862,    6841,    6842,    6890,    5782,    5761,    5762,    5810
    1282,    6861,    6862,    6890,    6889,    5781,    5782,    5810,    5809
    1283,    6860,    6861,    6889,    6888,    5780,    5781,    5809,    5808
    1284,    6859,    6860,    6888,    6887,    5779,    5780,    5808,    5807
    1285,    6858,    6859,    6887,    6886,    5778,    5779,    5807,    5806
    1286,    6857,    6858,    6886,    6885,    5777,    5778,    5806,    5805
    1287,    6856,    6857,    6885,    6884,    5776,    5777,    5805,    5804
    1288,    6855,    6856,    6884,    6883,    5775,    5776,    5804,    5803
    1289,    6854,    6855,    6883,    6882,    5774,    5775,    5803,    5802
    1290,    6853,    6854,    6882,    6881,    5773,    5774,    5802,    5801
    1291,    6852,    6853,    6881,    6872,    5772,    5773,    5801,    5792
    1292,    6839,    6840,    6863,    6880,    5759,    5760,    5783,    5800
    1293,    6838,    6839,    6880,    6879,    5758,    5759,    5800,    5799
    1294,    6837,    6838,    6879,    6878,    5757,    5758,    5799,    5798
    1295,    6836,    6837,    6878,    6877,    5756,    5757,    5798,    5797
    1296,    6835,    6836,    6877,    6876,    5755,    5756,    5797,    5796
    1297,    6834,    6835,    6876,    6875,    5754,    5755,    5796,    5795
    1298,    6833,    6834,    6875,    6874,    5753,    5754,    5795,    5794
    1299,    6832,    6833,    6874,    6873,    5752,    5753,    5794,    5793
    1300,    6831,    6832,    6873,    6851,    5751,    5752,    5793,    5771
    1301,    6817,    6818,    6852,    6872,    5737,    5738,    5772,    5792
    1302,    6816,    6817,    6872,    6871,    5736,    5737,    5792,    5791
    1303,    6815,    6816,    6871,    6870,    5735,    5736,    5791,    5790
    1304,    6814,    6815,    6870,    6869,    5734,    5735,    5790,    5789
    1305,    6813,    6814,    6869,    6868,    5733,    5734,    5789,    5788
    1306,    6812,    6813,    6868,    6867,    5732,    5733,    5788,    5787
    1307,    6811,    6812,    6867,    6866,    5731,    5732,    5787,    5786
    1308,    6810,    6811,    6866,    6865,    5730,    5731,    5786,    5785
    1309,    6809,    6810,    6865,    6864,    5729,    5730,    5785,    5784
    1310,    6808,    6809,    6864,    6863,    5728,    5729,    5784,    5783
    1311,    6807,    6808,    6863,    6840,    5727,    5728,    5783,    5760
    1312,    6804,    6805,    6841,    6862,    5724,    5725,    5761,    5782
    1313,    6803,    6804,    6862,    6861,    5723,    5724,    5782,    5781
    1314,    6802,    6803,    6861,    6860,    5722,    5723,    5781,    5780
    1315,    6801,    6802,    6860,    6859,    5721,    5722,    5780,    5779
    1316,    6800,    6801,    6859,    6858,    5720,    5721,    5779,    5778
    1317,    6799,    6800,    6858,    6857,    5719,    5720,    5778,    5777
    1318,    6798,    6799,    6857,    6856,    5718,    5719,    5777,    5776
    1319,    6797,    6798,    6856,    6855,    5717,    5718,    5776,    5775
    1320,    6796,    6797,    6855,    6854,    5716,    5717,    5775,    5774
    1321,    6795,    6796,    6854,    6853,    5715,    5716,    5774,    5773
    1322,    6794,    6795,    6853,    6852,    5714,    5715,    5773,    5772
    1323,    6793,    6794,    6852,    6818,    5713,    5714,    5772,    5738
    1324,    6829,    6830,    6831,    6851,    5749,    5750,    5751,    5771
    1325,    6828,    6829,    6851,    6850,    5748,    5749,    5771,    5770
    1326,    6827,    6828,    6850,    6849,    5747,    5748,    5770,    5769
    1327,    6826,    6827,    6849,    6848,    5746,    5747,    5769,    5768
    1328,    6825,    6826,    6848,    6847,    5745,    5746,    5768,    5767
    1329,    6824,    6825,    6847,    6846,    5744,    5745,    5767,    5766
    1330,    6823,    6824,    6846,    6845,    5743,    5744,    5766,    5765
    1331,    6822,    6823,    6845,    6844,    5742,    5743,    5765,    5764
    1332,    6821,    6822,    6844,    6843,    5741,    5742,    5764,    5763
    1333,    6820,    6821,    6843,    6842,    5740,    5741,    5763,    5762
    1334,    6819,    6820,    6842,    6841,    5739,    5740,    5762,    5761
    1335,    6806,    6819,    6841,    6805,    5726,    5739,    5761,    5725
    1336,    6765,    6766,    6807,    6840,    5685,    5686,    5727,    5760
    1337,    6764,    6765,    6840,    6839,    5684,    5685,    5760,    5759
    1338,    6763,    6764,    6839,    6838,    5683,    5684,    5759,    5758
    1339,    6762,    6763,    6838,    6837,    5682,    5683,    5758,    5757
    1340,    6761,    6762,    6837,    6836,    5681,    5682,    5757,    5756
    1341,    6760,    6761,    6836,    6835,    5680,    5681,    5756,    5755
    1342,    6759,    6760,    6835,    6834,    5679,    5680,    5755,    5754
    1343,    6758,    6759,    6834,    6833,    5678,    5679,    5754,    5753
    1344,    6757,    6758,    6833,    6832,    5677,    5678,    5753,    5752
    1345,    6756,    6757,    6832,    6831,    5676,    5677,    5752,    5751
    1346,    6755,    6756,    6831,    6830,    5675,    5676,    5751,    5750
    1347,    6779,    6755,    6830,    6829,    5699,    5675,    5750,    5749
    1348,    6778,    6779,    6829,    6828,    5698,    5699,    5749,    5748
    1349,    6777,    6778,    6828,    6827,    5697,    5698,    5748,    5747
    1350,    6776,    6777,    6827,    6826,    5696,    5697,    5747,    5746
    1351,    6775,    6776,    6826,    6825,    5695,    5696,    5746,    5745
    1352,    6774,    6775,    6825,    6824,    5694,    5695,    5745,    5744
    1353,    6773,    6774,    6824,    6823,    5693,    5694,    5744,    5743
    1354,    6772,    6773,    6823,    6822,    5692,    5693,    5743,    5742
    1355,    6771,    6772,    6822,    6821,    5691,    5692,    5742,    5741
    1356,    6770,    6771,    6821,    6820,    5690,    5691,    5741,    5740
    1357,    6769,    6770,    6820,    6819,    5689,    5690,    5740,    5739
    1358,    6768,    6769,    6819,    6806,    5688,    5689,    5739,    5726
    1359,    6791,    6792,    6793,    6818,    5711,    5712,    5713,    5738
    1360,    6790,    6791,    6818,    6817,    5710,    5711,    5738,    5737
    1361,    6789,    6790,    6817,    6816,    5709,    5710,    5737,    5736
    1362,    6788,    6789,    6816,    6815,    5708,    5709,    5736,    5735
    1363,    6787,    6788,    6815,    6814,    5707,    5708,    5735,    5734
    1364,    6786,    6787,    6814,    6813,    5706,    5707,    5734,    5733
    1365,    6785,    6786,    6813,    6812,    5705,    5706,    5733,    5732
    1366,    6784,    6785,    6812,    6811,    5704,    5705,    5732,    5731
    1367,    6783,    6784,    6811,    6810,    5703,    5704,    5731,    5730
    1368,    6782,    6783,    6810,    6809,    5702,    5703,    5730,    5729
    1369,    6781,    6782,    6809,    6808,    5701,    5702,    5729,    5728
    1370,    6780,    6781,    6808,    6807,    5700,    5701,    5728,    5727
    1371,    6767,    6780,    6807,    6766,    5687,    5700,    5727,    5686
    1372,    6753,    6754,    6768,    6806,    5673,    5674,    5688,    5726
    1373,    6752,    6753,    6806,    6805,    5672,    5673,    5726,    5725
    1374,    6751,    6752,    6805,    6804,    5671,    5672,    5725,    5724
    1375,    6750,    6751,    6804,    6803,    5670,    5671,    5724,    5723
    1376,    6749,    6750,    6803,    6802,    5669,    5670,    5723,    5722
    1377,    6748,    6749,    6802,    6801,    5668,    5669,    5722,    5721
    1378,    6747,    6748,    6801,    6800,    5667,    5668,    5721,    5720
    1379,    6746,    6747,    6800,    6799,    5666,    5667,    5720,    5719
    1380,    6745,    6746,    6799,    6798,    5665,    5666,    5719,    5718
    1381,    6744,    6745,    6798,    6797,    5664,    5665,    5718,    5717
    1382,    6743,    6744,    6797,    6796,    5663,    5664,    5717,    5716
    1383,    6742,    6743,    6796,    6795,    5662,    5663,    5716,    5715
    1384,    6741,    6742,    6795,    6794,    5661,    5662,    5715,    5714
    1385,    6740,    6741,    6794,    6793,    5660,    5661,    5714,    5713
    1386,    6739,    6740,    6793,    6792,    5659,    5660,    5713,    5712
    1387,    5508,    5507,    6755,    6779,    5501,    5500,    5675,    5699
    1388,    6737,    6738,    6739,    6792,    5615,    5614,    5659,    5712
    1389,    6736,    6737,    6792,    6791,    5616,    5615,    5712,    5711
    1390,    6735,    6736,    6791,    6790,    5617,    5616,    5711,    5710
    1391,    6734,    6735,    6790,    6789,    5618,    5617,    5710,    5709
    1392,    6733,    6734,    6789,    6788,    5619,    5618,    5709,    5708
    1393,    6732,    6733,    6788,    6787,    5620,    5619,    5708,    5707
    1394,    6731,    6732,    6787,    6786,    5621,    5620,    5707,    5706
    1395,    6730,    6731,    6786,    6785,    5622,    5621,    5706,    5705
    1396,    6729,    6730,    6785,    6784,    5623,    5622,    5705,    5704
    1397,    6728,    6729,    6784,    6783,    5624,    5623,    5704,    5703
    1398,    6727,    6728,    6783,    6782,    5625,    5624,    5703,    5702
    1399,    6726,    6727,    6782,    6781,    5626,    5625,    5702,    5701
    1400,    6725,    6726,    6781,    6780,    5627,    5626,    5701,    5700
    1401,    6724,    6725,    6780,    6767,    5628,    5627,    5700,    5687
    1402,    6706,    5506,    5508,    6779,    5646,    5497,    5501,    5699
    1403,    6705,    6706,    6779,    6778,    5647,    5646,    5699,    5698
    1404,    6704,    6705,    6778,    6777,    5648,    5647,    5698,    5697
    1405,    6703,    6704,    6777,    6776,    5649,    5648,    5697,    5696
    1406,    6702,    6703,    6776,    6775,    5650,    5649,    5696,    5695
    1407,    6701,    6702,    6775,    6774,    5651,    5650,    5695,    5694
    1408,    6700,    6701,    6774,    6773,    5652,    5651,    5694,    5693
    1409,    6699,    6700,    6773,    6772,    5653,    5652,    5693,    5692
    1410,    6698,    6699,    6772,    6771,    5654,    5653,    5692,    5691
    1411,    6697,    6698,    6771,    6770,    5655,    5654,    5691,    5690
    1412,    6696,    6697,    6770,    6769,    5656,    5655,    5690,    5689
    1413,    6695,    6696,    6769,    6768,    5657,    5656,    5689,    5688
    1414,    6694,    6695,    6768,    6754,    5658,    5657,    5688,    5674
    1415,    3226,    3213,    6724,    6767,    2078,    2077,    5628,    5687
    1416,    3225,    3226,    6767,    6766,    2079,    2078,    5687,    5686
    1417,    3224,    3225,    6766,    6765,    2080,    2079,    5686,    5685
    1418,    3223,    3224,    6765,    6764,    2081,    2080,    5685,    5684
    1419,    3222,    3223,    6764,    6763,    2082,    2081,    5684,    5683
    1420,    3221,    3222,    6763,    6762,    2083,    2082,    5683,    5682
    1421,    3220,    3221,    6762,    6761,    2084,    2083,    5682,    5681
    1422,    3219,    3220,    6761,    6760,    2085,    2084,    5681,    5680
    1423,    3218,    3219,    6760,    6759,    2086,    2085,    5680,    5679
    1424,    3217,    3218,    6759,    6758,    2087,    2086,    5679,    5678
    1425,    3216,    3217,    6758,    6757,    2088,    2087,    5678,    5677
    1426,    3215,    3216,    6757,    6756,    2089,    2088,    5677,    5676
    1427,    3214,    3215,    6756,    6755,    2090,    2089,    5676,    5675
    1428,    1919,    3214,    6755,    5507,    1907,    2090,    5675,    5500
    1429,    6708,    6693,    6694,    6754,    5630,    5629,    5658,    5674
    1430,    6709,    6708,    6754,    6753,    5631,    5630,    5674,    5673
    1431,    6710,    6709,    6753,    6752,    5632,    5631,    5673,    5672
    1432,    6711,    6710,    6752,    6751,    5633,    5632,    5672,    5671
    1433,    6712,    6711,    6751,    6750,    5634,    5633,    5671,    5670
    1434,    6713,    6712,    6750,    6749,    5635,    5634,    5670,    5669
    1435,    6714,    6713,    6749,    6748,    5636,    5635,    5669,    5668
    1436,    6715,    6714,    6748,    6747,    5637,    5636,    5668,    5667
    1437,    6716,    6715,    6747,    6746,    5638,    5637,    5667,    5666
    1438,    6717,    6716,    6746,    6745,    5639,    5638,    5666,    5665
    1439,    6718,    6717,    6745,    6744,    5640,    5639,    5665,    5664
    1440,    6719,    6718,    6744,    6743,    5641,    5640,    5664,    5663
    1441,    6720,    6719,    6743,    6742,    5642,    5641,    5663,    5662
    1442,    6721,    6720,    6742,    6741,    5643,    5642,    5662,    5661
    1443,    6722,    6721,    6741,    6740,    5644,    5643,    5661,    5660
    1444,    6723,    6722,    6740,    6739,    5645,    5644,    5660,    5659
    1445,    6707,    6723,    6739,    6738,    5613,    5645,    5659,    5614
    1446,    5879,    5880,    5881,    5882,    6241,    6242,    6243,    6244
    1447,    5882,    5877,    5878,    5879,    6244,    6239,    6240,    6241
    1448,    5875,    5876,    5877,    5882,    6237,    6238,    6239,    6244
    1449,    5874,    5875,    5882,    5881,    6236,    6237,    6244,    6243
    1450,    5873,    5874,    5881,    5880,    6235,    6236,    6243,    6242
    1451,    5867,    5868,    5879,    5878,    6229,    6230,    6241,    6240
    1452,    5871,    5872,    5873,    5880,    6233,    6234,    6235,    6242
    1453,    5870,    5871,    5880,    5879,    6232,    6233,    6242,    6241
    1454,    5869,    5870,    5879,    5868,    6231,    6232,    6241,    6230
    1455,    5865,    5866,    5867,    5878,    6227,    6228,    6229,    6240
    1456,    5864,    5865,    5878,    5877,    6226,    6227,    6240,    6239
    1457,    5863,    5864,    5877,    5876,    6225,    6226,    6239,    6238
    1458,    5861,    5862,    5863,    5876,    6223,    6224,    6225,    6238
    1459,    5860,    5861,    5876,    5875,    6222,    6223,    6238,    6237
    1460,    5859,    5860,    5875,    5874,    6221,    6222,    6237,    6236
    1461,    5858,    5859,    5874,    5873,    6220,    6221,    6236,    6235
    1462,    5857,    5858,    5873,    5872,    6219,    6220,    6235,    6234
    1463,    5855,    5856,    5857,    5872,    6217,    6218,    6219,    6234
    1464,    5854,    5855,    5872,    5871,    6216,    6217,    6234,    6233
    1465,    5853,    5854,    5871,    5870,    6215,    6216,    6233,    6232
    1466,    5852,    5853,    5870,    5869,    6214,    6215,    6232,    6231
    1467,    5850,    5851,    5852,    5869,    6212,    6213,    6214,    6231
    1468,    5849,    5850,    5869,    5868,    6211,    6212,    6231,    6230
    1469,    5848,    5849,    5868,    5867,    6210,    6211,    6230,    6229
    1470,    5847,    5848,    5867,    5866,    6209,    6210,    6229,    6228
    1471,    5845,    5846,    5847,    5866,    6207,    6208,    6209,    6228
    1472,    5844,    5845,    5866,    5865,    6206,    6207,    6228,    6227
    1473,    5843,    5844,    5865,    5864,    6205,    6206,    6227,    6226
    1474,    5842,    5843,    5864,    5863,    6204,    6205,    6226,    6225
    1475,    5841,    5842,    5863,    5862,    6203,    6204,    6225,    6224
    1476,    5839,    5840,    5841,    5862,    6201,    6202,    6203,    6224
    1477,    5838,    5839,    5862,    5861,    6200,    6201,    6224,    6223
    1478,    5837,    5838,    5861,    5860,    6199,    6200,    6223,    6222
    1479,    5836,    5837,    5860,    5859,    6198,    6199,    6222,    6221
    1480,    5835,    5836,    5859,    5858,    6197,    6198,    6221,    6220
    1481,    5834,    5835,    5858,    5857,    6196,    6197,    6220,    6219
    1482,    5833,    5834,    5857,    5856,    6195,    6196,    6219,    6218
    1483,    5831,    5832,    5833,    5856,    6193,    6194,    6195,    6218
    1484,    5830,    5831,    5856,    5855,    6192,    6193,    6218,    6217
    1485,    5829,    5830,    5855,    5854,    6191,    6192,    6217,    6216
    1486,    5828,    5829,    5854,    5853,    6190,    6191,    6216,    6215
    1487,    5827,    5828,    5853,    5852,    6189,    6190,    6215,    6214
    1488,    5826,    5827,    5852,    5851,    6188,    6189,    6214,    6213
    1489,    5824,    5825,    5826,    5851,    6186,    6187,    6188,    6213
    1490,    5823,    5824,    5851,    5850,    6185,    6186,    6213,    6212
    1491,    5822,    5823,    5850,    5849,    6184,    6185,    6212,    6211
    1492,    5821,    5822,    5849,    5848,    6183,    6184,    6211,    6210
    1493,    5820,    5821,    5848,    5847,    6182,    6183,    6210,    6209
    1494,    5819,    5820,    5847,    5846,    6181,    6182,    6209,    6208
    1495,    5817,    5818,    5819,    5846,    6179,    6180,    6181,    6208
    1496,    5816,    5817,    5846,    5845,    6178,    6179,    6208,    6207
    1497,    5815,    5816,    5845,    5844,    6177,    6178,    6207,    6206
    1498,    5814,    5815,    5844,    5843,    6176,    6177,    6206,    6205
    1499,    5813,    5814,    5843,    5842,    6175,    6176,    6205,    6204
    1500,    5812,    5813,    5842,    5841,    6174,    6175,    6204,    6203
    1501,    5811,    5812,    5841,    5840,    6173,    6174,    6203,    6202
    1502,    5809,    5810,    5811,    5840,    6171,    6172,    6173,    6202
    1503,    5808,    5809,    5840,    5839,    6170,    6171,    6202,    6201
    1504,    5807,    5808,    5839,    5838,    6169,    6170,    6201,    6200
    1505,    5806,    5807,    5838,    5837,    6168,    6169,    6200,    6199
    1506,    5805,    5806,    5837,    5836,    6167,    6168,    6199,    6198
    1507,    5804,    5805,    5836,    5835,    6166,    6167,    6198,    6197
    1508,    5803,    5804,    5835,    5834,    6165,    6166,    6197,    6196
    1509,    5802,    5803,    5834,    5833,    6164,    6165,    6196,    6195
    1510,    5801,    5802,    5833,    5832,    6163,    6164,    6195,    6194
    1511,    5791,    5792,    5801,    5832,    6153,    6154,    6163,    6194
    1512,    5790,    5791,    5832,    5831,    6152,    6153,    6194,    6193
    1513,    5789,    5790,    5831,    5830,    6151,    6152,    6193,    6192
    1514,    5788,    5789,    5830,    5829,    6150,    6151,    6192,    6191
    1515,    5787,    5788,    5829,    5828,    6149,    6150,    6191,    6190
    1516,    5786,    5787,    5828,    5827,    6148,    6149,    6190,    6189
    1517,    5785,    5786,    5827,    5826,    6147,    6148,    6189,    6188
    1518,    5784,    5785,    5826,    5825,    6146,    6147,    6188,    6187
    1519,    5800,    5783,    5784,    5825,    6162,    6145,    6146,    6187
    1520,    5799,    5800,    5825,    5824,    6161,    6162,    6187,    6186
    1521,    5798,    5799,    5824,    5823,    6160,    6161,    6186,    6185
    1522,    5797,    5798,    5823,    5822,    6159,    6160,    6185,    6184
    1523,    5796,    5797,    5822,    5821,    6158,    6159,    6184,    6183
    1524,    5795,    5796,    5821,    5820,    6157,    6158,    6183,    6182
    1525,    5794,    5795,    5820,    5819,    6156,    6157,    6182,    6181
    1526,    5793,    5794,    5819,    5818,    6155,    6156,    6181,    6180
    1527,    5770,    5771,    5793,    5818,    6132,    6133,    6155,    6180
    1528,    5769,    5770,    5818,    5817,    6131,    6132,    6180,    6179
    1529,    5768,    5769,    5817,    5816,    6130,    6131,    6179,    6178
    1530,    5767,    5768,    5816,    5815,    6129,    6130,    6178,    6177
    1531,    5766,    5767,    5815,    5814,    6128,    6129,    6177,    6176
    1532,    5765,    5766,    5814,    5813,    6127,    6128,    6176,    6175
    1533,    5764,    5765,    5813,    5812,    6126,    6127,    6175,    6174
    1534,    5763,    5764,    5812,    5811,    6125,    6126,    6174,    6173
    1535,    5762,    5763,    5811,    5810,    6124,    6125,    6173,    6172
    1536,    5782,    5761,    5762,    5810,    6144,    6123,    6124,    6172
    1537,    5781,    5782,    5810,    5809,    6143,    6144,    6172,    6171
    1538,    5780,    5781,    5809,    5808,    6142,    6143,    6171,    6170
    1539,    5779,    5780,    5808,    5807,    6141,    6142,    6170,    6169
    1540,    5778,    5779,    5807,    5806,    6140,    6141,    6169,    6168
    1541,    5777,    5778,    5806,    5805,    6139,    6140,    6168,    6167
    1542,    5776,    5777,    5805,    5804,    6138,    6139,    6167,    6166
    1543,    5775,    5776,    5804,    5803,    6137,    6138,    6166,    6165
    1544,    5774,    5775,    5803,    5802,    6136,    6137,    6165,    6164
    1545,    5773,    5774,    5802,    5801,    6135,    6136,    6164,    6163
    1546,    5772,    5773,    5801,    5792,    6134,    6135,    6163,    6154
    1547,    5759,    5760,    5783,    5800,    6121,    6122,    6145,    6162
    1548,    5758,    5759,    5800,    5799,    6120,    6121,    6162,    6161
    1549,    5757,    5758,    5799,    5798,    6119,    6120,    6161,    6160
    1550,    5756,    5757,    5798,    5797,    6118,    6119,    6160,    6159
    1551,    5755,    5756,    5797,    5796,    6117,    6118,    6159,    6158
    1552,    5754,    5755,    5796,    5795,    6116,    6117,    6158,    6157
    1553,    5753,    5754,    5795,    5794,    6115,    6116,    6157,    6156
    1554,    5752,    5753,    5794,    5793,    6114,    6115,    6156,    6155
    1555,    5751,    5752,    5793,    5771,    6113,    6114,    6155,    6133
    1556,    5737,    5738,    5772,    5792,    6099,    6100,    6134,    6154
    1557,    5736,    5737,    5792,    5791,    6098,    6099,    6154,    6153
    1558,    5735,    5736,    5791,    5790,    6097,    6098,    6153,    6152
    1559,    5734,    5735,    5790,    5789,    6096,    6097,    6152,    6151
    1560,    5733,    5734,    5789,    5788,    6095,    6096,    6151,    6150
    1561,    5732,    5733,    5788,    5787,    6094,    6095,    6150,    6149
    1562,    5731,    5732,    5787,    5786,    6093,    6094,    6149,    6148
    1563,    5730,    5731,    5786,    5785,    6092,    6093,    6148,    6147
    1564,    5729,    5730,    5785,    5784,    6091,    6092,    6147,    6146
    1565,    5728,    5729,    5784,    5783,    6090,    6091,    6146,    6145
    1566,    5727,    5728,    5783,    5760,    6089,    6090,    6145,    6122
    1567,    5724,    5725,    5761,    5782,    6086,    6087,    6123,    6144
    1568,    5723,    5724,    5782,    5781,    6085,    6086,    6144,    6143
    1569,    5722,    5723,    5781,    5780,    6084,    6085,    6143,    6142
    1570,    5721,    5722,    5780,    5779,    6083,    6084,    6142,    6141
    1571,    5720,    5721,    5779,    5778,    6082,    6083,    6141,    6140
    1572,    5719,    5720,    5778,    5777,    6081,    6082,    6140,    6139
    1573,    5718,    5719,    5777,    5776,    6080,    6081,    6139,    6138
    1574,    5717,    5718,    5776,    5775,    6079,    6080,    6138,    6137
    1575,    5716,    5717,    5775,    5774,    6078,    6079,    6137,    6136
    1576,    5715,    5716,    5774,    5773,    6077,    6078,    6136,    6135
    1577,    5714,    5715,    5773,    5772,    6076,    6077,    6135,    6134
    1578,    5713,    5714,    5772,    5738,    6075,    6076,    6134,    6100
    1579,    5749,    5750,    5751,    5771,    6111,    6112,    6113,    6133
    1580,    5748,    5749,    5771,    5770,    6110,    6111,    6133,    6132
    1581,    5747,    5748,    5770,    5769,    6109,    6110,    6132,    6131
    1582,    5746,    5747,    5769,    5768,    6108,    6109,    6131,    6130
    1583,    5745,    5746,    5768,    5767,    6107,    6108,    6130,    6129
    1584,    5744,    5745,    5767,    5766,    6106,    6107,    6129,    6128
    1585,    5743,    5744,    5766,    5765,    6105,    6106,    6128,    6127
    1586,    5742,    5743,    5765,    5764,    6104,    6105,    6127,    6126
    1587,    5741,    5742,    5764,    5763,    6103,    6104,    6126,    6125
    1588,    5740,    5741,    5763,    5762,    6102,    6103,    6125,    6124
    1589,    5739,    5740,    5762,    5761,    6101,    6102,    6124,    6123
    1590,    5726,    5739,    5761,    5725,    6088,    6101,    6123,    6087
    1591,    5685,    5686,    5727,    5760,    6047,    6048,    6089,    6122
    1592,    5684,    5685,    5760,    5759,    6046,    6047,    6122,    6121
    1593,    5683,    5684,    5759,    5758,    6045,    6046,    6121,    6120
    1594,    5682,    5683,    5758,    5757,    6044,    6045,    6120,    6119
    1595,    5681,    5682,    5757,    5756,    6043,    6044,    6119,    6118
    1596,    5680,    5681,    5756,    5755,    6042,    6043,    6118,    6117
    1597,    5679,    5680,    5755,    5754,    6041,    6042,    6117,    6116
    1598,    5678,    5679,    5754,    5753,    6040,    6041,    6116,    6115
    1599,    5677,    5678,    5753,    5752,    6039,    6040,    6115,    6114
    1600,    5676,    5677,    5752,    5751,    6038,    6039,    6114,    6113
    1601,    5675,    5676,    5751,    5750,    6037,    6038,    6113,    6112
    1602,    5699,    5675,    5750,    5749,    6061,    6037,    6112,    6111
    1603,    5698,    5699,    5749,    5748,    6060,    6061,    6111,    6110
    1604,    5697,    5698,    5748,    5747,    6059,    6060,    6110,    6109
    1605,    5696,    5697,    5747,    5746,    6058,    6059,    6109,    6108
    1606,    5695,    5696,    5746,    5745,    6057,    6058,    6108,    6107
    1607,    5694,    5695,    5745,    5744,    6056,    6057,    6107,    6106
    1608,    5693,    5694,    5744,    5743,    6055,    6056,    6106,    6105
    1609,    5692,    5693,    5743,    5742,    6054,    6055,    6105,    6104
    1610,    5691,    5692,    5742,    5741,    6053,    6054,    6104,    6103
    1611,    5690,    5691,    5741,    5740,    6052,    6053,    6103,    6102
    1612,    5689,    5690,    5740,    5739,    6051,    6052,    6102,    6101
    1613,    5688,    5689,    5739,    5726,    6050,    6051,    6101,    6088
    1614,    5711,    5712,    5713,    5738,    6073,    6074,    6075,    6100
    1615,    5710,    5711,    5738,    5737,    6072,    6073,    6100,    6099
    1616,    5709,    5710,    5737,    5736,    6071,    6072,    6099,    6098
    1617,    5708,    5709,    5736,    5735,    6070,    6071,    6098,    6097
    1618,    5707,    5708,    5735,    5734,    6069,    6070,    6097,    6096
    1619,    5706,    5707,    5734,    5733,    6068,    6069,    6096,    6095
    1620,    5705,    5706,    5733,    5732,    6067,    6068,    6095,    6094
    1621,    5704,    5705,    5732,    5731,    6066,    6067,    6094,    6093
    1622,    5703,    5704,    5731,    5730,    6065,    6066,    6093,    6092
    1623,    5702,    5703,    5730,    5729,    6064,    6065,    6092,    6091
    1624,    5701,    5702,    5729,    5728,    6063,    6064,    6091,    6090
    1625,    5700,    5701,    5728,    5727,    6062,    6063,    6090,    6089
    1626,    5687,    5700,    5727,    5686,    6049,    6062,    6089,    6048
    1627,    5673,    5674,    5688,    5726,    6035,    6036,    6050,    6088
    1628,    5672,    5673,    5726,    5725,    6034,    6035,    6088,    6087
    1629,    5671,    5672,    5725,    5724,    6033,    6034,    6087,    6086
    1630,    5670,    5671,    5724,    5723,    6032,    6033,    6086,    6085
    1631,    5669,    5670,    5723,    5722,    6031,    6032,    6085,    6084
    1632,    5668,    5669,    5722,    5721,    6030,    6031,    6084,    6083
    1633,    5667,    5668,    5721,    5720,    6029,    6030,    6083,    6082
    1634,    5666,    5667,    5720,    5719,    6028,    6029,    6082,    6081
    1635,    5665,    5666,    5719,    5718,    6027,    6028,    6081,    6080
    1636,    5664,    5665,    5718,    5717,    6026,    6027,    6080,    6079
    1637,    5663,    5664,    5717,    5716,    6025,    6026,    6079,    6078
    1638,    5662,    5663,    5716,    5715,    6024,    6025,    6078,    6077
    1639,    5661,    5662,    5715,    5714,    6023,    6024,    6077,    6076
    1640,    5660,    5661,    5714,    5713,    6022,    6023,    6076,    6075
    1641,    5659,    5660,    5713,    5712,    6021,    6022,    6075,    6074
    1642,    5501,    5500,    5675,    5699,    5504,    5502,    6037,    6061
    1643,    5615,    5614,    5659,    5712,    5970,    5972,    6021,    6074
    1644,    5616,    5615,    5712,    5711,    5968,    5970,    6074,    6073
    1645,    5617,    5616,    5711,    5710,    5966,    5968,    6073,    6072
    1646,    5618,    5617,    5710,    5709,    5964,    5966,    6072,    6071
    1647,    5619,    5618,    5709,    5708,    5962,    5964,    6071,    6070
    1648,    5620,    5619,    5708,    5707,    5960,    5962,    6070,    6069
    1649,    5621,    5620,    5707,    5706,    5958,    5960,    6069,    6068
    1650,    5622,    5621,    5706,    5705,    5956,    5958,    6068,    6067
    1651,    5623,    5622,    5705,    5704,    5954,    5956,    6067,    6066
    1652,    5624,    5623,    5704,    5703,    5952,    5954,    6066,    6065
    1653,    5625,    5624,    5703,    5702,    5950,    5952,    6065,    6064
    1654,    5626,    5625,    5702,    5701,    5948,    5950,    6064,    6063
    1655,    5627,    5626,    5701,    5700,    5946,    5948,    6063,    6062
    1656,    5628,    5627,    5700,    5687,    5944,    5946,    6062,    6049
    1657,    5646,    5497,    5501,    5699,    5911,    5498,    5504,    6061
    1658,    5647,    5646,    5699,    5698,    5910,    5911,    6061,    6060
    1659,    5648,    5647,    5698,    5697,    5909,    5910,    6060,    6059
    1660,    5649,    5648,    5697,    5696,    5908,    5909,    6059,    6058
    1661,    5650,    5649,    5696,    5695,    5907,    5908,    6058,    6057
    1662,    5651,    5650,    5695,    5694,    5906,    5907,    6057,    6056
    1663,    5652,    5651,    5694,    5693,    5905,    5906,    6056,    6055
    1664,    5653,    5652,    5693,    5692,    5904,    5905,    6055,    6054
    1665,    5654,    5653,    5692,    5691,    5903,    5904,    6054,    6053
    1666,    5655,    5654,    5691,    5690,    5902,    5903,    6053,    6052
    1667,    5656,    5655,    5690,    5689,    5901,    5902,    6052,    6051
    1668,    5657,    5656,    5689,    5688,    5900,    5901,    6051,    6050
    1669,    5658,    5657,    5688,    5674,    5899,    5900,    6050,    6036
    1670,    2078,    2077,    5628,    5687,    2401,    2375,    5944,    6049
    1671,    2079,    2078,    5687,    5686,    2399,    2401,    6049,    6048
    1672,    2080,    2079,    5686,    5685,    2397,    2399,    6048,    6047
    1673,    2081,    2080,    5685,    5684,    2395,    2397,    6047,    6046
    1674,    2082,    2081,    5684,    5683,    2393,    2395,    6046,    6045
    1675,    2083,    2082,    5683,    5682,    2391,    2393,    6045,    6044
    1676,    2084,    2083,    5682,    5681,    2389,    2391,    6044,    6043
    1677,    2085,    2084,    5681,    5680,    2387,    2389,    6043,    6042
    1678,    2086,    2085,    5680,    5679,    2385,    2387,    6042,    6041
    1679,    2087,    2086,    5679,    5678,    2383,    2385,    6041,    6040
    1680,    2088,    2087,    5678,    5677,    2381,    2383,    6040,    6039
    1681,    2089,    2088,    5677,    5676,    2379,    2381,    6039,    6038
    1682,    2090,    2089,    5676,    5675,    2377,    2379,    6038,    6037
    1683,    1907,    2090,    5675,    5500,    1909,    2377,    6037,    5502
    1684,    5630,    5629,    5658,    5674,    5989,    5898,    5899,    6036
    1685,    5631,    5630,    5674,    5673,    5991,    5989,    6036,    6035
    1686,    5632,    5631,    5673,    5672,    5993,    5991,    6035,    6034
    1687,    5633,    5632,    5672,    5671,    5995,    5993,    6034,    6033
    1688,    5634,    5633,    5671,    5670,    5997,    5995,    6033,    6032
    1689,    5635,    5634,    5670,    5669,    5999,    5997,    6032,    6031
    1690,    5636,    5635,    5669,    5668,    6001,    5999,    6031,    6030
    1691,    5637,    5636,    5668,    5667,    6003,    6001,    6030,    6029
    1692,    5638,    5637,    5667,    5666,    6005,    6003,    6029,    6028
    1693,    5639,    5638,    5666,    5665,    6007,    6005,    6028,    6027
    1694,    5640,    5639,    5665,    5664,    6009,    6007,    6027,    6026
    1695,    5641,    5640,    5664,    5663,    6011,    6009,    6026,    6025
    1696,    5642,    5641,    5663,    5662,    6013,    6011,    6025,    6024
    1697,    5643,    5642,    5662,    5661,    6015,    6013,    6024,    6023
    1698,    5644,    5643,    5661,    5660,    6017,    6015,    6023,    6022
    1699,    5645,    5644,    5660,    5659,    6019,    6017,    6022,    6021
    1700,    5613,    5645,    5659,    5614,    5926,    6019,    6021,    5972
    1701,    6241,    6242,    6243,    6244,    6465,    6466,    6467,    6468
    1702,    6244,    6239,    6240,    6241,    6468,    6463,    6464,    6465
    1703,    6237,    6238,    6239,    6244,    6461,    6462,    6463,    6468
    1704,    6236,    6237,    6244,    6243,    6460,    6461,    6468,    6467
    1705,    6235,    6236,    6243,    6242,    6459,    6460,    6467,    6466
    1706,    6229,    6230,    6241,    6240,    6453,    6454,    6465,    6464
    1707,    6233,    6234,    6235,    6242,    6457,    6458,    6459,    6466
    1708,    6232,    6233,    6242,    6241,    6456,    6457,    6466,    6465
    1709,    6231,    6232,    6241,    6230,    6455,    6456,    6465,    6454
    1710,    6227,    6228,    6229,    6240,    6451,    6452,    6453,    6464
    1711,    6226,    6227,    6240,    6239,    6450,    6451,    6464,    6463
    1712,    6225,    6226,    6239,    6238,    6449,    6450,    6463,    6462
    1713,    6223,    6224,    6225,    6238,    6447,    6448,    6449,    6462
    1714,    6222,    6223,    6238,    6237,    6446,    6447,    6462,    6461
    1715,    6221,    6222,    6237,    6236,    6445,    6446,    6461,    6460
    1716,    6220,    6221,    6236,    6235,    6444,    6445,    6460,    6459
    1717,    6219,    6220,    6235,    6234,    6443,    6444,    6459,    6458
    1718,    6217,    6218,    6219,    6234,    6441,    6442,    6443,    6458
    1719,    6216,    6217,    6234,    6233,    6440,    6441,    6458,    6457
    1720,    6215,    6216,    6233,    6232,    6439,    6440,    6457,    6456
    1721,    6214,    6215,    6232,    6231,    6438,    6439,    6456,    6455
    1722,    6212,    6213,    6214,    6231,    6436,    6437,    6438,    6455
    1723,    6211,    6212,    6231,    6230,    6435,    6436,    6455,    6454
    1724,    6210,    6211,    6230,    6229,    6434,    6435,    6454,    6453
    1725,    6209,    6210,    6229,    6228,    6433,    6434,    6453,    6452
    1726,    6207,    6208,    6209,    6228,    6431,    6432,    6433,    6452
    1727,    6206,    6207,    6228,    6227,    6430,    6431,    6452,    6451
    1728,    6205,    6206,    6227,    6226,    6429,    6430,    6451,    6450
    1729,    6204,    6205,    6226,    6225,    6428,    6429,    6450,    6449
    1730,    6203,    6204,    6225,    6224,    6427,    6428,    6449,    6448
    1731,    6201,    6202,    6203,    6224,    6425,    6426,    6427,    6448
    1732,    6200,    6201,    6224,    6223,    6424,    6425,    6448,    6447
    1733,    6199,    6200,    6223,    6222,    6423,    6424,    6447,    6446
    1734,    6198,    6199,    6222,    6221,    6422,    6423,    6446,    6445
    1735,    6197,    6198,    6221,    6220,    6421,    6422,    6445,    6444
    1736,    6196,    6197,    6220,    6219,    6420,    6421,    6444,    6443
    1737,    6195,    6196,    6219,    6218,    6419,    6420,    6443,    6442
    1738,    6193,    6194,    6195,    6218,    6417,    6418,    6419,    6442
    1739,    6192,    6193,    6218,    6217,    6416,    6417,    6442,    6441
    1740,    6191,    6192,    6217,    6216,    6415,    6416,    6441,    6440
    1741,    6190,    6191,    6216,    6215,    6414,    6415,    6440,    6439
    1742,    6189,    6190,    6215,    6214,    6413,    6414,    6439,    6438
    1743,    6188,    6189,    6214,    6213,    6412,    6413,    6438,    6437
    1744,    6186,    6187,    6188,    6213,    6410,    6411,    6412,    6437
    1745,    6185,    6186,    6213,    6212,    6409,    6410,    6437,    6436
    1746,    6184,    6185,    6212,    6211,    6408,    6409,    6436,    6435
    1747,    6183,    6184,    6211,    6210,    6407,    6408,    6435,    6434
    1748,    6182,    6183,    6210,    6209,    6406,    6407,    6434,    6433
    1749,    6181,    6182,    6209,    6208,    6405,    6406,    6433,    6432
    1750,    6179,    6180,    6181,    6208,    6403,    6404,    6405,    6432
    1751,    6178,    6179,    6208,    6207,    6402,    6403,    6432,    6431
    1752,    6177,    6178,    6207,    6206,    6401,    6402,    6431,    6430
    1753,    6176,    6177,    6206,    6205,    6400,    6401,    6430,    6429
    1754,    6175,    6176,    6205,    6204,    6399,    6400,    6429,    6428
    1755,    6174,    6175,    6204,    6203,    6398,    6399,    6428,    6427
    1756,    6173,    6174,    6203,    6202,    6397,    6398,    6427,    6426
    1757,    6171,    6172,    6173,    6202,    6395,    6396,    6397,    6426
    1758,    6170,    6171,    6202,    6201,    6394,    6395,    6426,    6425
    1759,    6169,    6170,    6201,    6200,    6393,    6394,    6425,    6424
    1760,    6168,    6169,    6200,    6199,    6392,    6393,    6424,    6423
    1761,    6167,    6168,    6199,    6198,    6391,    6392,    6423,    6422
    1762,    6166,    6167,    6198,    6197,    6390,    6391,    6422,    6421
    1763,    6165,    6166,    6197,    6196,    6389,    6390,    6421,    6420
    1764,    6164,    6165,    6196,    6195,    6388,    6389,    6420,    6419
    1765,    6163,    6164,    6195,    6194,    6387,    6388,    6419,    6418
    1766,    6153,    6154,    6163,    6194,    6377,    6378,    6387,    6418
    1767,    6152,    6153,    6194,    6193,    6376,    6377,    6418,    6417
    1768,    6151,    6152,    6193,    6192,    6375,    6376,    6417,    6416
    1769,    6150,    6151,    6192,    6191,    6374,    6375,    6416,    6415
    1770,    6149,    6150,    6191,    6190,    6373,    6374,    6415,    6414
    1771,    6148,    6149,    6190,    6189,    6372,    6373,    6414,    6413
    1772,    6147,    6148,    6189,    6188,    6371,    6372,    6413,    6412
    1773,    6146,    6147,    6188,    6187,    6370,    6371,    6412,    6411
    1774,    6162,    6145,    6146,    6187,    6386,    6369,    6370,    6411
    1775,    6161,    6162,    6187,    6186,    6385,    6386,    6411,    6410
    1776,    6160,    6161,    6186,    6185,    6384,    6385,    6410,    6409
    1777,    6159,    6160,    6185,    6184,    6383,    6384,    6409,    6408
    1778,    6158,    6159,    6184,    6183,    6382,    6383,    6408,    6407
    1779,    6157,    6158,    6183,    6182,    6381,    6382,    6407,    6406
    1780,    6156,    6157,    6182,    6181,    6380,    6381,    6406,    6405
    1781,    6155,    6156,    6181,    6180,    6379,    6380,    6405,    6404
    1782,    6132,    6133,    6155,    6180,    6356,    6357,    6379,    6404
    1783,    6131,    6132,    6180,    6179,    6355,    6356,    6404,    6403
    1784,    6130,    6131,    6179,    6178,    6354,    6355,    6403,    6402
    1785,    6129,    6130,    6178,    6177,    6353,    6354,    6402,    6401
    1786,    6128,    6129,    6177,    6176,    6352,    6353,    6401,    6400
    1787,    6127,    6128,    6176,    6175,    6351,    6352,    6400,    6399
    1788,    6126,    6127,    6175,    6174,    6350,    6351,    6399,    6398
    1789,    6125,    6126,    6174,    6173,    6349,    6350,    6398,    6397
    1790,    6124,    6125,    6173,    6172,    6348,    6349,    6397,    6396
    1791,    6144,    6123,    6124,    6172,    6368,    6347,    6348,    6396
    1792,    6143,    6144,    6172,    6171,    6367,    6368,    6396,    6395
    1793,    6142,    6143,    6171,    6170,    6366,    6367,    6395,    6394
    1794,    6141,    6142,    6170,    6169,    6365,    6366,    6394,    6393
    1795,    6140,    6141,    6169,    6168,    6364,    6365,    6393,    6392
    1796,    6139,    6140,    6168,    6167,    6363,    6364,    6392,    6391
    1797,    6138,    6139,    6167,    6166,    6362,    6363,    6391,    6390
    1798,    6137,    6138,    6166,    6165,    6361,    6362,    6390,    6389
    1799,    6136,    6137,    6165,    6164,    6360,    6361,    6389,    6388
    1800,    6135,    6136,    6164,    6163,    6359,    6360,    6388,    6387
    1801,    6134,    6135,    6163,    6154,    6358,    6359,    6387,    6378
    1802,    6121,    6122,    6145,    6162,    6345,    6346,    6369,    6386
    1803,    6120,    6121,    6162,    6161,    6344,    6345,    6386,    6385
    1804,    6119,    6120,    6161,    6160,    6343,    6344,    6385,    6384
    1805,    6118,    6119,    6160,    6159,    6342,    6343,    6384,    6383
    1806,    6117,    6118,    6159,    6158,    6341,    6342,    6383,    6382
    1807,    6116,    6117,    6158,    6157,    6340,    6341,    6382,    6381
    1808,    6115,    6116,    6157,    6156,    6339,    6340,    6381,    6380
    1809,    6114,    6115,    6156,    6155,    6338,    6339,    6380,    6379
    1810,    6113,    6114,    6155,    6133,    6337,    6338,    6379,    6357
    1811,    6099,    6100,    6134,    6154,    6323,    6324,    6358,    6378
    1812,    6098,    6099,    6154,    6153,    6322,    6323,    6378,    6377
    1813,    6097,    6098,    6153,    6152,    6321,    6322,    6377,    6376
    1814,    6096,    6097,    6152,    6151,    6320,    6321,    6376,    6375
    1815,    6095,    6096,    6151,    6150,    6319,    6320,    6375,    6374
    1816,    6094,    6095,    6150,    6149,    6318,    6319,    6374,    6373
    1817,    6093,    6094,    6149,    6148,    6317,    6318,    6373,    6372
    1818,    6092,    6093,    6148,    6147,    6316,    6317,    6372,    6371
    1819,    6091,    6092,    6147,    6146,    6315,    6316,    6371,    6370
    1820,    6090,    6091,    6146,    6145,    6314,    6315,    6370,    6369
    1821,    6089,    6090,    6145,    6122,    6313,    6314,    6369,    6346
    1822,    6086,    6087,    6123,    6144,    6310,    6311,    6347,    6368
    1823,    6085,    6086,    6144,    6143,    6309,    6310,    6368,    6367
    1824,    6084,    6085,    6143,    6142,    6308,    6309,    6367,    6366
    1825,    6083,    6084,    6142,    6141,    6307,    6308,    6366,    6365
    1826,    6082,    6083,    6141,    6140,    6306,    6307,    6365,    6364
    1827,    6081,    6082,    6140,    6139,    6305,    6306,    6364,    6363
    1828,    6080,    6081,    6139,    6138,    6304,    6305,    6363,    6362
    1829,    6079,    6080,    6138,    6137,    6303,    6304,    6362,    6361
    1830,    6078,    6079,    6137,    6136,    6302,    6303,    6361,    6360
    1831,    6077,    6078,    6136,    6135,    6301,    6302,    6360,    6359
    1832,    6076,    6077,    6135,    6134,    6300,    6301,    6359,    6358
    1833,    6075,    6076,    6134,    6100,    6299,    6300,    6358,    6324
    1834,    6111,    6112,    6113,    6133,    6335,    6336,    6337,    6357
    1835,    6110,    6111,    6133,    6132,    6334,    6335,    6357,    6356
    1836,    6109,    6110,    6132,    6131,    6333,    6334,    6356,    6355
    1837,    6108,    6109,    6131,    6130,    6332,    6333,    6355,    6354
    1838,    6107,    6108,    6130,    6129,    6331,    6332,    6354,    6353
    1839,    6106,    6107,    6129,    6128,    6330,    6331,    6353,    6352
    1840,    6105,    6106,    6128,    6127,    6329,    6330,    6352,    6351
    1841,    6104,    6105,    6127,    6126,    6328,    6329,    6351,    6350
    1842,    6103,    6104,    6126,    6125,    6327,    6328,    6350,    6349
    1843,    6102,    6103,    6125,    6124,    6326,    6327,    6349,    6348
    1844,    6101,    6102,    6124,    6123,    6325,    6326,    6348,    6347
    1845,    6088,    6101,    6123,    6087,    6312,    6325,    6347,    6311
    1846,    6047,    6048,    6089,    6122,    6271,    6272,    6313,    6346
    1847,    6046,    6047,    6122,    6121,    6270,    6271,    6346,    6345
    1848,    6045,    6046,    6121,    6120,    6269,    6270,    6345,    6344
    1849,    6044,    6045,    6120,    6119,    6268,    6269,    6344,    6343
    1850,    6043,    6044,    6119,    6118,    6267,    6268,    6343,    6342
    1851,    6042,    6043,    6118,    6117,    6266,    6267,    6342,    6341
    1852,    6041,    6042,    6117,    6116,    6265,    6266,    6341,    6340
    1853,    6040,    6041,    6116,    6115,    6264,    6265,    6340,    6339
    1854,    6039,    6040,    6115,    6114,    6263,    6264,    6339,    6338
    1855,    6038,    6039,    6114,    6113,    6262,    6263,    6338,    6337
    1856,    6037,    6038,    6113,    6112,    6261,    6262,    6337,    6336
    1857,    6061,    6037,    6112,    6111,    6285,    6261,    6336,    6335
    1858,    6060,    6061,    6111,    6110,    6284,    6285,    6335,    6334
    1859,    6059,    6060,    6110,    6109,    6283,    6284,    6334,    6333
    1860,    6058,    6059,    6109,    6108,    6282,    6283,    6333,    6332
    1861,    6057,    6058,    6108,    6107,    6281,    6282,    6332,    6331
    1862,    6056,    6057,    6107,    6106,    6280,    6281,    6331,    6330
    1863,    6055,    6056,    6106,    6105,    6279,    6280,    6330,    6329
    1864,    6054,    6055,    6105,    6104,    6278,    6279,    6329,    6328
    1865,    6053,    6054,    6104,    6103,    6277,    6278,    6328,    6327
    1866,    6052,    6053,    6103,    6102,    6276,    6277,    6327,    6326
    1867,    6051,    6052,    6102,    6101,    6275,    6276,    6326,    6325
    1868,    6050,    6051,    6101,    6088,    6274,    6275,    6325,    6312
    1869,    6073,    6074,    6075,    6100,    6297,    6298,    6299,    6324
    1870,    6072,    6073,    6100,    6099,    6296,    6297,    6324,    6323
    1871,    6071,    6072,    6099,    6098,    6295,    6296,    6323,    6322
    1872,    6070,    6071,    6098,    6097,    6294,    6295,    6322,    6321
    1873,    6069,    6070,    6097,    6096,    6293,    6294,    6321,    6320
    1874,    6068,    6069,    6096,    6095,    6292,    6293,    6320,    6319
    1875,    6067,    6068,    6095,    6094,    6291,    6292,    6319,    6318
    1876,    6066,    6067,    6094,    6093,    6290,    6291,    6318,    6317
    1877,    6065,    6066,    6093,    6092,    6289,    6290,    6317,    6316
    1878,    6064,    6065,    6092,    6091,    6288,    6289,    6316,    6315
    1879,    6063,    6064,    6091,    6090,    6287,    6288,    6315,    6314
    1880,    6062,    6063,    6090,    6089,    6286,    6287,    6314,    6313
    1881,    6049,    6062,    6089,    6048,    6273,    6286,    6313,    6272
    1882,    6035,    6036,    6050,    6088,    6259,    6260,    6274,    6312
    1883,    6034,    6035,    6088,    6087,    6258,    6259,    6312,    6311
    1884,    6033,    6034,    6087,    6086,    6257,    6258,    6311,    6310
    1885,    6032,    6033,    6086,    6085,    6256,    6257,    6310,    6309
    1886,    6031,    6032,    6085,    6084,    6255,    6256,    6309,    6308
    1887,    6030,    6031,    6084,    6083,    6254,    6255,    6308,    6307
    1888,    6029,    6030,    6083,    6082,    6253,    6254,    6307,    6306
    1889,    6028,    6029,    6082,    6081,    6252,    6253,    6306,    6305
    1890,    6027,    6028,    6081,    6080,    6251,    6252,    6305,    6304
    1891,    6026,    6027,    6080,    6079,    6250,    6251,    6304,    6303
    1892,    6025,    6026,    6079,    6078,    6249,    6250,    6303,    6302
    1893,    6024,    6025,    6078,    6077,    6248,    6249,    6302,    6301
    1894,    6023,    6024,    6077,    6076,    6247,    6248,    6301,    6300
    1895,    6022,    6023,    6076,    6075,    6246,    6247,    6300,    6299
    1896,    6021,    6022,    6075,    6074,    6245,    6246,    6299,    6298
    1897,    5504,    5502,    6037,    6061,    5505,    5503,    6261,    6285
    1898,    5970,    5972,    6021,    6074,    5969,    5971,    6245,    6298
    1899,    5968,    5970,    6074,    6073,    5967,    5969,    6298,    6297
    1900,    5966,    5968,    6073,    6072,    5965,    5967,    6297,    6296
    1901,    5964,    5966,    6072,    6071,    5963,    5965,    6296,    6295
    1902,    5962,    5964,    6071,    6070,    5961,    5963,    6295,    6294
    1903,    5960,    5962,    6070,    6069,    5959,    5961,    6294,    6293
    1904,    5958,    5960,    6069,    6068,    5957,    5959,    6293,    6292
    1905,    5956,    5958,    6068,    6067,    5955,    5957,    6292,    6291
    1906,    5954,    5956,    6067,    6066,    5953,    5955,    6291,    6290
    1907,    5952,    5954,    6066,    6065,    5951,    5953,    6290,    6289
    1908,    5950,    5952,    6065,    6064,    5949,    5951,    6289,    6288
    1909,    5948,    5950,    6064,    6063,    5947,    5949,    6288,    6287
    1910,    5946,    5948,    6063,    6062,    5945,    5947,    6287,    6286
    1911,    5944,    5946,    6062,    6049,    5943,    5945,    6286,    6273
    1912,    5911,    5498,    5504,    6061,    5924,    5499,    5505,    6285
    1913,    5910,    5911,    6061,    6060,    5923,    5924,    6285,    6284
    1914,    5909,    5910,    6060,    6059,    5922,    5923,    6284,    6283
    1915,    5908,    5909,    6059,    6058,    5921,    5922,    6283,    6282
    1916,    5907,    5908,    6058,    6057,    5920,    5921,    6282,    6281
    1917,    5906,    5907,    6057,    6056,    5919,    5920,    6281,    6280
    1918,    5905,    5906,    6056,    6055,    5918,    5919,    6280,    6279
    1919,    5904,    5905,    6055,    6054,    5917,    5918,    6279,    6278
    1920,    5903,    5904,    6054,    6053,    5916,    5917,    6278,    6277
    1921,    5902,    5903,    6053,    6052,    5915,    5916,    6277,    6276
    1922,    5901,    5902,    6052,    6051,    5914,    5915,    6276,    6275
    1923,    5900,    5901,    6051,    6050,    5913,    5914,    6275,    6274
    1924,    5899,    5900,    6050,    6036,    5912,    5913,    6274,    6260
    1925,    2401,    2375,    5944,    6049,    2402,    2376,    5943,    6273
    1926,    2399,    2401,    6049,    6048,    2400,    2402,    6273,    6272
    1927,    2397,    2399,    6048,    6047,    2398,    2400,    6272,    6271
    1928,    2395,    2397,    6047,    6046,    2396,    2398,    6271,    6270
    1929,    2393,    2395,    6046,    6045,    2394,    2396,    6270,    6269
    1930,    2391,    2393,    6045,    6044,    2392,    2394,    6269,    6268
    1931,    2389,    2391,    6044,    6043,    2390,    2392,    6268,    6267
    1932,    2387,    2389,    6043,    6042,    2388,    2390,    6267,    6266
    1933,    2385,    2387,    6042,    6041,    2386,    2388,    6266,    6265
    1934,    2383,    2385,    6041,    6040,    2384,    2386,    6265,    6264
    1935,    2381,    2383,    6040,    6039,    2382,    2384,    6264,    6263
    1936,    2379,    2381,    6039,    6038,    2380,    2382,    6263,    6262
    1937,    2377,    2379,    6038,    6037,    2378,    2380,    6262,    6261
    1938,    1909,    2377,    6037,    5502,    1908,    2378,    6261,    5503
    1939,    5989,    5898,    5899,    6036,    5990,    5897,    5912,    6260
    1940,    5991,    5989,    6036,    6035,    5992,    5990,    6260,    6259
    1941,    5993,    5991,    6035,    6034,    5994,    5992,    6259,    6258
    1942,    5995,    5993,    6034,    6033,    5996,    5994,    6258,    6257
    1943,    5997,    5995,    6033,    6032,    5998,    5996,    6257,    6256
    1944,    5999,    5997,    6032,    6031,    6000,    5998,    6256,    6255
    1945,    6001,    5999,    6031,    6030,    6002,    6000,    6255,    6254
    1946,    6003,    6001,    6030,    6029,    6004,    6002,    6254,    6253
    1947,    6005,    6003,    6029,    6028,    6006,    6004,    6253,    6252
    1948,    6007,    6005,    6028,    6027,    6008,    6006,    6252,    6251
    1949,    6009,    6007,    6027,    6026,    6010,    6008,    6251,    6250
    1950,    6011,    6009,    6026,    6025,    6012,    6010,    6250,    6249
    1951,    6013,    6011,    6025,    6024,    6014,    6012,    6249,    6248
    1952,    6015,    6013,    6024,    6023,    6016,    6014,    6248,    6247
    1953,    6017,    6015,    6023,    6022,    6018,    6016,    6247,    6246
    1954,    6019,    6017,    6022,    6021,    6020,    6018,    6246,    6245
    1955,    5926,    6019,    6021,    5972,    5927,    6020,    6245,    5971
    1956,    6465,    6466,    6467,    6468,    6689,    6690,    6691,    6692
    1957,    6468,    6463,    6464,    6465,    6692,    6687,    6688,    6689
    1958,    6461,    6462,    6463,    6468,    6685,    6686,    6687,    6692
    1959,    6460,    6461,    6468,    6467,    6684,    6685,    6692,    6691
    1960,    6459,    6460,    6467,    6466,    6683,    6684,    6691,    6690
    1961,    6453,    6454,    6465,    6464,    6677,    6678,    6689,    6688
    1962,    6457,    6458,    6459,    6466,    6681,    6682,    6683,    6690
    1963,    6456,    6457,    6466,    6465,    6680,    6681,    6690,    6689
    1964,    6455,    6456,    6465,    6454,    6679,    6680,    6689,    6678
    1965,    6451,    6452,    6453,    6464,    6675,    6676,    6677,    6688
    1966,    6450,    6451,    6464,    6463,    6674,    6675,    6688,    6687
    1967,    6449,    6450,    6463,    6462,    6673,    6674,    6687,    6686
    1968,    6447,    6448,    6449,    6462,    6671,    6672,    6673,    6686
    1969,    6446,    6447,    6462,    6461,    6670,    6671,    6686,    6685
    1970,    6445,    6446,    6461,    6460,    6669,    6670,    6685,    6684
    1971,    6444,    6445,    6460,    6459,    6668,    6669,    6684,    6683
    1972,    6443,    6444,    6459,    6458,    6667,    6668,    6683,    6682
    1973,    6441,    6442,    6443,    6458,    6665,    6666,    6667,    6682
    1974,    6440,    6441,    6458,    6457,    6664,    6665,    6682,    6681
    1975,    6439,    6440,    6457,    6456,    6663,    6664,    6681,    6680
    1976,    6438,    6439,    6456,    6455,    6662,    6663,    6680,    6679
    1977,    6436,    6437,    6438,    6455,    6660,    6661,    6662,    6679
    1978,    6435,    6436,    6455,    6454,    6659,    6660,    6679,    6678
    1979,    6434,    6435,    6454,    6453,    6658,    6659,    6678,    6677
    1980,    6433,    6434,    6453,    6452,    6657,    6658,    6677,    6676
    1981,    6431,    6432,    6433,    6452,    6655,    6656,    6657,    6676
    1982,    6430,    6431,    6452,    6451,    6654,    6655,    6676,    6675
    1983,    6429,    6430,    6451,    6450,    6653,    6654,    6675,    6674
    1984,    6428,    6429,    6450,    6449,    6652,    6653,    6674,    6673
    1985,    6427,    6428,    6449,    6448,    6651,    6652,    6673,    6672
    1986,    6425,    6426,    6427,    6448,    6649,    6650,    6651,    6672
    1987,    6424,    6425,    6448,    6447,    6648,    6649,    6672,    6671
    1988,    6423,    6424,    6447,    6446,    6647,    6648,    6671,    6670
    1989,    6422,    6423,    6446,    6445,    6646,    6647,    6670,    6669
    1990,    6421,    6422,    6445,    6444,    6645,    6646,    6669,    6668
    1991,    6420,    6421,    6444,    6443,    6644,    6645,    6668,    6667
    1992,    6419,    6420,    6443,    6442,    6643,    6644,    6667,    6666
    1993,    6417,    6418,    6419,    6442,    6641,    6642,    6643,    6666
    1994,    6416,    6417,    6442,    6441,    6640,    6641,    6666,    6665
    1995,    6415,    6416,    6441,    6440,    6639,    6640,    6665,    6664
    1996,    6414,    6415,    6440,    6439,    6638,    6639,    6664,    6663
    1997,    6413,    6414,    6439,    6438,    6637,    6638,    6663,    6662
    1998,    6412,    6413,    6438,    6437,    6636,    6637,    6662,    6661
    1999,    6410,    6411,    6412,    6437,    6634,    6635,    6636,    6661
    2000,    6409,    6410,    6437,    6436,    6633,    6634,    6661,    6660
    2001,    6408,    6409,    6436,    6435,    6632,    6633,    6660,    6659
    2002,    6407,    6408,    6435,    6434,    6631,    6632,    6659,    6658
    2003,    6406,    6407,    6434,    6433,    6630,    6631,    6658,    6657
    2004,    6405,    6406,    6433,    6432,    6629,    6630,    6657,    6656
    2005,    6403,    6404,    6405,    6432,    6627,    6628,    6629,    6656
    2006,    6402,    6403,    6432,    6431,    6626,    6627,    6656,    6655
    2007,    6401,    6402,    6431,    6430,    6625,    6626,    6655,    6654
    2008,    6400,    6401,    6430,    6429,    6624,    6625,    6654,    6653
    2009,    6399,    6400,    6429,    6428,    6623,    6624,    6653,    6652
    2010,    6398,    6399,    6428,    6427,    6622,    6623,    6652,    6651
    2011,    6397,    6398,    6427,    6426,    6621,    6622,    6651,    6650
    2012,    6395,    6396,    6397,    6426,    6619,    6620,    6621,    6650
    2013,    6394,    6395,    6426,    6425,    6618,    6619,    6650,    6649
    2014,    6393,    6394,    6425,    6424,    6617,    6618,    6649,    6648
    2015,    6392,    6393,    6424,    6423,    6616,    6617,    6648,    6647
    2016,    6391,    6392,    6423,    6422,    6615,    6616,    6647,    6646
    2017,    6390,    6391,    6422,    6421,    6614,    6615,    6646,    6645
    2018,    6389,    6390,    6421,    6420,    6613,    6614,    6645,    6644
    2019,    6388,    6389,    6420,    6419,    6612,    6613,    6644,    6643
    2020,    6387,    6388,    6419,    6418,    6611,    6612,    6643,    6642
    2021,    6377,    6378,    6387,    6418,    6601,    6602,    6611,    6642
    2022,    6376,    6377,    6418,    6417,    6600,    6601,    6642,    6641
    2023,    6375,    6376,    6417,    6416,    6599,    6600,    6641,    6640
    2024,    6374,    6375,    6416,    6415,    6598,    6599,    6640,    6639
    2025,    6373,    6374,    6415,    6414,    6597,    6598,    6639,    6638
    2026,    6372,    6373,    6414,    6413,    6596,    6597,    6638,    6637
    2027,    6371,    6372,    6413,    6412,    6595,    6596,    6637,    6636
    2028,    6370,    6371,    6412,    6411,    6594,    6595,    6636,    6635
    2029,    6386,    6369,    6370,    6411,    6610,    6593,    6594,    6635
    2030,    6385,    6386,    6411,    6410,    6609,    6610,    6635,    6634
    2031,    6384,    6385,    6410,    6409,    6608,    6609,    6634,    6633
    2032,    6383,    6384,    6409,    6408,    6607,    6608,    6633,    6632
    2033,    6382,    6383,    6408,    6407,    6606,    6607,    6632,    6631
    2034,    6381,    6382,    6407,    6406,    6605,    6606,    6631,    6630
    2035,    6380,    6381,    6406,    6405,    6604,    6605,    6630,    6629
    2036,    6379,    6380,    6405,    6404,    6603,    6604,    6629,    6628
    2037,    6356,    6357,    6379,    6404,    6580,    6581,    6603,    6628
    2038,    6355,    6356,    6404,    6403,    6579,    6580,    6628,    6627
    2039,    6354,    6355,    6403,    6402,    6578,    6579,    6627,    6626
    2040,    6353,    6354,    6402,    6401,    6577,    6578,    6626,    6625
    2041,    6352,    6353,    6401,    6400,    6576,    6577,    6625,    6624
    2042,    6351,    6352,    6400,    6399,    6575,    6576,    6624,    6623
    2043,    6350,    6351,    6399,    6398,    6574,    6575,    6623,    6622
    2044,    6349,    6350,    6398,    6397,    6573,    6574,    6622,    6621
    2045,    6348,    6349,    6397,    6396,    6572,    6573,    6621,    6620
    2046,    6368,    6347,    6348,    6396,    6592,    6571,    6572,    6620
    2047,    6367,    6368,    6396,    6395,    6591,    6592,    6620,    6619
    2048,    6366,    6367,    6395,    6394,    6590,    6591,    6619,    6618
    2049,    6365,    6366,    6394,    6393,    6589,    6590,    6618,    6617
    2050,    6364,    6365,    6393,    6392,    6588,    6589,    6617,    6616
    2051,    6363,    6364,    6392,    6391,    6587,    6588,    6616,    6615
    2052,    6362,    6363,    6391,    6390,    6586,    6587,    6615,    6614
    2053,    6361,    6362,    6390,    6389,    6585,    6586,    6614,    6613
    2054,    6360,    6361,    6389,    6388,    6584,    6585,    6613,    6612
    2055,    6359,    6360,    6388,    6387,    6583,    6584,    6612,    6611
    2056,    6358,    6359,    6387,    6378,    6582,    6583,    6611,    6602
    2057,    6345,    6346,    6369,    6386,    6569,    6570,    6593,    6610
    2058,    6344,    6345,    6386,    6385,    6568,    6569,    6610,    6609
    2059,    6343,    6344,    6385,    6384,    6567,    6568,    6609,    6608
    2060,    6342,    6343,    6384,    6383,    6566,    6567,    6608,    6607
    2061,    6341,    6342,    6383,    6382,    6565,    6566,    6607,    6606
    2062,    6340,    6341,    6382,    6381,    6564,    6565,    6606,    6605
    2063,    6339,    6340,    6381,    6380,    6563,    6564,    6605,    6604
    2064,    6338,    6339,    6380,    6379,    6562,    6563,    6604,    6603
    2065,    6337,    6338,    6379,    6357,    6561,    6562,    6603,    6581
    2066,    6323,    6324,    6358,    6378,    6547,    6548,    6582,    6602
    2067,    6322,    6323,    6378,    6377,    6546,    6547,    6602,    6601
    2068,    6321,    6322,    6377,    6376,    6545,    6546,    6601,    6600
    2069,    6320,    6321,    6376,    6375,    6544,    6545,    6600,    6599
    2070,    6319,    6320,    6375,    6374,    6543,    6544,    6599,    6598
    2071,    6318,    6319,    6374,    6373,    6542,    6543,    6598,    6597
    2072,    6317,    6318,    6373,    6372,    6541,    6542,    6597,    6596
    2073,    6316,    6317,    6372,    6371,    6540,    6541,    6596,    6595
    2074,    6315,    6316,    6371,    6370,    6539,    6540,    6595,    6594
    2075,    6314,    6315,    6370,    6369,    6538,    6539,    6594,    6593
    2076,    6313,    6314,    6369,    6346,    6537,    6538,    6593,    6570
    2077,    6310,    6311,    6347,    6368,    6534,    6535,    6571,    6592
    2078,    6309,    6310,    6368,    6367,    6533,    6534,    6592,    6591
    2079,    6308,    6309,    6367,    6366,    6532,    6533,    6591,    6590
    2080,    6307,    6308,    6366,    6365,    6531,    6532,    6590,    6589
    2081,    6306,    6307,    6365,    6364,    6530,    6531,    6589,    6588
    2082,    6305,    6306,    6364,    6363,    6529,    6530,    6588,    6587
    2083,    6304,    6305,    6363,    6362,    6528,    6529,    6587,    6586
    2084,    6303,    6304,    6362,    6361,    6527,    6528,    6586,    6585
    2085,    6302,    6303,    6361,    6360,    6526,    6527,    6585,    6584
    2086,    6301,    6302,    6360,    6359,    6525,    6526,    6584,    6583
    2087,    6300,    6301,    6359,    6358,    6524,    6525,    6583,    6582
    2088,    6299,    6300,    6358,    6324,    6523,    6524,    6582,    6548
    2089,    6335,    6336,    6337,    6357,    6559,    6560,    6561,    6581
    2090,    6334,    6335,    6357,    6356,    6558,    6559,    6581,    6580
    2091,    6333,    6334,    6356,    6355,    6557,    6558,    6580,    6579
    2092,    6332,    6333,    6355,    6354,    6556,    6557,    6579,    6578
    2093,    6331,    6332,    6354,    6353,    6555,    6556,    6578,    6577
    2094,    6330,    6331,    6353,    6352,    6554,    6555,    6577,    6576
    2095,    6329,    6330,    6352,    6351,    6553,    6554,    6576,    6575
    2096,    6328,    6329,    6351,    6350,    6552,    6553,    6575,    6574
    2097,    6327,    6328,    6350,    6349,    6551,    6552,    6574,    6573
    2098,    6326,    6327,    6349,    6348,    6550,    6551,    6573,    6572
    2099,    6325,    6326,    6348,    6347,    6549,    6550,    6572,    6571
    2100,    6312,    6325,    6347,    6311,    6536,    6549,    6571,    6535
    2101,    6271,    6272,    6313,    6346,    6495,    6496,    6537,    6570
    2102,    6270,    6271,    6346,    6345,    6494,    6495,    6570,    6569
    2103,    6269,    6270,    6345,    6344,    6493,    6494,    6569,    6568
    2104,    6268,    6269,    6344,    6343,    6492,    6493,    6568,    6567
    2105,    6267,    6268,    6343,    6342,    6491,    6492,    6567,    6566
    2106,    6266,    6267,    6342,    6341,    6490,    6491,    6566,    6565
    2107,    6265,    6266,    6341,    6340,    6489,    6490,    6565,    6564
    2108,    6264,    6265,    6340,    6339,    6488,    6489,    6564,    6563
    2109,    6263,    6264,    6339,    6338,    6487,    6488,    6563,    6562
    2110,    6262,    6263,    6338,    6337,    6486,    6487,    6562,    6561
    2111,    6261,    6262,    6337,    6336,    6485,    6486,    6561,    6560
    2112,    6285,    6261,    6336,    6335,    6509,    6485,    6560,    6559
    2113,    6284,    6285,    6335,    6334,    6508,    6509,    6559,    6558
    2114,    6283,    6284,    6334,    6333,    6507,    6508,    6558,    6557
    2115,    6282,    6283,    6333,    6332,    6506,    6507,    6557,    6556
    2116,    6281,    6282,    6332,    6331,    6505,    6506,    6556,    6555
    2117,    6280,    6281,    6331,    6330,    6504,    6505,    6555,    6554
    2118,    6279,    6280,    6330,    6329,    6503,    6504,    6554,    6553
    2119,    6278,    6279,    6329,    6328,    6502,    6503,    6553,    6552
    2120,    6277,    6278,    6328,    6327,    6501,    6502,    6552,    6551
    2121,    6276,    6277,    6327,    6326,    6500,    6501,    6551,    6550
    2122,    6275,    6276,    6326,    6325,    6499,    6500,    6550,    6549
    2123,    6274,    6275,    6325,    6312,    6498,    6499,    6549,    6536
    2124,    6297,    6298,    6299,    6324,    6521,    6522,    6523,    6548
    2125,    6296,    6297,    6324,    6323,    6520,    6521,    6548,    6547
    2126,    6295,    6296,    6323,    6322,    6519,    6520,    6547,    6546
    2127,    6294,    6295,    6322,    6321,    6518,    6519,    6546,    6545
    2128,    6293,    6294,    6321,    6320,    6517,    6518,    6545,    6544
    2129,    6292,    6293,    6320,    6319,    6516,    6517,    6544,    6543
    2130,    6291,    6292,    6319,    6318,    6515,    6516,    6543,    6542
    2131,    6290,    6291,    6318,    6317,    6514,    6515,    6542,    6541
    2132,    6289,    6290,    6317,    6316,    6513,    6514,    6541,    6540
    2133,    6288,    6289,    6316,    6315,    6512,    6513,    6540,    6539
    2134,    6287,    6288,    6315,    6314,    6511,    6512,    6539,    6538
    2135,    6286,    6287,    6314,    6313,    6510,    6511,    6538,    6537
    2136,    6273,    6286,    6313,    6272,    6497,    6510,    6537,    6496
    2137,    6259,    6260,    6274,    6312,    6483,    6484,    6498,    6536
    2138,    6258,    6259,    6312,    6311,    6482,    6483,    6536,    6535
    2139,    6257,    6258,    6311,    6310,    6481,    6482,    6535,    6534
    2140,    6256,    6257,    6310,    6309,    6480,    6481,    6534,    6533
    2141,    6255,    6256,    6309,    6308,    6479,    6480,    6533,    6532
    2142,    6254,    6255,    6308,    6307,    6478,    6479,    6532,    6531
    2143,    6253,    6254,    6307,    6306,    6477,    6478,    6531,    6530
    2144,    6252,    6253,    6306,    6305,    6476,    6477,    6530,    6529
    2145,    6251,    6252,    6305,    6304,    6475,    6476,    6529,    6528
    2146,    6250,    6251,    6304,    6303,    6474,    6475,    6528,    6527
    2147,    6249,    6250,    6303,    6302,    6473,    6474,    6527,    6526
    2148,    6248,    6249,    6302,    6301,    6472,    6473,    6526,    6525
    2149,    6247,    6248,    6301,    6300,    6471,    6472,    6525,    6524
    2150,    6246,    6247,    6300,    6299,    6470,    6471,    6524,    6523
    2151,    6245,    6246,    6299,    6298,    6469,    6470,    6523,    6522
    2152,    5505,    5503,    6261,    6285,    5496,    5495,    6485,    6509
    2153,    5969,    5971,    6245,    6298,    5929,    5928,    6469,    6522
    2154,    5967,    5969,    6298,    6297,    5930,    5929,    6522,    6521
    2155,    5965,    5967,    6297,    6296,    5931,    5930,    6521,    6520
    2156,    5963,    5965,    6296,    6295,    5932,    5931,    6520,    6519
    2157,    5961,    5963,    6295,    6294,    5933,    5932,    6519,    6518
    2158,    5959,    5961,    6294,    6293,    5934,    5933,    6518,    6517
    2159,    5957,    5959,    6293,    6292,    5935,    5934,    6517,    6516
    2160,    5955,    5957,    6292,    6291,    5936,    5935,    6516,    6515
    2161,    5953,    5955,    6291,    6290,    5937,    5936,    6515,    6514
    2162,    5951,    5953,    6290,    6289,    5938,    5937,    6514,    6513
    2163,    5949,    5951,    6289,    6288,    5939,    5938,    6513,    6512
    2164,    5947,    5949,    6288,    6287,    5940,    5939,    6512,    6511
    2165,    5945,    5947,    6287,    6286,    5941,    5940,    6511,    6510
    2166,    5943,    5945,    6286,    6273,    5942,    5941,    6510,    6497
    2167,    5924,    5499,    5505,    6285,    5884,    5494,    5496,    6509
    2168,    5923,    5924,    6285,    6284,    5885,    5884,    6509,    6508
    2169,    5922,    5923,    6284,    6283,    5886,    5885,    6508,    6507
    2170,    5921,    5922,    6283,    6282,    5887,    5886,    6507,    6506
    2171,    5920,    5921,    6282,    6281,    5888,    5887,    6506,    6505
    2172,    5919,    5920,    6281,    6280,    5889,    5888,    6505,    6504
    2173,    5918,    5919,    6280,    6279,    5890,    5889,    6504,    6503
    2174,    5917,    5918,    6279,    6278,    5891,    5890,    6503,    6502
    2175,    5916,    5917,    6278,    6277,    5892,    5891,    6502,    6501
    2176,    5915,    5916,    6277,    6276,    5893,    5892,    6501,    6500
    2177,    5914,    5915,    6276,    6275,    5894,    5893,    6500,    6499
    2178,    5913,    5914,    6275,    6274,    5895,    5894,    6499,    6498
    2179,    5912,    5913,    6274,    6260,    5896,    5895,    6498,    6484
    2180,    2402,    2376,    5943,    6273,    2362,    2361,    5942,    6497
    2181,    2400,    2402,    6273,    6272,    2363,    2362,    6497,    6496
    2182,    2398,    2400,    6272,    6271,    2364,    2363,    6496,    6495
    2183,    2396,    2398,    6271,    6270,    2365,    2364,    6495,    6494
    2184,    2394,    2396,    6270,    6269,    2366,    2365,    6494,    6493
    2185,    2392,    2394,    6269,    6268,    2367,    2366,    6493,    6492
    2186,    2390,    2392,    6268,    6267,    2368,    2367,    6492,    6491
    2187,    2388,    2390,    6267,    6266,    2369,    2368,    6491,    6490
    2188,    2386,    2388,    6266,    6265,    2370,    2369,    6490,    6489
    2189,    2384,    2386,    6265,    6264,    2371,    2370,    6489,    6488
    2190,    2382,    2384,    6264,    6263,    2372,    2371,    6488,    6487
    2191,    2380,    2382,    6263,    6262,    2373,    2372,    6487,    6486
    2192,    2378,    2380,    6262,    6261,    2374,    2373,    6486,    6485
    2193,    1908,    2378,    6261,    5503,    1897,    2374,    6485,    5495
    2194,    5990,    5897,    5912,    6260,    5973,    5883,    5896,    6484
    2195,    5992,    5990,    6260,    6259,    5974,    5973,    6484,    6483
    2196,    5994,    5992,    6259,    6258,    5975,    5974,    6483,    6482
    2197,    5996,    5994,    6258,    6257,    5976,    5975,    6482,    6481
    2198,    5998,    5996,    6257,    6256,    5977,    5976,    6481,    6480
    2199,    6000,    5998,    6256,    6255,    5978,    5977,    6480,    6479
    2200,    6002,    6000,    6255,    6254,    5979,    5978,    6479,    6478
    2201,    6004,    6002,    6254,    6253,    5980,    5979,    6478,    6477
    2202,    6006,    6004,    6253,    6252,    5981,    5980,    6477,    6476
    2203,    6008,    6006,    6252,    6251,    5982,    5981,    6476,    6475
    2204,    6010,    6008,    6251,    6250,    5983,    5982,    6475,    6474
    2205,    6012,    6010,    6250,    6249,    5984,    5983,    6474,    6473
    2206,    6014,    6012,    6249,    6248,    5985,    5984,    6473,    6472
    2207,    6016,    6014,    6248,    6247,    5986,    5985,    6472,    6471
    2208,    6018,    6016,    6247,    6246,    5987,    5986,    6471,    6470
    2209,    6020,    6018,    6246,    6245,    5988,    5987,    6470,    6469
    2210,    5927,    6020,    6245,    5971,    5925,    5988,    6469,    5928
*ELEMENT, TYPE=C3D8R, ELSET=mortar
    2211,    7167,    7181,    7207,    7206,    7168,    7205,    7233,    7220
    2212,    7181,    7180,    7208,    7207,    7205,    7204,    7234,    7233
    2213,    7180,    7179,    7209,    7208,    7204,    7203,    7235,    7234
    2214,    7179,    7178,    7210,    7209,    7203,    7202,    7236,    7235
    2215,    7178,    7177,    7211,    7210,    7202,    7201,    7237,    7236
    2216,    7177,    7176,    7212,    7211,    7201,    7200,    7238,    7237
    2217,    7176,    7175,    7213,    7212,    7200,    7199,    7239,    7238
    2218,    7175,    7174,    7214,    7213,    7199,    7198,    7240,    7239
    2219,    7174,    7173,    7215,    7214,    7198,    7197,    7241,    7240
    2220,    7173,    7172,    7216,    7215,    7197,    7196,    7242,    7241
    2221,    7172,    7171,    7217,    7216,    7196,    7195,    7243,    7242
    2222,    7171,    7170,    7218,    7217,    7195,    7194,    7244,    7243
    2223,    7170,    7161,    7164,    7218,    7194,    7163,    7165,    7244
    2224,    7168,    7205,    7233,    7220,    7169,    7193,    7221,    7219
    2225,    7205,    7204,    7234,    7233,    7193,    7192,    7222,    7221
    2226,    7204,    7203,    7235,    7234,    7192,    7191,    7223,    7222
    2227,    7203,    7202,    7236,    7235,    7191,    7190,    7224,    7223
    2228,    7202,    7201,    7237,    7236,    7190,    7189,    7225,    7224
    2229,    7201,    7200,    7238,    7237,    7189,    7188,    7226,    7225
    2230,    7200,    7199,    7239,    7238,    7188,    7187,    7227,    7226
    2231,    7199,    7198,    7240,    7239,    7187,    7186,    7228,    7227
    2232,    7198,    7197,    7241,    7240,    7186,    7185,    7229,    7228
    2233,    7197,    7196,    7242,    7241,    7185,    7184,    7230,    7229
    2234,    7196,    7195,    7243,    7242,    7184,    7183,    7231,    7230
    2235,    7195,    7194,    7244,    7243,    7183,    7182,    7232,    7231
    2236,    7194,    7163,    7165,    7244,    7182,    7162,    7166,    7232
    2237,    7169,    7193,    7221,    7219,    7133,    7147,    7149,    7134
    2238,    7193,    7192,    7222,    7221,    7147,    7146,    7150,    7149
    2239,    7192,    7191,    7223,    7222,    7146,    7145,    7151,    7150
    2240,    7191,    7190,    7224,    7223,    7145,    7144,    7152,    7151
    2241,    7190,    7189,    7225,    7224,    7144,    7143,    7153,    7152
    2242,    7189,    7188,    7226,    7225,    7143,    7142,    7154,    7153
    2243,    7188,    7187,    7227,    7226,    7142,    7141,    7155,    7154
    2244,    7187,    7186,    7228,    7227,    7141,    7140,    7156,    7155
    2245,    7186,    7185,    7229,    7228,    7140,    7139,    7157,    7156
    2246,    7185,    7184,    7230,    7229,    7139,    7138,    7158,    7157
    2247,    7184,    7183,    7231,    7230,    7138,    7137,    7159,    7158
    2248,    7183,    7182,    7232,    7231,    7137,    7136,    7160,    7159
    2249,    7182,    7162,    7166,    7232,    7136,    7135,    7148,    7160
    2250,    7135,    8899,    8856,    7148,    7136,    8911,    8858,    7160
    2251,    8899,    8898,    8857,    8856,    8911,    8923,    8870,    8858
    2252,    8898,    8885,    8843,    8857,    8923,    8897,    8844,    8870
    2253,    7136,    8911,    8858,    7160,    7137,    8910,    8859,    7159
    2254,    8911,    8923,    8870,    8858,    8910,    8922,    8871,    8859
    2255,    8923,    8897,    8844,    8870,    8922,    8896,    8845,    8871
    2256,    7137,    8910,    8859,    7159,    7138,    8909,    8860,    7158
    2257,    8910,    8922,    8871,    8859,    8909,    8921,    8872,    8860
    2258,    8922,    8896,    8845,    8871,    8921,    8895,    8846,    8872
    2259,    7138,    8909,    8860,    7158,    7139,    8908,    8861,    7157
    2260,    8909,    8921,    8872,    8860,    8908,    8920,    8873,    8861
    2261,    8921,    8895,    8846,    8872,    8920,    8894,    8847,    8873
    2262,    7139,    8908,    8861,    7157,    7140,    8907,    8862,    7156
    2263,    8908,    8920,    8873,    8861,    8907,    8919,    8874,    8862
    2264,    8920,    8894,    8847,    8873,    8919,    8893,    8848,    8874
    2265,    7140,    8907,    8862,    7156,    7141,    8906,    8863,    7155
    2266,    8907,    8919,    8874,    8862,    8906,    8918,    8875,    8863
    2267,    8919,    8893,    8848,    8874,    8918,    8892,    8849,    8875
    2268,    7141,    8906,    8863,    7155,    7142,    8905,    8864,    7154
    2269,    8906,    8918,    8875,    8863,    8905,    8917,    8876,    8864
    2270,    8918,    8892,    8849,    8875,    8917,    8891,    8850,    8876
    2271,    7142,    8905,    8864,    7154,    7143,    8904,    8865,    7153
    2272,    8905,    8917,    8876,    8864,    8904,    8916,    8877,    8865
    2273,    8917,    8891,    8850,    8876,    8916,    8890,    8851,    8877
    2274,    7143,    8904,    8865,    7153,    7144,    8903,    8866,    7152
    2275,    8904,    8916,    8877,    8865,    8903,    8915,    8878,    8866
    2276,    8916,    8890,    8851,    8877,    8915,    8889,    8852,    8878
    2277,    7144,    8903,    8866,    7152,    7145,    8902,    8867,    7151
    2278,    8903,    8915,    8878,    8866,    8902,    8914,    8879,    8867
    2279,    8915,    8889,    8852,    8878,    8914,    8888,    8853,    8879
    2280,    7145,    8902,    8867,    7151,    7146,    8901,    8868,    7150
    2281,    8902,    8914,    8879,    8867,    8901,    8913,    8880,    8868
    2282,    8914,    8888,    8853,    8879,    8913,    8887,    8854,    8880
    2283,    7146,    8901,    8868,    7150,    7147,    8900,    8869,    7149
    2284,    8901,    8913,    8880,    8868,    8900,    8912,    8881,    8869
    2285,    8913,    8887,    8854,    8880,    8912,    8886,    8855,    8881
    2286,    7147,    8900,    8869,    7149,    7133,    8883,    8842,    7134
    2287,    8900,    8912,    8881,    8869,    8883,    8884,    8841,    8842
    2288,    8912,    8886,    8855,    8881,    8884,    8882,    8840,    8841
********************************** N O D E S E T S **********************************
*NSET, NSET=plate_bottom
    1919,    1920,    1921,    1922,    3213,    3214,
    3215,    3216,    3217,    3218,    3219,    3220,
    3221,    3222,    3223,    3224,    3225,    3226,
    3227,    3228,    3229,    3230,    3231,    3232,
    3233,    3234,    3235,    3236,    3237,    3238,
    3239,    3240,    3241,    3242,    3243,    3244,
    3245,    3246,    3247,    3248,    3249,    3250,
    3251,    3252,    3253,    3254,    3255,    3256,
    3257,    3258,    3259,    3260,    3261,    3262,
    3263,    3264,    3265,    3266,    3267,    3268,
    3269,    3270,    3271,    3272,    3273,    3274,
    3275,    3276,    3277,    3278,    3279,    3280,
    3281,    3282,    3283,    3284,    3285,    3286,
    3287,    3288,    3289,    3290,    3291,    3292,
    3293,    3294,    3295,    3296,    3297,    3298,
    3299,    3300,    3301,    3302,    3303,    3304,
    3305,    3306,    3307,    3308,    3309,    3310,
    3311,    3312,    3313,    3314,    3315,    3316,
    3317,    3318,    3319,    3320,    3321,    3322,
    3323,    3324,    3325,    3326,    3327,    3328,
    3329,    3330,    3331,    3332,    3333,    3334,
    3335,    3336,    3337,    3338,    3339,    3340,
    3341,    3342,    3343,    3344,    3345,    3346,
    3347,    3348,    3349,    3350,    3351,    3352,
    3353,    3354,    3355,    3356,    3357,    3358,
    3359,    3360,    3361,    3362,    3363,    3364,
    3365,    3366,    3367,    3368,    3369,    3370,
    3371,    3372,    3373,    3374,    3375,    3376,
    3377,    3378,    3379,    3380,    3381,    3382,
    3383,    3384,    3385,    3386,    3387,    3388,
    3389,    3390,    3391,    3392,    3393,    3394,
    3395,    3396,    3397,    3398,    3399,    3400,
    3401,    3402,    3403,    3404,    3405,    3406,
    3407,    3408,    3409,    3410,    3411,    3412,
    3413,    3414,    3415,    3416,    3417,    3418,
    3419,    3420,    3421,    3422,    3423,    3424,
    3425,    3426,    3427,    3428,    3429,    3430,
    3431,    3432,    3433,    3434,    3435,    3436,
    3437,    3438,    3439,    3440,    3441,    3442,
    3443,    3444,    3445,    3446,    3447,    3448,
    3449,    3450,    3451,    3452,    3453,    3454,
    3455,    3456,    3457,    3458,    3459,    3460,
    3461,    3462,    3463,    3464,    3465,    3466,
    3467,    3468,    3469,    3470,    3471,    3472,
    3473,    3474,    3475,    3476,    3477,    3478,
    3479,    3480,    3481,    3482,    3483,    3484,
    3485,    3486,    3487,    3488,    3489,    3490,
    3491,    3492,    3493,    3494,    3495,    3496,
    5506,    5507,    5508,    6693,    6694,    6695,
    6696,    6697,    6698,    6699,    6700,    6701,
    6702,    6703,    6704,    6705,    6706,    6707,
    6708,    6709,    6710,    6711,    6712,    6713,
    6714,    6715,    6716,    6717,    6718,    6719,
    6720,    6721,    6722,    6723,    6724,    6725,
    6726,    6727,    6728,    6729,    6730,    6731,
    6732,    6733,    6734,    6735,    6736,    6737,
    6738,    6739,    6740,    6741,    6742,    6743,
    6744,    6745,    6746,    6747,    6748,    6749,
    6750,    6751,    6752,    6753,    6754,    6755,
    6756,    6757,    6758,    6759,    6760,    6761,
    6762,    6763,    6764,    6765,    6766,    6767,
    6768,    6769,    6770,    6771,    6772,    6773,
    6774,    6775,    6776,    6777,    6778,    6779,
    6780,    6781,    6782,    6783,    6784,    6785,
    6786,    6787,    6788,    6789,    6790,    6791,
    6792,    6793,    6794,    6795,    6796,    6797,
    6798,    6799,    6800,    6801,    6802,    6803,
    6804,    6805,    6806,    6807,    6808,    6809,
    6810,    6811,    6812,    6813,    6814,    6815,
    6816,    6817,    6818,    6819,    6820,    6821,
    6822,    6823,    6824,    6825,    6826,    6827,
    6828,    6829,    6830,    6831,    6832,    6833,
    6834,    6835,    6836,    6837,    6838,    6839,
    6840,    6841,    6842,    6843,    6844,    6845,
    6846,    6847,    6848,    6849,    6850,    6851,
    6852,    6853,    6854,    6855,    6856,    6857,
    6858,    6859,    6860,    6861,    6862,    6863,
    6864,    6865,    6866,    6867,    6868,    6869,
    6870,    6871,    6872,    6873,    6874,    6875,
    6876,    6877,    6878,    6879,    6880,    6881,
    6882,    6883,    6884,    6885,    6886,    6887,
    6888,    6889,    6890,    6891,    6892,    6893,
    6894,    6895,    6896,    6897,    6898,    6899,
    6900,    6901,    6902,    6903,    6904,    6905,
    6906,    6907,    6908,    6909,    6910,    6911,
    6912,    6913,    6914,    6915,    6916,    6917,
    6918,    6919,    6920,    6921,    6922,    6923,
    6924,    6925,    6926,    6927,    6928,    6929,
    6930,    6931,    6932,    6933,    6934,    6935,
    6936,    6937,    6938,    6939,    6940,    6941,
    6942,    6943,    6944,    6945,    6946,    6947,
    6948,    6949,    6950,    6951,    6952,    6953,
    6954,    6955,    6956,    6957,    6958,    6959,
    6960,    6961,    6962,
*NSET, NSET=plate_left_loading
    5613,    5629,    5630,    5631,    5632,    5633,
    5634,    5635,    5636,    5637,    5638,    5639,
    5640,    5641,    5642,    5643,    5644,    5645,
*NSET, NSET=z_symm
    1898,    1901,    1902,    1910,    1923,    1924,
    1925,    1926,    1927,    1928,    1929,    1930,
    1931,    1932,    1933,    1934,    1935,    1936,
    1937,    1938,    1939,    2009,    2010,    2011,
    2012,    2013,    2014,    2015,    2016,    2017,
    2018,    2019,    2020,    2021,    2022,    2023,
    2024,    2025,    2026,    2027,    2028,    2029,
    2030,    2031,    2032,    2033,    2034,    2035,
    2036,    2037,    2038,    2039,    2040,    2041,
    2042,    2091,    2092,    2093,    2094,    2095,
    2096,    2097,    2098,    2099,    2100,    2101,
    2102,    2103,    2104,    2451,    2452,    2453,
    2454,    2455,    2456,    2457,    2458,    2459,
    2460,    2461,    2462,    2463,    2464,    2465,
    2466,    2467,    2468,    2469,    2470,    2471,
    2472,    2473,    2474,    2475,    2476,    2477,
    2478,    2479,    2480,    2481,    2482,    2483,
    2484,    2485,    2486,    2487,    2488,    2489,
    2490,    2491,    2492,    3243,    3244,    3245,
    3246,    3247,    3248,    3249,    3250,    3251,
    3252,    3253,    3254,    3255,    3256,    5487,
    5488,    5489,    5494,    5506,    5509,    5510,
    5523,    5524,    5525,    5526,    5527,    5528,
    5529,    5530,    5531,    5532,    5533,    5534,
    5535,    5536,    5537,    5538,    5539,    5540,
    5541,    5542,    5543,    5544,    5545,    5546,
    5547,    5548,    5549,    5550,    5551,    5552,
    5553,    5554,    5629,    5646,    5647,    5648,
    5649,    5650,    5651,    5652,    5653,    5654,
    5655,    5656,    5657,    5658,    5883,    5884,
    5885,    5886,    5887,    5888,    5889,    5890,
    5891,    5892,    5893,    5894,    5895,    5896,
    5897,    5898,    5899,    5900,    5901,    5902,
    5903,    5904,    5905,    5906,    5907,    5908,
    5909,    5910,    5911,    5912,    5913,    5914,
    5915,    5916,    5917,    5918,    5919,    5920,
    5921,    5922,    5923,    5924,    6693,    6694,
    6695,    6696,    6697,    6698,    6699,    6700,
    6701,    6702,    6703,    6704,    6705,    6706,
    8840,    8843,    8882,    8885,
********************************** S I D E S E T S **********************************
*ELSET, ELSET=plate_bottom_S1
      86,      87,      88,      89,      90,      91,      92,      93,      94,      95,
      96,      97,      98,      99,     100,     101,     102,     103,     104,     105,
     106,     107,     108,     109,     110,     111,     112,     113,     114,     115,
     116,     117,     118,     119,     120,     121,     122,     123,     124,     125,
     126,     127,     128,     129,     130,     131,     132,     133,     134,     135,
     136,     137,     138,     139,     140,     141,     142,     143,     144,     145,
     146,     147,     148,     149,     150,     151,     152,     153,     154,     155,
     156,     157,     158,     159,     160,     161,     162,     163,     164,     165,
     166,     167,     168,     169,     170,     171,     172,     173,     174,     175,
     176,     177,     178,     179,     180,     181,     182,     183,     184,     185,
     186,     187,     188,     189,     190,     191,     192,     193,     194,     195,
     196,     197,     198,     199,     200,     201,     202,     203,     204,     205,
     206,     207,     208,     209,     210,     211,     212,     213,     214,     215,
     216,     217,     218,     219,     220,     221,     222,     223,     224,     225,
     226,     227,     228,     229,     230,     231,     232,     233,     234,     235,
     236,     237,     238,     239,     240,     241,     242,     243,     244,     245,
     246,     247,     248,     249,     250,     251,     252,     253,     254,     255,
     256,     257,     258,     259,     260,     261,     262,     263,     264,     265,
     266,     267,     268,     269,     270,     271,     272,     273,     274,     275,
     276,     277,     278,     279,     280,     281,     282,     283,     284,     285,
     286,     287,     288,     289,     290,     291,     292,     293,     294,     295,
     296,     297,     298,     299,     300,     301,     302,     303,     304,     305,
     306,     307,     308,     309,     310,     311,     312,     313,     314,     315,
     316,     317,     318,     319,     320,     321,     322,     323,     324,     325,
     326,     327,     328,     329,     330,     331,     332,     333,     334,     335,
     336,     337,     338,     339,     340,    1191,    1192,    1193,    1194,    1195,
    1196,    1197,    1198,    1199,    1200,    1201,    1202,    1203,    1204,    1205,
    1206,    1207,    1208,    1209,    1210,    1211,    1212,    1213,    1214,    1215,
    1216,    1217,    1218,    1219,    1220,    1221,    1222,    1223,    1224,    1225,
    1226,    1227,    1228,    1229,    1230,    1231,    1232,    1233,    1234,    1235,
    1236,    1237,    1238,    1239,    1240,    1241,    1242,    1243,    1244,    1245,
    1246,    1247,    1248,    1249,    1250,    1251,    1252,    1253,    1254,    1255,
    1256,    1257,    1258,    1259,    1260,    1261,    1262,    1263,    1264,    1265,
    1266,    1267,    1268,    1269,    1270,    1271,    1272,    1273,    1274,    1275,
    1276,    1277,    1278,    1279,    1280,    1281,    1282,    1283,    1284,    1285,
    1286,    1287,    1288,    1289,    1290,    1291,    1292,    1293,    1294,    1295,
    1296,    1297,    1298,    1299,    1300,    1301,    1302,    1303,    1304,    1305,
    1306,    1307,    1308,    1309,    1310,    1311,    1312,    1313,    1314,    1315,
    1316,    1317,    1318,    1319,    1320,    1321,    1322,    1323,    1324,    1325,
    1326,    1327,    1328,    1329,    1330,    1331,    1332,    1333,    1334,    1335,
    1336,    1337,    1338,    1339,    1340,    1341,    1342,    1343,    1344,    1345,
    1346,    1347,    1348,    1349,    1350,    1351,    1352,    1353,    1354,    1355,
    1356,    1357,    1358,    1359,    1360,    1361,    1362,    1363,    1364,    1365,
    1366,    1367,    1368,    1369,    1370,    1371,    1372,    1373,    1374,    1375,
    1376,    1377,    1378,    1379,    1380,    1381,    1382,    1383,    1384,    1385,
    1386,    1387,    1388,    1389,    1390,    1391,    1392,    1393,    1394,    1395,
    1396,    1397,    1398,    1399,    1400,    1401,    1402,    1403,    1404,    1405,
    1406,    1407,    1408,    1409,    1410,    1411,    1412,    1413,    1414,    1415,
    1416,    1417,    1418,    1419,    1420,    1421,    1422,    1423,    1424,    1425,
    1426,    1427,    1428,    1429,    1430,    1431,    1432,    1433,    1434,    1435,
    1436,    1437,    1438,    1439,    1440,    1441,    1442,    1443,    1444,    1445
*SURFACE, NAME=plate_bottom
plate_bottom_S1, S1
*ELSET, ELSET=mortar_to_anchor_S5
    2211,    2212,    2213,    2214,    2215,    2216,    2217,    2218,    2219,    2220,
    2221,    2222,    2223,    2224,    2225,    2226,    2227,    2228,    2229,    2230,
    2231,    2232,    2233,    2234,    2235,    2236,    2237,    2238,    2239,    2240,
    2241,    2242,    2243,    2244,    2245,    2246,    2247,    2248,    2249,    2250,
    2251,    2252,    2253,    2254,    2255,    2256,    2257,    2258,    2259,    2260,
    2261,    2262,    2263,    2264,    2265,    2266,    2267,    2268,    2269,    2270,
    2271,    2272,    2273,    2274,    2275,    2276,    2277,    2278,    2279,    2280,
    2281,    2282,    2283,    2284,    2285,    2286,    2287,    2288
*SURFACE, NAME=mortar_to_anchor
mortar_to_anchor_S5, S5
*ELSET, ELSET=anchor_to_mortar_S3
      24,      25,      29,      30,      34,      35,      39,      40,      44,      45,
      49,      50,      54,      55,      59,      60,      64,      65,      69,      70,
      74,      75,      79,      80,      84,      85,     282,     537,     792,    1047,
    1109,    1110,    1114,    1115,    1119,    1120,    1124,    1125,    1129,    1130,
    1134,    1135,    1139,    1140,    1144,    1145,    1149,    1150,    1154,    1155,
    1159,    1160,    1164,    1165,    1169,    1170,    1387,    1642,    1897,    2152
*ELSET, ELSET=anchor_to_mortar_S4
      21,      26,      31,      36,      41,      46,      51,      56,      61,      66,
      71,      76,      81,     310,     565,     820,    1075,    1106,    1111,    1116,
    1121,    1126,    1131,    1136,    1141,    1146,    1151,    1156,    1161,    1166,
    1402,    1657,    1912,    2167
*ELSET, ELSET=anchor_to_mortar_S6
     309,     564,     819,    1074,    1428,    1683,    1938,    2193
*SURFACE, NAME=anchor_to_mortar
anchor_to_mortar_S3, S3
anchor_to_mortar_S4, S4
anchor_to_mortar_S6, S6
*ELSET, ELSET=mortar_to_concrete_S3
    2211,    2212,    2213,    2214,    2215,    2216,    2217,    2218,    2219,    2220,
    2221,    2222,    2223,    2224,    2225,    2226,    2227,    2228,    2229,    2230,
    2231,    2232,    2233,    2234,    2235,    2236,    2237,    2238,    2239,    2240,
    2241,    2242,    2243,    2244,    2245,    2246,    2247,    2248,    2249,    2250,
    2251,    2252,    2253,    2254,    2255,    2256,    2257,    2258,    2259,    2260,
    2261,    2262,    2263,    2264,    2265,    2266,    2267,    2268,    2269,    2270,
    2271,    2272,    2273,    2274,    2275,    2276,    2277,    2278,    2279,    2280,
    2281,    2282,    2283,    2284,    2285,    2286,    2287,    2288
*SURFACE, NAME=mortar_to_concrete
mortar_to_concrete_S3, S3
