********************************** N O D E S **********************************
*NODE, NSET=ALLNODES
   52825,    0.000000e+00,   -5.510911e-16,   -9.000000e+00
   52826,    0.000000e+00,   -1.776357e-15,   -3.200000e+01
   52827,    0.000000e+00,   -1.255263e-15,   -2.050000e+01
   52828,   -9.000000e+00,    6.748919e-32,    1.132798e-15
   52829,   -2.329371e+00,   -5.323131e-16,   -8.693332e+00
   52830,   -4.500000e+00,   -4.772589e-16,   -7.794229e+00
   52831,   -6.363961e+00,   -3.896802e-16,   -6.363961e+00
   52832,   -7.794229e+00,   -2.755455e-16,   -4.500000e+00
   52833,   -8.693332e+00,   -1.426329e-16,   -2.329371e+00
   52834,   -3.200000e+01,   -2.999520e-32,    0.000000e+00
   52835,   -2.816667e+01,   -2.999520e-32,    0.000000e+00
   52836,   -2.433333e+01,   -2.999520e-32,    0.000000e+00
   52837,   -2.050000e+01,   -2.999520e-32,    0.000000e+00
   52838,   -1.666667e+01,   -2.999520e-32,    0.000000e+00
   52839,   -1.283333e+01,   -2.999520e-32,    0.000000e+00
   52840,   -3.200000e+01,   -1.776357e-15,   -3.200000e+01
   52841,   -3.200000e+01,   -3.265725e-16,   -5.333333e+00
   52842,   -3.200000e+01,   -6.531450e-16,   -1.066667e+01
   52843,   -3.200000e+01,   -9.797174e-16,   -1.600000e+01
   52844,   -3.200000e+01,   -1.306290e-15,   -2.133333e+01
   52845,   -3.200000e+01,   -1.632862e-15,   -2.666667e+01
   52846,   -2.666667e+01,   -1.776357e-15,   -3.200000e+01
   52847,   -2.133333e+01,   -1.776357e-15,   -3.200000e+01
   52848,   -1.600000e+01,   -1.776357e-15,   -3.200000e+01
   52849,   -1.066667e+01,   -1.776357e-15,   -3.200000e+01
   52850,   -5.333333e+00,   -1.776357e-15,   -3.200000e+01
   52851,   -4.414821e+00,   -8.698956e-16,   -1.420647e+01
   52852,   -7.096164e+00,   -6.794438e-16,   -1.109616e+01
   52853,   -9.158337e+00,   -5.192378e-16,   -8.479797e+00
   52854,   -1.076656e+01,   -3.538497e-16,   -5.778804e+00
   52855,   -1.192728e+01,   -1.815984e-16,   -2.965727e+00
   52856,   -1.560259e+01,   -2.218258e-16,   -3.622691e+00
   52857,   -1.949984e+01,   -2.603910e-16,   -4.252508e+00
   52858,   -2.355661e+01,   -2.926724e-16,   -4.779704e+00
   52859,   -2.775391e+01,   -3.120587e-16,   -5.096305e+00
   52860,   -2.678578e+01,   -1.626908e-15,   -2.656942e+01
   52861,   -2.162073e+01,   -1.626629e-15,   -2.656487e+01
   52862,   -1.655390e+01,   -1.628111e-15,   -2.658907e+01
   52863,   -1.151601e+01,   -1.580319e-15,   -2.580856e+01
   52864,   -6.149210e+00,   -1.485282e-15,   -2.425650e+01
   52865,   -2.727270e+01,   -6.305036e-16,   -1.029691e+01
   52866,   -2.684711e+01,   -9.594865e-16,   -1.566960e+01
   52867,   -2.685732e+01,   -1.294965e-15,   -2.114838e+01
   52868,   -8.318478e+00,   -1.116580e-15,   -1.823514e+01
   52869,   -1.060848e+01,   -8.584622e-16,   -1.401975e+01
   52870,   -1.265958e+01,   -6.467025e-16,   -1.056145e+01
   52871,   -1.432855e+01,   -4.369637e-16,   -7.136159e+00
   52872,   -1.829448e+01,   -5.189587e-16,   -8.475239e+00
   52873,   -2.263509e+01,   -5.914859e-16,   -9.659697e+00
   52874,   -2.120833e+01,   -9.392494e-16,   -1.533911e+01
   52875,   -2.175305e+01,   -1.300110e-15,   -2.123241e+01
   52876,   -1.718818e+01,   -1.317568e-15,   -2.151752e+01
   52877,   -1.279960e+01,   -1.253993e-15,   -2.047926e+01
   52878,   -1.437266e+01,   -9.909571e-16,   -1.618356e+01
   52879,   -1.660302e+01,   -7.712665e-16,   -1.259574e+01
   52880,   -1.758972e+01,   -1.082592e-15,   -1.768006e+01
   52881,    0.000000e+00,    1.600000e+01,   -9.000000e+00
   52882,    0.000000e+00,    1.333333e+01,   -9.000000e+00
   52883,    0.000000e+00,    1.066667e+01,   -9.000000e+00
   52884,    0.000000e+00,    8.000000e+00,   -9.000000e+00
   52885,    0.000000e+00,    5.333333e+00,   -9.000000e+00
   52886,    0.000000e+00,    2.666667e+00,   -9.000000e+00
   52887,    0.000000e+00,    1.600000e+01,   -3.200000e+01
   52888,    0.000000e+00,    1.600000e+01,   -2.050000e+01
   52889,    0.000000e+00,    2.666667e+00,   -3.200000e+01
   52890,    0.000000e+00,    5.333333e+00,   -3.200000e+01
   52891,    0.000000e+00,    8.000000e+00,   -3.200000e+01
   52892,    0.000000e+00,    1.066667e+01,   -3.200000e+01
   52893,    0.000000e+00,    1.333333e+01,   -3.200000e+01
   52894,    0.000000e+00,    2.666667e+00,   -2.050000e+01
   52895,    0.000000e+00,    5.333333e+00,   -2.050000e+01
   52896,    0.000000e+00,    8.000000e+00,   -2.050000e+01
   52897,    0.000000e+00,    1.066667e+01,   -2.050000e+01
   52898,    0.000000e+00,    1.333333e+01,   -2.050000e+01
   52899,   -3.200000e+01,    1.600000e+01,   -3.200000e+01
   52900,   -3.200000e+01,    2.666667e+00,   -3.200000e+01
   52901,   -3.200000e+01,    5.333333e+00,   -3.200000e+01
   52902,   -3.200000e+01,    8.000000e+00,   -3.200000e+01
   52903,   -3.200000e+01,    1.066667e+01,   -3.200000e+01
   52904,   -3.200000e+01,    1.333333e+01,   -3.200000e+01
   52905,   -5.333333e+00,    1.600000e+01,   -3.200000e+01
   52906,   -1.066667e+01,    1.600000e+01,   -3.200000e+01
   52907,   -1.600000e+01,    1.600000e+01,   -3.200000e+01
   52908,   -2.133333e+01,    1.600000e+01,   -3.200000e+01
   52909,   -2.666667e+01,    1.600000e+01,   -3.200000e+01
   52910,   -5.333333e+00,    1.333333e+01,   -3.200000e+01
   52911,   -5.333333e+00,    1.066667e+01,   -3.200000e+01
   52912,   -5.333333e+00,    8.000000e+00,   -3.200000e+01
   52913,   -5.333333e+00,    5.333333e+00,   -3.200000e+01
   52914,   -5.333333e+00,    2.666667e+00,   -3.200000e+01
   52915,   -1.066667e+01,    1.333333e+01,   -3.200000e+01
   52916,   -1.066667e+01,    1.066667e+01,   -3.200000e+01
   52917,   -1.066667e+01,    8.000000e+00,   -3.200000e+01
   52918,   -1.066667e+01,    5.333333e+00,   -3.200000e+01
   52919,   -1.066667e+01,    2.666667e+00,   -3.200000e+01
   52920,   -1.600000e+01,    1.333333e+01,   -3.200000e+01
   52921,   -1.600000e+01,    1.066667e+01,   -3.200000e+01
   52922,   -1.600000e+01,    8.000000e+00,   -3.200000e+01
   52923,   -1.600000e+01,    5.333333e+00,   -3.200000e+01
   52924,   -1.600000e+01,    2.666667e+00,   -3.200000e+01
   52925,   -2.133333e+01,    1.333333e+01,   -3.200000e+01
   52926,   -2.133333e+01,    1.066667e+01,   -3.200000e+01
   52927,   -2.133333e+01,    8.000000e+00,   -3.200000e+01
   52928,   -2.133333e+01,    5.333333e+00,   -3.200000e+01
   52929,   -2.133333e+01,    2.666667e+00,   -3.200000e+01
   52930,   -2.666667e+01,    1.333333e+01,   -3.200000e+01
   52931,   -2.666667e+01,    1.066667e+01,   -3.200000e+01
   52932,   -2.666667e+01,    8.000000e+00,   -3.200000e+01
   52933,   -2.666667e+01,    5.333333e+00,   -3.200000e+01
   52934,   -2.666667e+01,    2.666667e+00,   -3.200000e+01
   52935,   -9.000000e+00,    1.600000e+01,   -9.184851e-17
   52936,   -9.000000e+00,    2.666667e+00,   -3.265725e-16
   52937,   -9.000000e+00,    5.333333e+00,   -1.632862e-16
   52938,   -9.000000e+00,    8.000000e+00,    0.000000e+00
   52939,   -9.000000e+00,    1.066667e+01,    1.632862e-16
   52940,   -9.000000e+00,    1.333333e+01,    3.265725e-16
   52941,   -3.200000e+01,    1.600000e+01,    0.000000e+00
   52942,   -1.283333e+01,    1.600000e+01,    0.000000e+00
   52943,   -1.666667e+01,    1.600000e+01,    0.000000e+00
   52944,   -2.050000e+01,    1.600000e+01,    0.000000e+00
   52945,   -2.433333e+01,    1.600000e+01,    0.000000e+00
   52946,   -2.816667e+01,    1.600000e+01,    0.000000e+00
   52947,   -3.200000e+01,    1.333333e+01,    0.000000e+00
   52948,   -3.200000e+01,    1.066667e+01,    0.000000e+00
   52949,   -3.200000e+01,    8.000000e+00,    0.000000e+00
   52950,   -3.200000e+01,    5.333333e+00,    0.000000e+00
   52951,   -3.200000e+01,    2.666667e+00,    0.000000e+00
   52952,   -1.283333e+01,    2.666667e+00,    0.000000e+00
   52953,   -1.283333e+01,    5.333333e+00,    0.000000e+00
   52954,   -1.283333e+01,    8.000000e+00,    0.000000e+00
   52955,   -1.283333e+01,    1.066667e+01,    0.000000e+00
   52956,   -1.283333e+01,    1.333333e+01,    0.000000e+00
   52957,   -1.666667e+01,    2.666667e+00,    0.000000e+00
   52958,   -1.666667e+01,    5.333333e+00,    0.000000e+00
   52959,   -1.666667e+01,    8.000000e+00,    0.000000e+00
   52960,   -1.666667e+01,    1.066667e+01,    0.000000e+00
   52961,   -1.666667e+01,    1.333333e+01,    0.000000e+00
   52962,   -2.050000e+01,    2.666667e+00,    0.000000e+00
   52963,   -2.050000e+01,    5.333333e+00,    0.000000e+00
   52964,   -2.050000e+01,    8.000000e+00,    0.000000e+00
   52965,   -2.050000e+01,    1.066667e+01,    0.000000e+00
   52966,   -2.050000e+01,    1.333333e+01,    0.000000e+00
   52967,   -2.433333e+01,    2.666667e+00,    0.000000e+00
   52968,   -2.433333e+01,    5.333333e+00,    0.000000e+00
   52969,   -2.433333e+01,    8.000000e+00,    0.000000e+00
   52970,   -2.433333e+01,    1.066667e+01,    0.000000e+00
   52971,   -2.433333e+01,    1.333333e+01,    0.000000e+00
   52972,   -2.816667e+01,    2.666667e+00,    0.000000e+00
   52973,   -2.816667e+01,    5.333333e+00,    0.000000e+00
   52974,   -2.816667e+01,    8.000000e+00,    0.000000e+00
   52975,   -2.816667e+01,    1.066667e+01,    0.000000e+00
   52976,   -2.816667e+01,    1.333333e+01,    0.000000e+00
   52977,   -8.693332e+00,    1.600000e+01,   -2.329371e+00
   52978,   -7.794229e+00,    1.600000e+01,   -4.500000e+00
   52979,   -6.363961e+00,    1.600000e+01,   -6.363961e+00
   52980,   -4.500000e+00,    1.600000e+01,   -7.794229e+00
   52981,   -2.329371e+00,    1.600000e+01,   -8.693332e+00
   52982,   -2.329371e+00,    2.666667e+00,   -8.693332e+00
   52983,   -2.329371e+00,    5.333333e+00,   -8.693332e+00
   52984,   -2.329371e+00,    8.000000e+00,   -8.693332e+00
   52985,   -2.329371e+00,    1.066667e+01,   -8.693332e+00
   52986,   -2.329371e+00,    1.333333e+01,   -8.693332e+00
   52987,   -4.500000e+00,    2.666667e+00,   -7.794229e+00
   52988,   -4.500000e+00,    5.333333e+00,   -7.794229e+00
   52989,   -4.500000e+00,    8.000000e+00,   -7.794229e+00
   52990,   -4.500000e+00,    1.066667e+01,   -7.794229e+00
   52991,   -4.500000e+00,    1.333333e+01,   -7.794229e+00
   52992,   -6.363961e+00,    2.666667e+00,   -6.363961e+00
   52993,   -6.363961e+00,    5.333333e+00,   -6.363961e+00
   52994,   -6.363961e+00,    8.000000e+00,   -6.363961e+00
   52995,   -6.363961e+00,    1.066667e+01,   -6.363961e+00
   52996,   -6.363961e+00,    1.333333e+01,   -6.363961e+00
   52997,   -7.794229e+00,    2.666667e+00,   -4.500000e+00
   52998,   -7.794229e+00,    5.333333e+00,   -4.500000e+00
   52999,   -7.794229e+00,    8.000000e+00,   -4.500000e+00
   53000,   -7.794229e+00,    1.066667e+01,   -4.500000e+00
   53001,   -7.794229e+00,    1.333333e+01,   -4.500000e+00
   53002,   -8.693332e+00,    2.666667e+00,   -2.329371e+00
   53003,   -8.693332e+00,    5.333333e+00,   -2.329371e+00
   53004,   -8.693332e+00,    8.000000e+00,   -2.329371e+00
   53005,   -8.693332e+00,    1.066667e+01,   -2.329371e+00
   53006,   -8.693332e+00,    1.333333e+01,   -2.329371e+00
   53007,   -3.200000e+01,    1.600000e+01,   -2.666667e+01
   53008,   -3.200000e+01,    1.600000e+01,   -2.133333e+01
   53009,   -3.200000e+01,    1.600000e+01,   -1.600000e+01
   53010,   -3.200000e+01,    1.600000e+01,   -1.066667e+01
   53011,   -3.200000e+01,    1.600000e+01,   -5.333333e+00
   53012,   -3.200000e+01,    2.666667e+00,   -5.333333e+00
   53013,   -3.200000e+01,    5.333333e+00,   -5.333333e+00
   53014,   -3.200000e+01,    8.000000e+00,   -5.333333e+00
   53015,   -3.200000e+01,    1.066667e+01,   -5.333333e+00
   53016,   -3.200000e+01,    1.333333e+01,   -5.333333e+00
   53017,   -3.200000e+01,    2.666667e+00,   -1.066667e+01
   53018,   -3.200000e+01,    5.333333e+00,   -1.066667e+01
   53019,   -3.200000e+01,    8.000000e+00,   -1.066667e+01
   53020,   -3.200000e+01,    1.066667e+01,   -1.066667e+01
   53021,   -3.200000e+01,    1.333333e+01,   -1.066667e+01
   53022,   -3.200000e+01,    2.666667e+00,   -1.600000e+01
   53023,   -3.200000e+01,    5.333333e+00,   -1.600000e+01
   53024,   -3.200000e+01,    8.000000e+00,   -1.600000e+01
   53025,   -3.200000e+01,    1.066667e+01,   -1.600000e+01
   53026,   -3.200000e+01,    1.333333e+01,   -1.600000e+01
   53027,   -3.200000e+01,    2.666667e+00,   -2.133333e+01
   53028,   -3.200000e+01,    5.333333e+00,   -2.133333e+01
   53029,   -3.200000e+01,    8.000000e+00,   -2.133333e+01
   53030,   -3.200000e+01,    1.066667e+01,   -2.133333e+01
   53031,   -3.200000e+01,    1.333333e+01,   -2.133333e+01
   53032,   -3.200000e+01,    2.666667e+00,   -2.666667e+01
   53033,   -3.200000e+01,    5.333333e+00,   -2.666667e+01
   53034,   -3.200000e+01,    8.000000e+00,   -2.666667e+01
   53035,   -3.200000e+01,    1.066667e+01,   -2.666667e+01
   53036,   -3.200000e+01,    1.333333e+01,   -2.666667e+01
   53037,   -4.414821e+00,    2.666667e+00,   -1.420647e+01
   53038,   -7.096164e+00,    2.666667e+00,   -1.109616e+01
   53039,   -9.158337e+00,    2.666667e+00,   -8.479797e+00
   53040,   -1.076656e+01,    2.666667e+00,   -5.778804e+00
   53041,   -1.192728e+01,    2.666667e+00,   -2.965727e+00
   53042,   -1.560259e+01,    2.666667e+00,   -3.622691e+00
   53043,   -1.949984e+01,    2.666667e+00,   -4.252508e+00
   53044,   -2.355661e+01,    2.666667e+00,   -4.779704e+00
   53045,   -2.775391e+01,    2.666667e+00,   -5.096305e+00
   53046,   -2.678578e+01,    2.666667e+00,   -2.656942e+01
   53047,   -2.162073e+01,    2.666667e+00,   -2.656487e+01
   53048,   -1.655390e+01,    2.666667e+00,   -2.658907e+01
   53049,   -1.151601e+01,    2.666667e+00,   -2.580856e+01
   53050,   -6.149210e+00,    2.666667e+00,   -2.425650e+01
   53051,   -2.727270e+01,    2.666667e+00,   -1.029691e+01
   53052,   -2.684711e+01,    2.666667e+00,   -1.566960e+01
   53053,   -2.685732e+01,    2.666667e+00,   -2.114838e+01
   53054,   -8.318478e+00,    2.666667e+00,   -1.823514e+01
   53055,   -1.060848e+01,    2.666667e+00,   -1.401975e+01
   53056,   -1.265958e+01,    2.666667e+00,   -1.056145e+01
   53057,   -1.432855e+01,    2.666667e+00,   -7.136159e+00
   53058,   -1.829448e+01,    2.666667e+00,   -8.475239e+00
   53059,   -2.263509e+01,    2.666667e+00,   -9.659697e+00
   53060,   -2.120833e+01,    2.666667e+00,   -1.533911e+01
   53061,   -2.175305e+01,    2.666667e+00,   -2.123241e+01
   53062,   -1.718818e+01,    2.666667e+00,   -2.151752e+01
   53063,   -1.279960e+01,    2.666667e+00,   -2.047926e+01
   53064,   -1.437266e+01,    2.666667e+00,   -1.618356e+01
   53065,   -1.660302e+01,    2.666667e+00,   -1.259574e+01
   53066,   -1.758972e+01,    2.666667e+00,   -1.768006e+01
   53067,   -4.414821e+00,    5.333333e+00,   -1.420647e+01
   53068,   -7.096164e+00,    5.333333e+00,   -1.109616e+01
   53069,   -9.158337e+00,    5.333333e+00,   -8.479797e+00
   53070,   -1.076656e+01,    5.333333e+00,   -5.778804e+00
   53071,   -1.192728e+01,    5.333333e+00,   -2.965727e+00
   53072,   -1.560259e+01,    5.333333e+00,   -3.622691e+00
   53073,   -1.949984e+01,    5.333333e+00,   -4.252508e+00
   53074,   -2.355661e+01,    5.333333e+00,   -4.779704e+00
   53075,   -2.775391e+01,    5.333333e+00,   -5.096305e+00
   53076,   -2.678578e+01,    5.333333e+00,   -2.656942e+01
   53077,   -2.162073e+01,    5.333333e+00,   -2.656487e+01
   53078,   -1.655390e+01,    5.333333e+00,   -2.658907e+01
   53079,   -1.151601e+01,    5.333333e+00,   -2.580856e+01
   53080,   -6.149210e+00,    5.333333e+00,   -2.425650e+01
   53081,   -2.727270e+01,    5.333333e+00,   -1.029691e+01
   53082,   -2.684711e+01,    5.333333e+00,   -1.566960e+01
   53083,   -2.685732e+01,    5.333333e+00,   -2.114838e+01
   53084,   -8.318478e+00,    5.333333e+00,   -1.823514e+01
   53085,   -1.060848e+01,    5.333333e+00,   -1.401975e+01
   53086,   -1.265958e+01,    5.333333e+00,   -1.056145e+01
   53087,   -1.432855e+01,    5.333333e+00,   -7.136159e+00
   53088,   -1.829448e+01,    5.333333e+00,   -8.475239e+00
   53089,   -2.263509e+01,    5.333333e+00,   -9.659697e+00
   53090,   -2.120833e+01,    5.333333e+00,   -1.533911e+01
   53091,   -2.175305e+01,    5.333333e+00,   -2.123241e+01
   53092,   -1.718818e+01,    5.333333e+00,   -2.151752e+01
   53093,   -1.279960e+01,    5.333333e+00,   -2.047926e+01
   53094,   -1.437266e+01,    5.333333e+00,   -1.618356e+01
   53095,   -1.660302e+01,    5.333333e+00,   -1.259574e+01
   53096,   -1.758972e+01,    5.333333e+00,   -1.768006e+01
   53097,   -4.414821e+00,    8.000000e+00,   -1.420647e+01
   53098,   -7.096164e+00,    8.000000e+00,   -1.109616e+01
   53099,   -9.158337e+00,    8.000000e+00,   -8.479797e+00
   53100,   -1.076656e+01,    8.000000e+00,   -5.778804e+00
   53101,   -1.192728e+01,    8.000000e+00,   -2.965727e+00
   53102,   -1.560259e+01,    8.000000e+00,   -3.622691e+00
   53103,   -1.949984e+01,    8.000000e+00,   -4.252508e+00
   53104,   -2.355661e+01,    8.000000e+00,   -4.779704e+00
   53105,   -2.775391e+01,    8.000000e+00,   -5.096305e+00
   53106,   -2.678578e+01,    8.000000e+00,   -2.656942e+01
   53107,   -2.162073e+01,    8.000000e+00,   -2.656487e+01
   53108,   -1.655390e+01,    8.000000e+00,   -2.658907e+01
   53109,   -1.151601e+01,    8.000000e+00,   -2.580856e+01
   53110,   -6.149210e+00,    8.000000e+00,   -2.425650e+01
   53111,   -2.727270e+01,    8.000000e+00,   -1.029691e+01
   53112,   -2.684711e+01,    8.000000e+00,   -1.566960e+01
   53113,   -2.685732e+01,    8.000000e+00,   -2.114838e+01
   53114,   -8.318478e+00,    8.000000e+00,   -1.823514e+01
   53115,   -1.060848e+01,    8.000000e+00,   -1.401975e+01
   53116,   -1.265958e+01,    8.000000e+00,   -1.056145e+01
   53117,   -1.432855e+01,    8.000000e+00,   -7.136159e+00
   53118,   -1.829448e+01,    8.000000e+00,   -8.475239e+00
   53119,   -2.263509e+01,    8.000000e+00,   -9.659697e+00
   53120,   -2.120833e+01,    8.000000e+00,   -1.533911e+01
   53121,   -2.175305e+01,    8.000000e+00,   -2.123241e+01
   53122,   -1.718818e+01,    8.000000e+00,   -2.151752e+01
   53123,   -1.279960e+01,    8.000000e+00,   -2.047926e+01
   53124,   -1.437266e+01,    8.000000e+00,   -1.618356e+01
   53125,   -1.660302e+01,    8.000000e+00,   -1.259574e+01
   53126,   -1.758972e+01,    8.000000e+00,   -1.768006e+01
   53127,   -4.414821e+00,    1.066667e+01,   -1.420647e+01
   53128,   -7.096164e+00,    1.066667e+01,   -1.109616e+01
   53129,   -9.158337e+00,    1.066667e+01,   -8.479797e+00
   53130,   -1.076656e+01,    1.066667e+01,   -5.778804e+00
   53131,   -1.192728e+01,    1.066667e+01,   -2.965727e+00
   53132,   -1.560259e+01,    1.066667e+01,   -3.622691e+00
   53133,   -1.949984e+01,    1.066667e+01,   -4.252508e+00
   53134,   -2.355661e+01,    1.066667e+01,   -4.779704e+00
   53135,   -2.775391e+01,    1.066667e+01,   -5.096305e+00
   53136,   -2.678578e+01,    1.066667e+01,   -2.656942e+01
   53137,   -2.162073e+01,    1.066667e+01,   -2.656487e+01
   53138,   -1.655390e+01,    1.066667e+01,   -2.658907e+01
   53139,   -1.151601e+01,    1.066667e+01,   -2.580856e+01
   53140,   -6.149210e+00,    1.066667e+01,   -2.425650e+01
   53141,   -2.727270e+01,    1.066667e+01,   -1.029691e+01
   53142,   -2.684711e+01,    1.066667e+01,   -1.566960e+01
   53143,   -2.685732e+01,    1.066667e+01,   -2.114838e+01
   53144,   -8.318478e+00,    1.066667e+01,   -1.823514e+01
   53145,   -1.060848e+01,    1.066667e+01,   -1.401975e+01
   53146,   -1.265958e+01,    1.066667e+01,   -1.056145e+01
   53147,   -1.432855e+01,    1.066667e+01,   -7.136159e+00
   53148,   -1.829448e+01,    1.066667e+01,   -8.475239e+00
   53149,   -2.263509e+01,    1.066667e+01,   -9.659697e+00
   53150,   -2.120833e+01,    1.066667e+01,   -1.533911e+01
   53151,   -2.175305e+01,    1.066667e+01,   -2.123241e+01
   53152,   -1.718818e+01,    1.066667e+01,   -2.151752e+01
   53153,   -1.279960e+01,    1.066667e+01,   -2.047926e+01
   53154,   -1.437266e+01,    1.066667e+01,   -1.618356e+01
   53155,   -1.660302e+01,    1.066667e+01,   -1.259574e+01
   53156,   -1.758972e+01,    1.066667e+01,   -1.768006e+01
   53157,   -4.414821e+00,    1.333333e+01,   -1.420647e+01
   53158,   -7.096164e+00,    1.333333e+01,   -1.109616e+01
   53159,   -9.158337e+00,    1.333333e+01,   -8.479797e+00
   53160,   -1.076656e+01,    1.333333e+01,   -5.778804e+00
   53161,   -1.192728e+01,    1.333333e+01,   -2.965727e+00
   53162,   -1.560259e+01,    1.333333e+01,   -3.622691e+00
   53163,   -1.949984e+01,    1.333333e+01,   -4.252508e+00
   53164,   -2.355661e+01,    1.333333e+01,   -4.779704e+00
   53165,   -2.775391e+01,    1.333333e+01,   -5.096305e+00
   53166,   -2.678578e+01,    1.333333e+01,   -2.656942e+01
   53167,   -2.162073e+01,    1.333333e+01,   -2.656487e+01
   53168,   -1.655390e+01,    1.333333e+01,   -2.658907e+01
   53169,   -1.151601e+01,    1.333333e+01,   -2.580856e+01
   53170,   -6.149210e+00,    1.333333e+01,   -2.425650e+01
   53171,   -2.727270e+01,    1.333333e+01,   -1.029691e+01
   53172,   -2.684711e+01,    1.333333e+01,   -1.566960e+01
   53173,   -2.685732e+01,    1.333333e+01,   -2.114838e+01
   53174,   -8.318478e+00,    1.333333e+01,   -1.823514e+01
   53175,   -1.060848e+01,    1.333333e+01,   -1.401975e+01
   53176,   -1.265958e+01,    1.333333e+01,   -1.056145e+01
   53177,   -1.432855e+01,    1.333333e+01,   -7.136159e+00
   53178,   -1.829448e+01,    1.333333e+01,   -8.475239e+00
   53179,   -2.263509e+01,    1.333333e+01,   -9.659697e+00
   53180,   -2.120833e+01,    1.333333e+01,   -1.533911e+01
   53181,   -2.175305e+01,    1.333333e+01,   -2.123241e+01
   53182,   -1.718818e+01,    1.333333e+01,   -2.151752e+01
   53183,   -1.279960e+01,    1.333333e+01,   -2.047926e+01
   53184,   -1.437266e+01,    1.333333e+01,   -1.618356e+01
   53185,   -1.660302e+01,    1.333333e+01,   -1.259574e+01
   53186,   -1.758972e+01,    1.333333e+01,   -1.768006e+01
   53187,   -4.414821e+00,    1.600000e+01,   -1.420647e+01
   53188,   -7.096164e+00,    1.600000e+01,   -1.109616e+01
   53189,   -9.158337e+00,    1.600000e+01,   -8.479797e+00
   53190,   -1.076656e+01,    1.600000e+01,   -5.778804e+00
   53191,   -1.192728e+01,    1.600000e+01,   -2.965727e+00
   53192,   -1.560259e+01,    1.600000e+01,   -3.622691e+00
   53193,   -1.949984e+01,    1.600000e+01,   -4.252508e+00
   53194,   -2.355661e+01,    1.600000e+01,   -4.779704e+00
   53195,   -2.775391e+01,    1.600000e+01,   -5.096305e+00
   53196,   -2.678578e+01,    1.600000e+01,   -2.656942e+01
   53197,   -2.162073e+01,    1.600000e+01,   -2.656487e+01
   53198,   -1.655390e+01,    1.600000e+01,   -2.658907e+01
   53199,   -1.151601e+01,    1.600000e+01,   -2.580856e+01
   53200,   -6.149210e+00,    1.600000e+01,   -2.425650e+01
   53201,   -2.727270e+01,    1.600000e+01,   -1.029691e+01
   53202,   -2.684711e+01,    1.600000e+01,   -1.566960e+01
   53203,   -2.685732e+01,    1.600000e+01,   -2.114838e+01
   53204,   -8.318478e+00,    1.600000e+01,   -1.823514e+01
   53205,   -1.060848e+01,    1.600000e+01,   -1.401975e+01
   53206,   -1.265958e+01,    1.600000e+01,   -1.056145e+01
   53207,   -1.432855e+01,    1.600000e+01,   -7.136159e+00
   53208,   -1.829448e+01,    1.600000e+01,   -8.475239e+00
   53209,   -2.263509e+01,    1.600000e+01,   -9.659697e+00
   53210,   -2.120833e+01,    1.600000e+01,   -1.533911e+01
   53211,   -2.175305e+01,    1.600000e+01,   -2.123241e+01
   53212,   -1.718818e+01,    1.600000e+01,   -2.151752e+01
   53213,   -1.279960e+01,    1.600000e+01,   -2.047926e+01
   53214,   -1.437266e+01,    1.600000e+01,   -1.618356e+01
   53215,   -1.660302e+01,    1.600000e+01,   -1.259574e+01
   53216,   -1.758972e+01,    1.600000e+01,   -1.768006e+01
   53217,    9.000000e+00,    1.600000e+01,    0.000000e+00
   53218,    2.329371e+00,    1.600000e+01,   -8.693332e+00
   53219,    4.500000e+00,    1.600000e+01,   -7.794229e+00
   53220,    6.363961e+00,    1.600000e+01,   -6.363961e+00
   53221,    7.794229e+00,    1.600000e+01,   -4.500000e+00
   53222,    8.693332e+00,    1.600000e+01,   -2.329371e+00
   53223,    3.200000e+01,    1.600000e+01,    0.000000e+00
   53224,    2.816667e+01,    1.600000e+01,    0.000000e+00
   53225,    2.433333e+01,    1.600000e+01,    0.000000e+00
   53226,    2.050000e+01,    1.600000e+01,    0.000000e+00
   53227,    1.666667e+01,    1.600000e+01,    0.000000e+00
   53228,    1.283333e+01,    1.600000e+01,    0.000000e+00
   53229,    3.200000e+01,    1.600000e+01,   -3.200000e+01
   53230,    3.200000e+01,    1.600000e+01,   -5.333333e+00
   53231,    3.200000e+01,    1.600000e+01,   -1.066667e+01
   53232,    3.200000e+01,    1.600000e+01,   -1.600000e+01
   53233,    3.200000e+01,    1.600000e+01,   -2.133333e+01
   53234,    3.200000e+01,    1.600000e+01,   -2.666667e+01
   53235,    2.666667e+01,    1.600000e+01,   -3.200000e+01
   53236,    2.133333e+01,    1.600000e+01,   -3.200000e+01
   53237,    1.600000e+01,    1.600000e+01,   -3.200000e+01
   53238,    1.066667e+01,    1.600000e+01,   -3.200000e+01
   53239,    5.333333e+00,    1.600000e+01,   -3.200000e+01
   53240,    4.414821e+00,    1.600000e+01,   -1.420647e+01
   53241,    7.096164e+00,    1.600000e+01,   -1.109616e+01
   53242,    9.158337e+00,    1.600000e+01,   -8.479797e+00
   53243,    1.076656e+01,    1.600000e+01,   -5.778804e+00
   53244,    1.192728e+01,    1.600000e+01,   -2.965727e+00
   53245,    1.560259e+01,    1.600000e+01,   -3.622691e+00
   53246,    1.949984e+01,    1.600000e+01,   -4.252508e+00
   53247,    2.355661e+01,    1.600000e+01,   -4.779704e+00
   53248,    2.775391e+01,    1.600000e+01,   -5.096305e+00
   53249,    2.678578e+01,    1.600000e+01,   -2.656942e+01
   53250,    2.162073e+01,    1.600000e+01,   -2.656487e+01
   53251,    1.655390e+01,    1.600000e+01,   -2.658907e+01
   53252,    1.151601e+01,    1.600000e+01,   -2.580856e+01
   53253,    6.149210e+00,    1.600000e+01,   -2.425650e+01
   53254,    2.727270e+01,    1.600000e+01,   -1.029691e+01
   53255,    2.684711e+01,    1.600000e+01,   -1.566960e+01
   53256,    2.685732e+01,    1.600000e+01,   -2.114838e+01
   53257,    8.318478e+00,    1.600000e+01,   -1.823514e+01
   53258,    1.060848e+01,    1.600000e+01,   -1.401975e+01
   53259,    1.265958e+01,    1.600000e+01,   -1.056145e+01
   53260,    1.432855e+01,    1.600000e+01,   -7.136159e+00
   53261,    1.829448e+01,    1.600000e+01,   -8.475239e+00
   53262,    2.263509e+01,    1.600000e+01,   -9.659697e+00
   53263,    2.120833e+01,    1.600000e+01,   -1.533911e+01
   53264,    2.175305e+01,    1.600000e+01,   -2.123241e+01
   53265,    1.718818e+01,    1.600000e+01,   -2.151752e+01
   53266,    1.279960e+01,    1.600000e+01,   -2.047926e+01
   53267,    1.437266e+01,    1.600000e+01,   -1.618356e+01
   53268,    1.660302e+01,    1.600000e+01,   -1.259574e+01
   53269,    1.758972e+01,    1.600000e+01,   -1.768006e+01
   53270,    9.000000e+00,   -1.874700e-33,    0.000000e+00
   53271,    8.693332e+00,   -1.426329e-16,   -2.329371e+00
   53272,    7.794229e+00,   -2.755455e-16,   -4.500000e+00
   53273,    6.363961e+00,   -3.896802e-16,   -6.363961e+00
   53274,    4.500000e+00,   -4.772589e-16,   -7.794229e+00
   53275,    2.329371e+00,   -5.323131e-16,   -8.693332e+00
   53276,    9.000000e+00,    1.333333e+01,    3.265725e-16
   53277,    9.000000e+00,    1.066667e+01,    1.632862e-16
   53278,    9.000000e+00,    8.000000e+00,    0.000000e+00
   53279,    9.000000e+00,    5.333333e+00,   -1.632862e-16
   53280,    9.000000e+00,    2.666667e+00,   -3.265725e-16
   53281,    2.329371e+00,    1.333333e+01,   -8.693332e+00
   53282,    2.329371e+00,    1.066667e+01,   -8.693332e+00
   53283,    2.329371e+00,    8.000000e+00,   -8.693332e+00
   53284,    2.329371e+00,    5.333333e+00,   -8.693332e+00
   53285,    2.329371e+00,    2.666667e+00,   -8.693332e+00
   53286,    4.500000e+00,    1.333333e+01,   -7.794229e+00
   53287,    4.500000e+00,    1.066667e+01,   -7.794229e+00
   53288,    4.500000e+00,    8.000000e+00,   -7.794229e+00
   53289,    4.500000e+00,    5.333333e+00,   -7.794229e+00
   53290,    4.500000e+00,    2.666667e+00,   -7.794229e+00
   53291,    6.363961e+00,    1.333333e+01,   -6.363961e+00
   53292,    6.363961e+00,    1.066667e+01,   -6.363961e+00
   53293,    6.363961e+00,    8.000000e+00,   -6.363961e+00
   53294,    6.363961e+00,    5.333333e+00,   -6.363961e+00
   53295,    6.363961e+00,    2.666667e+00,   -6.363961e+00
   53296,    7.794229e+00,    1.333333e+01,   -4.500000e+00
   53297,    7.794229e+00,    1.066667e+01,   -4.500000e+00
   53298,    7.794229e+00,    8.000000e+00,   -4.500000e+00
   53299,    7.794229e+00,    5.333333e+00,   -4.500000e+00
   53300,    7.794229e+00,    2.666667e+00,   -4.500000e+00
   53301,    8.693332e+00,    1.333333e+01,   -2.329371e+00
   53302,    8.693332e+00,    1.066667e+01,   -2.329371e+00
   53303,    8.693332e+00,    8.000000e+00,   -2.329371e+00
   53304,    8.693332e+00,    5.333333e+00,   -2.329371e+00
   53305,    8.693332e+00,    2.666667e+00,   -2.329371e+00
   53306,    3.200000e+01,   -2.999520e-32,    0.000000e+00
   53307,    1.283333e+01,   -2.999520e-32,    0.000000e+00
   53308,    1.666667e+01,   -2.999520e-32,    0.000000e+00
   53309,    2.050000e+01,   -2.999520e-32,    0.000000e+00
   53310,    2.433333e+01,   -2.999520e-32,    0.000000e+00
   53311,    2.816667e+01,   -2.999520e-32,    0.000000e+00
   53312,    3.200000e+01,    2.666667e+00,    0.000000e+00
   53313,    3.200000e+01,    5.333333e+00,    0.000000e+00
   53314,    3.200000e+01,    8.000000e+00,    0.000000e+00
   53315,    3.200000e+01,    1.066667e+01,    0.000000e+00
   53316,    3.200000e+01,    1.333333e+01,    0.000000e+00
   53317,    1.283333e+01,    1.333333e+01,    0.000000e+00
   53318,    1.283333e+01,    1.066667e+01,    0.000000e+00
   53319,    1.283333e+01,    8.000000e+00,    0.000000e+00
   53320,    1.283333e+01,    5.333333e+00,    0.000000e+00
   53321,    1.283333e+01,    2.666667e+00,    0.000000e+00
   53322,    1.666667e+01,    1.333333e+01,    0.000000e+00
   53323,    1.666667e+01,    1.066667e+01,    0.000000e+00
   53324,    1.666667e+01,    8.000000e+00,    0.000000e+00
   53325,    1.666667e+01,    5.333333e+00,    0.000000e+00
   53326,    1.666667e+01,    2.666667e+00,    0.000000e+00
   53327,    2.050000e+01,    1.333333e+01,    0.000000e+00
   53328,    2.050000e+01,    1.066667e+01,    0.000000e+00
   53329,    2.050000e+01,    8.000000e+00,    0.000000e+00
   53330,    2.050000e+01,    5.333333e+00,    0.000000e+00
   53331,    2.050000e+01,    2.666667e+00,    0.000000e+00
   53332,    2.433333e+01,    1.333333e+01,    0.000000e+00
   53333,    2.433333e+01,    1.066667e+01,    0.000000e+00
   53334,    2.433333e+01,    8.000000e+00,    0.000000e+00
   53335,    2.433333e+01,    5.333333e+00,    0.000000e+00
   53336,    2.433333e+01,    2.666667e+00,    0.000000e+00
   53337,    2.816667e+01,    1.333333e+01,    0.000000e+00
   53338,    2.816667e+01,    1.066667e+01,    0.000000e+00
   53339,    2.816667e+01,    8.000000e+00,    0.000000e+00
   53340,    2.816667e+01,    5.333333e+00,    0.000000e+00
   53341,    2.816667e+01,    2.666667e+00,    0.000000e+00
   53342,    3.200000e+01,   -1.776357e-15,   -3.200000e+01
   53343,    3.200000e+01,    2.666667e+00,   -3.200000e+01
   53344,    3.200000e+01,    5.333333e+00,   -3.200000e+01
   53345,    3.200000e+01,    8.000000e+00,   -3.200000e+01
   53346,    3.200000e+01,    1.066667e+01,   -3.200000e+01
   53347,    3.200000e+01,    1.333333e+01,   -3.200000e+01
   53348,    5.333333e+00,   -1.776357e-15,   -3.200000e+01
   53349,    1.066667e+01,   -1.776357e-15,   -3.200000e+01
   53350,    1.600000e+01,   -1.776357e-15,   -3.200000e+01
   53351,    2.133333e+01,   -1.776357e-15,   -3.200000e+01
   53352,    2.666667e+01,   -1.776357e-15,   -3.200000e+01
   53353,    5.333333e+00,    2.666667e+00,   -3.200000e+01
   53354,    5.333333e+00,    5.333333e+00,   -3.200000e+01
   53355,    5.333333e+00,    8.000000e+00,   -3.200000e+01
   53356,    5.333333e+00,    1.066667e+01,   -3.200000e+01
   53357,    5.333333e+00,    1.333333e+01,   -3.200000e+01
   53358,    1.066667e+01,    2.666667e+00,   -3.200000e+01
   53359,    1.066667e+01,    5.333333e+00,   -3.200000e+01
   53360,    1.066667e+01,    8.000000e+00,   -3.200000e+01
   53361,    1.066667e+01,    1.066667e+01,   -3.200000e+01
   53362,    1.066667e+01,    1.333333e+01,   -3.200000e+01
   53363,    1.600000e+01,    2.666667e+00,   -3.200000e+01
   53364,    1.600000e+01,    5.333333e+00,   -3.200000e+01
   53365,    1.600000e+01,    8.000000e+00,   -3.200000e+01
   53366,    1.600000e+01,    1.066667e+01,   -3.200000e+01
   53367,    1.600000e+01,    1.333333e+01,   -3.200000e+01
   53368,    2.133333e+01,    2.666667e+00,   -3.200000e+01
   53369,    2.133333e+01,    5.333333e+00,   -3.200000e+01
   53370,    2.133333e+01,    8.000000e+00,   -3.200000e+01
   53371,    2.133333e+01,    1.066667e+01,   -3.200000e+01
   53372,    2.133333e+01,    1.333333e+01,   -3.200000e+01
   53373,    2.666667e+01,    2.666667e+00,   -3.200000e+01
   53374,    2.666667e+01,    5.333333e+00,   -3.200000e+01
   53375,    2.666667e+01,    8.000000e+00,   -3.200000e+01
   53376,    2.666667e+01,    1.066667e+01,   -3.200000e+01
   53377,    2.666667e+01,    1.333333e+01,   -3.200000e+01
   53378,    3.200000e+01,   -1.632862e-15,   -2.666667e+01
   53379,    3.200000e+01,   -1.306290e-15,   -2.133333e+01
   53380,    3.200000e+01,   -9.797174e-16,   -1.600000e+01
   53381,    3.200000e+01,   -6.531450e-16,   -1.066667e+01
   53382,    3.200000e+01,   -3.265725e-16,   -5.333333e+00
   53383,    3.200000e+01,    1.333333e+01,   -5.333333e+00
   53384,    3.200000e+01,    1.066667e+01,   -5.333333e+00
   53385,    3.200000e+01,    8.000000e+00,   -5.333333e+00
   53386,    3.200000e+01,    5.333333e+00,   -5.333333e+00
   53387,    3.200000e+01,    2.666667e+00,   -5.333333e+00
   53388,    3.200000e+01,    1.333333e+01,   -1.066667e+01
   53389,    3.200000e+01,    1.066667e+01,   -1.066667e+01
   53390,    3.200000e+01,    8.000000e+00,   -1.066667e+01
   53391,    3.200000e+01,    5.333333e+00,   -1.066667e+01
   53392,    3.200000e+01,    2.666667e+00,   -1.066667e+01
   53393,    3.200000e+01,    1.333333e+01,   -1.600000e+01
   53394,    3.200000e+01,    1.066667e+01,   -1.600000e+01
   53395,    3.200000e+01,    8.000000e+00,   -1.600000e+01
   53396,    3.200000e+01,    5.333333e+00,   -1.600000e+01
   53397,    3.200000e+01,    2.666667e+00,   -1.600000e+01
   53398,    3.200000e+01,    1.333333e+01,   -2.133333e+01
   53399,    3.200000e+01,    1.066667e+01,   -2.133333e+01
   53400,    3.200000e+01,    8.000000e+00,   -2.133333e+01
   53401,    3.200000e+01,    5.333333e+00,   -2.133333e+01
   53402,    3.200000e+01,    2.666667e+00,   -2.133333e+01
   53403,    3.200000e+01,    1.333333e+01,   -2.666667e+01
   53404,    3.200000e+01,    1.066667e+01,   -2.666667e+01
   53405,    3.200000e+01,    8.000000e+00,   -2.666667e+01
   53406,    3.200000e+01,    5.333333e+00,   -2.666667e+01
   53407,    3.200000e+01,    2.666667e+00,   -2.666667e+01
   53408,    4.414821e+00,    1.333333e+01,   -1.420647e+01
   53409,    7.096164e+00,    1.333333e+01,   -1.109616e+01
   53410,    9.158337e+00,    1.333333e+01,   -8.479797e+00
   53411,    1.076656e+01,    1.333333e+01,   -5.778804e+00
   53412,    1.192728e+01,    1.333333e+01,   -2.965727e+00
   53413,    1.560259e+01,    1.333333e+01,   -3.622691e+00
   53414,    1.949984e+01,    1.333333e+01,   -4.252508e+00
   53415,    2.355661e+01,    1.333333e+01,   -4.779704e+00
   53416,    2.775391e+01,    1.333333e+01,   -5.096305e+00
   53417,    2.678578e+01,    1.333333e+01,   -2.656942e+01
   53418,    2.162073e+01,    1.333333e+01,   -2.656487e+01
   53419,    1.655390e+01,    1.333333e+01,   -2.658907e+01
   53420,    1.151601e+01,    1.333333e+01,   -2.580856e+01
   53421,    6.149210e+00,    1.333333e+01,   -2.425650e+01
   53422,    2.727270e+01,    1.333333e+01,   -1.029691e+01
   53423,    2.684711e+01,    1.333333e+01,   -1.566960e+01
   53424,    2.685732e+01,    1.333333e+01,   -2.114838e+01
   53425,    8.318478e+00,    1.333333e+01,   -1.823514e+01
   53426,    1.060848e+01,    1.333333e+01,   -1.401975e+01
   53427,    1.265958e+01,    1.333333e+01,   -1.056145e+01
   53428,    1.432855e+01,    1.333333e+01,   -7.136159e+00
   53429,    1.829448e+01,    1.333333e+01,   -8.475239e+00
   53430,    2.263509e+01,    1.333333e+01,   -9.659697e+00
   53431,    2.120833e+01,    1.333333e+01,   -1.533911e+01
   53432,    2.175305e+01,    1.333333e+01,   -2.123241e+01
   53433,    1.718818e+01,    1.333333e+01,   -2.151752e+01
   53434,    1.279960e+01,    1.333333e+01,   -2.047926e+01
   53435,    1.437266e+01,    1.333333e+01,   -1.618356e+01
   53436,    1.660302e+01,    1.333333e+01,   -1.259574e+01
   53437,    1.758972e+01,    1.333333e+01,   -1.768006e+01
   53438,    4.414821e+00,    1.066667e+01,   -1.420647e+01
   53439,    7.096164e+00,    1.066667e+01,   -1.109616e+01
   53440,    9.158337e+00,    1.066667e+01,   -8.479797e+00
   53441,    1.076656e+01,    1.066667e+01,   -5.778804e+00
   53442,    1.192728e+01,    1.066667e+01,   -2.965727e+00
   53443,    1.560259e+01,    1.066667e+01,   -3.622691e+00
   53444,    1.949984e+01,    1.066667e+01,   -4.252508e+00
   53445,    2.355661e+01,    1.066667e+01,   -4.779704e+00
   53446,    2.775391e+01,    1.066667e+01,   -5.096305e+00
   53447,    2.678578e+01,    1.066667e+01,   -2.656942e+01
   53448,    2.162073e+01,    1.066667e+01,   -2.656487e+01
   53449,    1.655390e+01,    1.066667e+01,   -2.658907e+01
   53450,    1.151601e+01,    1.066667e+01,   -2.580856e+01
   53451,    6.149210e+00,    1.066667e+01,   -2.425650e+01
   53452,    2.727270e+01,    1.066667e+01,   -1.029691e+01
   53453,    2.684711e+01,    1.066667e+01,   -1.566960e+01
   53454,    2.685732e+01,    1.066667e+01,   -2.114838e+01
   53455,    8.318478e+00,    1.066667e+01,   -1.823514e+01
   53456,    1.060848e+01,    1.066667e+01,   -1.401975e+01
   53457,    1.265958e+01,    1.066667e+01,   -1.056145e+01
   53458,    1.432855e+01,    1.066667e+01,   -7.136159e+00
   53459,    1.829448e+01,    1.066667e+01,   -8.475239e+00
   53460,    2.263509e+01,    1.066667e+01,   -9.659697e+00
   53461,    2.120833e+01,    1.066667e+01,   -1.533911e+01
   53462,    2.175305e+01,    1.066667e+01,   -2.123241e+01
   53463,    1.718818e+01,    1.066667e+01,   -2.151752e+01
   53464,    1.279960e+01,    1.066667e+01,   -2.047926e+01
   53465,    1.437266e+01,    1.066667e+01,   -1.618356e+01
   53466,    1.660302e+01,    1.066667e+01,   -1.259574e+01
   53467,    1.758972e+01,    1.066667e+01,   -1.768006e+01
   53468,    4.414821e+00,    8.000000e+00,   -1.420647e+01
   53469,    7.096164e+00,    8.000000e+00,   -1.109616e+01
   53470,    9.158337e+00,    8.000000e+00,   -8.479797e+00
   53471,    1.076656e+01,    8.000000e+00,   -5.778804e+00
   53472,    1.192728e+01,    8.000000e+00,   -2.965727e+00
   53473,    1.560259e+01,    8.000000e+00,   -3.622691e+00
   53474,    1.949984e+01,    8.000000e+00,   -4.252508e+00
   53475,    2.355661e+01,    8.000000e+00,   -4.779704e+00
   53476,    2.775391e+01,    8.000000e+00,   -5.096305e+00
   53477,    2.678578e+01,    8.000000e+00,   -2.656942e+01
   53478,    2.162073e+01,    8.000000e+00,   -2.656487e+01
   53479,    1.655390e+01,    8.000000e+00,   -2.658907e+01
   53480,    1.151601e+01,    8.000000e+00,   -2.580856e+01
   53481,    6.149210e+00,    8.000000e+00,   -2.425650e+01
   53482,    2.727270e+01,    8.000000e+00,   -1.029691e+01
   53483,    2.684711e+01,    8.000000e+00,   -1.566960e+01
   53484,    2.685732e+01,    8.000000e+00,   -2.114838e+01
   53485,    8.318478e+00,    8.000000e+00,   -1.823514e+01
   53486,    1.060848e+01,    8.000000e+00,   -1.401975e+01
   53487,    1.265958e+01,    8.000000e+00,   -1.056145e+01
   53488,    1.432855e+01,    8.000000e+00,   -7.136159e+00
   53489,    1.829448e+01,    8.000000e+00,   -8.475239e+00
   53490,    2.263509e+01,    8.000000e+00,   -9.659697e+00
   53491,    2.120833e+01,    8.000000e+00,   -1.533911e+01
   53492,    2.175305e+01,    8.000000e+00,   -2.123241e+01
   53493,    1.718818e+01,    8.000000e+00,   -2.151752e+01
   53494,    1.279960e+01,    8.000000e+00,   -2.047926e+01
   53495,    1.437266e+01,    8.000000e+00,   -1.618356e+01
   53496,    1.660302e+01,    8.000000e+00,   -1.259574e+01
   53497,    1.758972e+01,    8.000000e+00,   -1.768006e+01
   53498,    4.414821e+00,    5.333333e+00,   -1.420647e+01
   53499,    7.096164e+00,    5.333333e+00,   -1.109616e+01
   53500,    9.158337e+00,    5.333333e+00,   -8.479797e+00
   53501,    1.076656e+01,    5.333333e+00,   -5.778804e+00
   53502,    1.192728e+01,    5.333333e+00,   -2.965727e+00
   53503,    1.560259e+01,    5.333333e+00,   -3.622691e+00
   53504,    1.949984e+01,    5.333333e+00,   -4.252508e+00
   53505,    2.355661e+01,    5.333333e+00,   -4.779704e+00
   53506,    2.775391e+01,    5.333333e+00,   -5.096305e+00
   53507,    2.678578e+01,    5.333333e+00,   -2.656942e+01
   53508,    2.162073e+01,    5.333333e+00,   -2.656487e+01
   53509,    1.655390e+01,    5.333333e+00,   -2.658907e+01
   53510,    1.151601e+01,    5.333333e+00,   -2.580856e+01
   53511,    6.149210e+00,    5.333333e+00,   -2.425650e+01
   53512,    2.727270e+01,    5.333333e+00,   -1.029691e+01
   53513,    2.684711e+01,    5.333333e+00,   -1.566960e+01
   53514,    2.685732e+01,    5.333333e+00,   -2.114838e+01
   53515,    8.318478e+00,    5.333333e+00,   -1.823514e+01
   53516,    1.060848e+01,    5.333333e+00,   -1.401975e+01
   53517,    1.265958e+01,    5.333333e+00,   -1.056145e+01
   53518,    1.432855e+01,    5.333333e+00,   -7.136159e+00
   53519,    1.829448e+01,    5.333333e+00,   -8.475239e+00
   53520,    2.263509e+01,    5.333333e+00,   -9.659697e+00
   53521,    2.120833e+01,    5.333333e+00,   -1.533911e+01
   53522,    2.175305e+01,    5.333333e+00,   -2.123241e+01
   53523,    1.718818e+01,    5.333333e+00,   -2.151752e+01
   53524,    1.279960e+01,    5.333333e+00,   -2.047926e+01
   53525,    1.437266e+01,    5.333333e+00,   -1.618356e+01
   53526,    1.660302e+01,    5.333333e+00,   -1.259574e+01
   53527,    1.758972e+01,    5.333333e+00,   -1.768006e+01
   53528,    4.414821e+00,    2.666667e+00,   -1.420647e+01
   53529,    7.096164e+00,    2.666667e+00,   -1.109616e+01
   53530,    9.158337e+00,    2.666667e+00,   -8.479797e+00
   53531,    1.076656e+01,    2.666667e+00,   -5.778804e+00
   53532,    1.192728e+01,    2.666667e+00,   -2.965727e+00
   53533,    1.560259e+01,    2.666667e+00,   -3.622691e+00
   53534,    1.949984e+01,    2.666667e+00,   -4.252508e+00
   53535,    2.355661e+01,    2.666667e+00,   -4.779704e+00
   53536,    2.775391e+01,    2.666667e+00,   -5.096305e+00
   53537,    2.678578e+01,    2.666667e+00,   -2.656942e+01
   53538,    2.162073e+01,    2.666667e+00,   -2.656487e+01
   53539,    1.655390e+01,    2.666667e+00,   -2.658907e+01
   53540,    1.151601e+01,    2.666667e+00,   -2.580856e+01
   53541,    6.149210e+00,    2.666667e+00,   -2.425650e+01
   53542,    2.727270e+01,    2.666667e+00,   -1.029691e+01
   53543,    2.684711e+01,    2.666667e+00,   -1.566960e+01
   53544,    2.685732e+01,    2.666667e+00,   -2.114838e+01
   53545,    8.318478e+00,    2.666667e+00,   -1.823514e+01
   53546,    1.060848e+01,    2.666667e+00,   -1.401975e+01
   53547,    1.265958e+01,    2.666667e+00,   -1.056145e+01
   53548,    1.432855e+01,    2.666667e+00,   -7.136159e+00
   53549,    1.829448e+01,    2.666667e+00,   -8.475239e+00
   53550,    2.263509e+01,    2.666667e+00,   -9.659697e+00
   53551,    2.120833e+01,    2.666667e+00,   -1.533911e+01
   53552,    2.175305e+01,    2.666667e+00,   -2.123241e+01
   53553,    1.718818e+01,    2.666667e+00,   -2.151752e+01
   53554,    1.279960e+01,    2.666667e+00,   -2.047926e+01
   53555,    1.437266e+01,    2.666667e+00,   -1.618356e+01
   53556,    1.660302e+01,    2.666667e+00,   -1.259574e+01
   53557,    1.758972e+01,    2.666667e+00,   -1.768006e+01
   53558,    4.414821e+00,   -8.698956e-16,   -1.420647e+01
   53559,    7.096164e+00,   -6.794438e-16,   -1.109616e+01
   53560,    9.158337e+00,   -5.192378e-16,   -8.479797e+00
   53561,    1.076656e+01,   -3.538497e-16,   -5.778804e+00
   53562,    1.192728e+01,   -1.815984e-16,   -2.965727e+00
   53563,    1.560259e+01,   -2.218258e-16,   -3.622691e+00
   53564,    1.949984e+01,   -2.603910e-16,   -4.252508e+00
   53565,    2.355661e+01,   -2.926724e-16,   -4.779704e+00
   53566,    2.775391e+01,   -3.120587e-16,   -5.096305e+00
   53567,    2.678578e+01,   -1.626908e-15,   -2.656942e+01
   53568,    2.162073e+01,   -1.626629e-15,   -2.656487e+01
   53569,    1.655390e+01,   -1.628111e-15,   -2.658907e+01
   53570,    1.151601e+01,   -1.580319e-15,   -2.580856e+01
   53571,    6.149210e+00,   -1.485282e-15,   -2.425650e+01
   53572,    2.727270e+01,   -6.305036e-16,   -1.029691e+01
   53573,    2.684711e+01,   -9.594865e-16,   -1.566960e+01
   53574,    2.685732e+01,   -1.294965e-15,   -2.114838e+01
   53575,    8.318478e+00,   -1.116580e-15,   -1.823514e+01
   53576,    1.060848e+01,   -8.584622e-16,   -1.401975e+01
   53577,    1.265958e+01,   -6.467025e-16,   -1.056145e+01
   53578,    1.432855e+01,   -4.369637e-16,   -7.136159e+00
   53579,    1.829448e+01,   -5.189587e-16,   -8.475239e+00
   53580,    2.263509e+01,   -5.914859e-16,   -9.659697e+00
   53581,    2.120833e+01,   -9.392494e-16,   -1.533911e+01
   53582,    2.175305e+01,   -1.300110e-15,   -2.123241e+01
   53583,    1.718818e+01,   -1.317568e-15,   -2.151752e+01
   53584,    1.279960e+01,   -1.253993e-15,   -2.047926e+01
   53585,    1.437266e+01,   -9.909571e-16,   -1.618356e+01
   53586,    1.660302e+01,   -7.712665e-16,   -1.259574e+01
   53587,    1.758972e+01,   -1.082592e-15,   -1.768006e+01
   53588,    0.000000e+00,    1.600000e+01,   -8.000000e+00
   53589,    0.000000e+00,   -4.898587e-16,   -8.000000e+00
   53590,    0.000000e+00,    2.666667e+00,   -8.000000e+00
   53591,    0.000000e+00,    5.333333e+00,   -8.000000e+00
   53592,    0.000000e+00,    8.000000e+00,   -8.000000e+00
   53593,    0.000000e+00,    1.066667e+01,   -8.000000e+00
   53594,    0.000000e+00,    1.333333e+01,   -8.000000e+00
   53595,   -8.000000e+00,    9.373499e-32,    0.000000e+00
   53596,   -2.070552e+00,   -4.731672e-16,   -7.727407e+00
   53597,   -4.000000e+00,   -4.242301e-16,   -6.928203e+00
   53598,   -5.656854e+00,   -3.463824e-16,   -5.656854e+00
   53599,   -6.928203e+00,   -2.449294e-16,   -4.000000e+00
   53600,   -7.727407e+00,   -1.267848e-16,   -2.070552e+00
   53601,   -8.000000e+00,    1.600000e+01,    0.000000e+00
   53602,   -8.000000e+00,    1.333333e+01,   -8.164312e-16
   53603,   -8.000000e+00,    1.066667e+01,   -6.531450e-16
   53604,   -8.000000e+00,    8.000000e+00,   -4.898587e-16
   53605,   -8.000000e+00,    5.333333e+00,   -3.265725e-16
   53606,   -8.000000e+00,    2.666667e+00,   -1.632862e-16
   53607,   -7.727407e+00,    1.600000e+01,   -2.070552e+00
   53608,   -6.928203e+00,    1.600000e+01,   -4.000000e+00
   53609,   -5.656854e+00,    1.600000e+01,   -5.656854e+00
   53610,   -4.000000e+00,    1.600000e+01,   -6.928203e+00
   53611,   -2.070552e+00,    1.600000e+01,   -7.727407e+00
   53612,   -2.070552e+00,    1.333333e+01,   -7.727407e+00
   53613,   -2.070552e+00,    1.066667e+01,   -7.727407e+00
   53614,   -2.070552e+00,    8.000000e+00,   -7.727407e+00
   53615,   -2.070552e+00,    5.333333e+00,   -7.727407e+00
   53616,   -2.070552e+00,    2.666667e+00,   -7.727407e+00
   53617,   -4.000000e+00,    1.333333e+01,   -6.928203e+00
   53618,   -4.000000e+00,    1.066667e+01,   -6.928203e+00
   53619,   -4.000000e+00,    8.000000e+00,   -6.928203e+00
   53620,   -4.000000e+00,    5.333333e+00,   -6.928203e+00
   53621,   -4.000000e+00,    2.666667e+00,   -6.928203e+00
   53622,   -5.656854e+00,    1.333333e+01,   -5.656854e+00
   53623,   -5.656854e+00,    1.066667e+01,   -5.656854e+00
   53624,   -5.656854e+00,    8.000000e+00,   -5.656854e+00
   53625,   -5.656854e+00,    5.333333e+00,   -5.656854e+00
   53626,   -5.656854e+00,    2.666667e+00,   -5.656854e+00
   53627,   -6.928203e+00,    1.333333e+01,   -4.000000e+00
   53628,   -6.928203e+00,    1.066667e+01,   -4.000000e+00
   53629,   -6.928203e+00,    8.000000e+00,   -4.000000e+00
   53630,   -6.928203e+00,    5.333333e+00,   -4.000000e+00
   53631,   -6.928203e+00,    2.666667e+00,   -4.000000e+00
   53632,   -7.727407e+00,    1.333333e+01,   -2.070552e+00
   53633,   -7.727407e+00,    1.066667e+01,   -2.070552e+00
   53634,   -7.727407e+00,    8.000000e+00,   -2.070552e+00
   53635,   -7.727407e+00,    5.333333e+00,   -2.070552e+00
   53636,   -7.727407e+00,    2.666667e+00,   -2.070552e+00
   53637,    8.000000e+00,    0.000000e+00,   -1.530808e-15
   53638,    7.727407e+00,   -1.267848e-16,   -2.070552e+00
   53639,    6.928203e+00,   -2.449294e-16,   -4.000000e+00
   53640,    5.656854e+00,   -3.463824e-16,   -5.656854e+00
   53641,    4.000000e+00,   -4.242301e-16,   -6.928203e+00
   53642,    2.070552e+00,   -4.731672e-16,   -7.727407e+00
   53643,    8.000000e+00,    1.600000e+01,   -2.510526e-15
   53644,    8.000000e+00,    2.666667e+00,   -1.694095e-15
   53645,    8.000000e+00,    5.333333e+00,   -1.857381e-15
   53646,    8.000000e+00,    8.000000e+00,   -2.020667e-15
   53647,    8.000000e+00,    1.066667e+01,   -2.183953e-15
   53648,    8.000000e+00,    1.333333e+01,   -2.347240e-15
   53649,    2.070552e+00,    1.600000e+01,   -7.727407e+00
   53650,    4.000000e+00,    1.600000e+01,   -6.928203e+00
   53651,    5.656854e+00,    1.600000e+01,   -5.656854e+00
   53652,    6.928203e+00,    1.600000e+01,   -4.000000e+00
   53653,    7.727407e+00,    1.600000e+01,   -2.070552e+00
   53654,    2.070552e+00,    2.666667e+00,   -7.727407e+00
   53655,    2.070552e+00,    5.333333e+00,   -7.727407e+00
   53656,    2.070552e+00,    8.000000e+00,   -7.727407e+00
   53657,    2.070552e+00,    1.066667e+01,   -7.727407e+00
   53658,    2.070552e+00,    1.333333e+01,   -7.727407e+00
   53659,    4.000000e+00,    2.666667e+00,   -6.928203e+00
   53660,    4.000000e+00,    5.333333e+00,   -6.928203e+00
   53661,    4.000000e+00,    8.000000e+00,   -6.928203e+00
   53662,    4.000000e+00,    1.066667e+01,   -6.928203e+00
   53663,    4.000000e+00,    1.333333e+01,   -6.928203e+00
   53664,    5.656854e+00,    2.666667e+00,   -5.656854e+00
   53665,    5.656854e+00,    5.333333e+00,   -5.656854e+00
   53666,    5.656854e+00,    8.000000e+00,   -5.656854e+00
   53667,    5.656854e+00,    1.066667e+01,   -5.656854e+00
   53668,    5.656854e+00,    1.333333e+01,   -5.656854e+00
   53669,    6.928203e+00,    2.666667e+00,   -4.000000e+00
   53670,    6.928203e+00,    5.333333e+00,   -4.000000e+00
   53671,    6.928203e+00,    8.000000e+00,   -4.000000e+00
   53672,    6.928203e+00,    1.066667e+01,   -4.000000e+00
   53673,    6.928203e+00,    1.333333e+01,   -4.000000e+00
   53674,    7.727407e+00,    2.666667e+00,   -2.070552e+00
   53675,    7.727407e+00,    5.333333e+00,   -2.070552e+00
   53676,    7.727407e+00,    8.000000e+00,   -2.070552e+00
   53677,    7.727407e+00,    1.066667e+01,   -2.070552e+00
   53678,    7.727407e+00,    1.333333e+01,   -2.070552e+00
   53679,    0.000000e+00,    9.373499e-32,    0.000000e+00
   53680,    0.000000e+00,   -4.082156e-16,   -6.666667e+00
   53681,    0.000000e+00,   -3.265725e-16,   -5.333333e+00
   53682,    0.000000e+00,   -2.449294e-16,   -4.000000e+00
   53683,    0.000000e+00,   -1.632862e-16,   -2.666667e+00
   53684,    0.000000e+00,   -8.164312e-17,   -1.333333e+00
   53685,   -1.333333e+00,    9.373499e-32,    0.000000e+00
   53686,   -2.666667e+00,    9.373499e-32,    0.000000e+00
   53687,   -4.000000e+00,    9.373499e-32,    0.000000e+00
   53688,   -5.333333e+00,    9.373499e-32,    0.000000e+00
   53689,   -6.666667e+00,    9.373499e-32,    0.000000e+00
   53690,   -3.128275e+00,   -1.916145e-16,   -3.129302e+00
   53691,   -1.230692e+00,   -2.251603e-16,   -3.677147e+00
   53692,   -2.320438e+00,   -2.063443e-16,   -3.369858e+00
   53693,   -4.584774e+00,   -2.802889e-16,   -4.577465e+00
   53694,   -3.732203e+00,   -2.282538e-16,   -3.727667e+00
   53695,   -3.670240e+00,   -7.539334e-17,   -1.231267e+00
   53696,   -3.363025e+00,   -1.418778e-16,   -2.317041e+00
   53697,   -2.457461e+00,   -7.267679e-17,   -1.186902e+00
   53698,   -1.206319e+00,   -7.428561e-17,   -1.213176e+00
   53699,   -2.316069e+00,   -1.420346e-16,   -2.319601e+00
   53700,   -1.184480e+00,   -1.507699e-16,   -2.462259e+00
   53701,   -1.435312e+00,   -3.005218e-16,   -4.907893e+00
   53702,   -1.714861e+00,   -3.821947e-16,   -6.241713e+00
   53703,   -2.703929e+00,   -2.691842e-16,   -4.396111e+00
   53704,   -3.274663e+00,   -3.398018e-16,   -5.549385e+00
   53705,   -5.549409e+00,   -2.001496e-16,   -3.268691e+00
   53706,   -6.237972e+00,   -1.047275e-16,   -1.710329e+00
   53707,   -4.393650e+00,   -1.650974e-16,   -2.696244e+00
   53708,   -4.903833e+00,   -8.772877e-17,   -1.432720e+00
   53709,    0.000000e+00,    1.600000e+01,    0.000000e+00
   53710,    0.000000e+00,    1.333333e+01,    0.000000e+00
   53711,    0.000000e+00,    1.066667e+01,    0.000000e+00
   53712,    0.000000e+00,    8.000000e+00,    0.000000e+00
   53713,    0.000000e+00,    5.333333e+00,    0.000000e+00
   53714,    0.000000e+00,    2.666667e+00,    0.000000e+00
   53715,    0.000000e+00,    1.600000e+01,   -6.666667e+00
   53716,    0.000000e+00,    1.600000e+01,   -5.333333e+00
   53717,    0.000000e+00,    1.600000e+01,   -4.000000e+00
   53718,    0.000000e+00,    1.600000e+01,   -2.666667e+00
   53719,    0.000000e+00,    1.600000e+01,   -1.333333e+00
   53720,    0.000000e+00,    2.666667e+00,   -1.333333e+00
   53721,    0.000000e+00,    5.333333e+00,   -1.333333e+00
   53722,    0.000000e+00,    8.000000e+00,   -1.333333e+00
   53723,    0.000000e+00,    1.066667e+01,   -1.333333e+00
   53724,    0.000000e+00,    1.333333e+01,   -1.333333e+00
   53725,    0.000000e+00,    2.666667e+00,   -2.666667e+00
   53726,    0.000000e+00,    5.333333e+00,   -2.666667e+00
   53727,    0.000000e+00,    8.000000e+00,   -2.666667e+00
   53728,    0.000000e+00,    1.066667e+01,   -2.666667e+00
   53729,    0.000000e+00,    1.333333e+01,   -2.666667e+00
   53730,    0.000000e+00,    2.666667e+00,   -4.000000e+00
   53731,    0.000000e+00,    5.333333e+00,   -4.000000e+00
   53732,    0.000000e+00,    8.000000e+00,   -4.000000e+00
   53733,    0.000000e+00,    1.066667e+01,   -4.000000e+00
   53734,    0.000000e+00,    1.333333e+01,   -4.000000e+00
   53735,    0.000000e+00,    2.666667e+00,   -5.333333e+00
   53736,    0.000000e+00,    5.333333e+00,   -5.333333e+00
   53737,    0.000000e+00,    8.000000e+00,   -5.333333e+00
   53738,    0.000000e+00,    1.066667e+01,   -5.333333e+00
   53739,    0.000000e+00,    1.333333e+01,   -5.333333e+00
   53740,    0.000000e+00,    2.666667e+00,   -6.666667e+00
   53741,    0.000000e+00,    5.333333e+00,   -6.666667e+00
   53742,    0.000000e+00,    8.000000e+00,   -6.666667e+00
   53743,    0.000000e+00,    1.066667e+01,   -6.666667e+00
   53744,    0.000000e+00,    1.333333e+01,   -6.666667e+00
   53745,   -1.333333e+00,    1.600000e+01,    0.000000e+00
   53746,   -2.666667e+00,    1.600000e+01,    0.000000e+00
   53747,   -4.000000e+00,    1.600000e+01,    0.000000e+00
   53748,   -5.333333e+00,    1.600000e+01,    0.000000e+00
   53749,   -6.666667e+00,    1.600000e+01,    0.000000e+00
   53750,   -1.333333e+00,    2.666667e+00,    0.000000e+00
   53751,   -1.333333e+00,    5.333333e+00,    0.000000e+00
   53752,   -1.333333e+00,    8.000000e+00,    0.000000e+00
   53753,   -1.333333e+00,    1.066667e+01,    0.000000e+00
   53754,   -1.333333e+00,    1.333333e+01,    0.000000e+00
   53755,   -2.666667e+00,    2.666667e+00,    0.000000e+00
   53756,   -2.666667e+00,    5.333333e+00,    0.000000e+00
   53757,   -2.666667e+00,    8.000000e+00,    0.000000e+00
   53758,   -2.666667e+00,    1.066667e+01,    0.000000e+00
   53759,   -2.666667e+00,    1.333333e+01,    0.000000e+00
   53760,   -4.000000e+00,    2.666667e+00,    0.000000e+00
   53761,   -4.000000e+00,    5.333333e+00,    0.000000e+00
   53762,   -4.000000e+00,    8.000000e+00,    0.000000e+00
   53763,   -4.000000e+00,    1.066667e+01,    0.000000e+00
   53764,   -4.000000e+00,    1.333333e+01,    0.000000e+00
   53765,   -5.333333e+00,    2.666667e+00,    0.000000e+00
   53766,   -5.333333e+00,    5.333333e+00,    0.000000e+00
   53767,   -5.333333e+00,    8.000000e+00,    0.000000e+00
   53768,   -5.333333e+00,    1.066667e+01,    0.000000e+00
   53769,   -5.333333e+00,    1.333333e+01,    0.000000e+00
   53770,   -6.666667e+00,    2.666667e+00,    0.000000e+00
   53771,   -6.666667e+00,    5.333333e+00,    0.000000e+00
   53772,   -6.666667e+00,    8.000000e+00,    0.000000e+00
   53773,   -6.666667e+00,    1.066667e+01,    0.000000e+00
   53774,   -6.666667e+00,    1.333333e+01,    0.000000e+00
   53775,   -3.670240e+00,    2.666667e+00,   -1.231267e+00
   53776,   -2.457461e+00,    2.666667e+00,   -1.186902e+00
   53777,   -1.206319e+00,    2.666667e+00,   -1.213176e+00
   53778,   -3.363025e+00,    2.666667e+00,   -2.317041e+00
   53779,   -2.316069e+00,    2.666667e+00,   -2.319601e+00
   53780,   -1.184480e+00,    2.666667e+00,   -2.462259e+00
   53781,   -3.128275e+00,    2.666667e+00,   -3.129302e+00
   53782,   -2.320438e+00,    2.666667e+00,   -3.369858e+00
   53783,   -1.230692e+00,    2.666667e+00,   -3.677147e+00
   53784,   -1.435312e+00,    2.666667e+00,   -4.907893e+00
   53785,   -1.714861e+00,    2.666667e+00,   -6.241713e+00
   53786,   -2.703929e+00,    2.666667e+00,   -4.396111e+00
   53787,   -3.274663e+00,    2.666667e+00,   -5.549385e+00
   53788,   -3.732203e+00,    2.666667e+00,   -3.727667e+00
   53789,   -4.584774e+00,    2.666667e+00,   -4.577465e+00
   53790,   -5.549409e+00,    2.666667e+00,   -3.268691e+00
   53791,   -6.237972e+00,    2.666667e+00,   -1.710329e+00
   53792,   -4.393650e+00,    2.666667e+00,   -2.696244e+00
   53793,   -4.903833e+00,    2.666667e+00,   -1.432720e+00
   53794,   -3.670240e+00,    5.333333e+00,   -1.231267e+00
   53795,   -2.457461e+00,    5.333333e+00,   -1.186902e+00
   53796,   -1.206319e+00,    5.333333e+00,   -1.213176e+00
   53797,   -3.363025e+00,    5.333333e+00,   -2.317041e+00
   53798,   -2.316069e+00,    5.333333e+00,   -2.319601e+00
   53799,   -1.184480e+00,    5.333333e+00,   -2.462259e+00
   53800,   -3.128275e+00,    5.333333e+00,   -3.129302e+00
   53801,   -2.320438e+00,    5.333333e+00,   -3.369858e+00
   53802,   -1.230692e+00,    5.333333e+00,   -3.677147e+00
   53803,   -1.435312e+00,    5.333333e+00,   -4.907893e+00
   53804,   -1.714861e+00,    5.333333e+00,   -6.241713e+00
   53805,   -2.703929e+00,    5.333333e+00,   -4.396111e+00
   53806,   -3.274663e+00,    5.333333e+00,   -5.549385e+00
   53807,   -3.732203e+00,    5.333333e+00,   -3.727667e+00
   53808,   -4.584774e+00,    5.333333e+00,   -4.577465e+00
   53809,   -5.549409e+00,    5.333333e+00,   -3.268691e+00
   53810,   -6.237972e+00,    5.333333e+00,   -1.710329e+00
   53811,   -4.393650e+00,    5.333333e+00,   -2.696244e+00
   53812,   -4.903833e+00,    5.333333e+00,   -1.432720e+00
   53813,   -3.670240e+00,    8.000000e+00,   -1.231267e+00
   53814,   -2.457461e+00,    8.000000e+00,   -1.186902e+00
   53815,   -1.206319e+00,    8.000000e+00,   -1.213176e+00
   53816,   -3.363025e+00,    8.000000e+00,   -2.317041e+00
   53817,   -2.316069e+00,    8.000000e+00,   -2.319601e+00
   53818,   -1.184480e+00,    8.000000e+00,   -2.462259e+00
   53819,   -3.128275e+00,    8.000000e+00,   -3.129302e+00
   53820,   -2.320438e+00,    8.000000e+00,   -3.369858e+00
   53821,   -1.230692e+00,    8.000000e+00,   -3.677147e+00
   53822,   -1.435312e+00,    8.000000e+00,   -4.907893e+00
   53823,   -1.714861e+00,    8.000000e+00,   -6.241713e+00
   53824,   -2.703929e+00,    8.000000e+00,   -4.396111e+00
   53825,   -3.274663e+00,    8.000000e+00,   -5.549385e+00
   53826,   -3.732203e+00,    8.000000e+00,   -3.727667e+00
   53827,   -4.584774e+00,    8.000000e+00,   -4.577465e+00
   53828,   -5.549409e+00,    8.000000e+00,   -3.268691e+00
   53829,   -6.237972e+00,    8.000000e+00,   -1.710329e+00
   53830,   -4.393650e+00,    8.000000e+00,   -2.696244e+00
   53831,   -4.903833e+00,    8.000000e+00,   -1.432720e+00
   53832,   -3.670240e+00,    1.066667e+01,   -1.231267e+00
   53833,   -2.457461e+00,    1.066667e+01,   -1.186902e+00
   53834,   -1.206319e+00,    1.066667e+01,   -1.213176e+00
   53835,   -3.363025e+00,    1.066667e+01,   -2.317041e+00
   53836,   -2.316069e+00,    1.066667e+01,   -2.319601e+00
   53837,   -1.184480e+00,    1.066667e+01,   -2.462259e+00
   53838,   -3.128275e+00,    1.066667e+01,   -3.129302e+00
   53839,   -2.320438e+00,    1.066667e+01,   -3.369858e+00
   53840,   -1.230692e+00,    1.066667e+01,   -3.677147e+00
   53841,   -1.435312e+00,    1.066667e+01,   -4.907893e+00
   53842,   -1.714861e+00,    1.066667e+01,   -6.241713e+00
   53843,   -2.703929e+00,    1.066667e+01,   -4.396111e+00
   53844,   -3.274663e+00,    1.066667e+01,   -5.549385e+00
   53845,   -3.732203e+00,    1.066667e+01,   -3.727667e+00
   53846,   -4.584774e+00,    1.066667e+01,   -4.577465e+00
   53847,   -5.549409e+00,    1.066667e+01,   -3.268691e+00
   53848,   -6.237972e+00,    1.066667e+01,   -1.710329e+00
   53849,   -4.393650e+00,    1.066667e+01,   -2.696244e+00
   53850,   -4.903833e+00,    1.066667e+01,   -1.432720e+00
   53851,   -3.670240e+00,    1.333333e+01,   -1.231267e+00
   53852,   -2.457461e+00,    1.333333e+01,   -1.186902e+00
   53853,   -1.206319e+00,    1.333333e+01,   -1.213176e+00
   53854,   -3.363025e+00,    1.333333e+01,   -2.317041e+00
   53855,   -2.316069e+00,    1.333333e+01,   -2.319601e+00
   53856,   -1.184480e+00,    1.333333e+01,   -2.462259e+00
   53857,   -3.128275e+00,    1.333333e+01,   -3.129302e+00
   53858,   -2.320438e+00,    1.333333e+01,   -3.369858e+00
   53859,   -1.230692e+00,    1.333333e+01,   -3.677147e+00
   53860,   -1.435312e+00,    1.333333e+01,   -4.907893e+00
   53861,   -1.714861e+00,    1.333333e+01,   -6.241713e+00
   53862,   -2.703929e+00,    1.333333e+01,   -4.396111e+00
   53863,   -3.274663e+00,    1.333333e+01,   -5.549385e+00
   53864,   -3.732203e+00,    1.333333e+01,   -3.727667e+00
   53865,   -4.584774e+00,    1.333333e+01,   -4.577465e+00
   53866,   -5.549409e+00,    1.333333e+01,   -3.268691e+00
   53867,   -6.237972e+00,    1.333333e+01,   -1.710329e+00
   53868,   -4.393650e+00,    1.333333e+01,   -2.696244e+00
   53869,   -4.903833e+00,    1.333333e+01,   -1.432720e+00
   53870,   -3.670240e+00,    1.600000e+01,   -1.231267e+00
   53871,   -2.457461e+00,    1.600000e+01,   -1.186902e+00
   53872,   -1.206319e+00,    1.600000e+01,   -1.213176e+00
   53873,   -3.363025e+00,    1.600000e+01,   -2.317041e+00
   53874,   -2.316069e+00,    1.600000e+01,   -2.319601e+00
   53875,   -1.184480e+00,    1.600000e+01,   -2.462259e+00
   53876,   -3.128275e+00,    1.600000e+01,   -3.129302e+00
   53877,   -2.320438e+00,    1.600000e+01,   -3.369858e+00
   53878,   -1.230692e+00,    1.600000e+01,   -3.677147e+00
   53879,   -1.435312e+00,    1.600000e+01,   -4.907893e+00
   53880,   -1.714861e+00,    1.600000e+01,   -6.241713e+00
   53881,   -2.703929e+00,    1.600000e+01,   -4.396111e+00
   53882,   -3.274663e+00,    1.600000e+01,   -5.549385e+00
   53883,   -3.732203e+00,    1.600000e+01,   -3.727667e+00
   53884,   -4.584774e+00,    1.600000e+01,   -4.577465e+00
   53885,   -5.549409e+00,    1.600000e+01,   -3.268691e+00
   53886,   -6.237972e+00,    1.600000e+01,   -1.710329e+00
   53887,   -4.393650e+00,    1.600000e+01,   -2.696244e+00
   53888,   -4.903833e+00,    1.600000e+01,   -1.432720e+00
   53889,    0.000000e+00,   -5.000000e+01,    0.000000e+00
   53890,    0.000000e+00,   -4.166667e+00,    0.000000e+00
   53891,    0.000000e+00,   -8.333333e+00,    0.000000e+00
   53892,    0.000000e+00,   -1.250000e+01,    0.000000e+00
   53893,    0.000000e+00,   -1.666667e+01,    0.000000e+00
   53894,    0.000000e+00,   -2.083333e+01,    0.000000e+00
   53895,    0.000000e+00,   -2.500000e+01,    0.000000e+00
   53896,    0.000000e+00,   -2.916667e+01,    0.000000e+00
   53897,    0.000000e+00,   -3.333333e+01,    0.000000e+00
   53898,    0.000000e+00,   -3.750000e+01,    0.000000e+00
   53899,    0.000000e+00,   -4.166667e+01,    0.000000e+00
   53900,    0.000000e+00,   -4.583333e+01,    0.000000e+00
   53901,    0.000000e+00,   -5.000000e+01,   -8.000000e+00
   53902,    0.000000e+00,   -4.583333e+01,   -8.000000e+00
   53903,    0.000000e+00,   -4.166667e+01,   -8.000000e+00
   53904,    0.000000e+00,   -3.750000e+01,   -8.000000e+00
   53905,    0.000000e+00,   -3.333333e+01,   -8.000000e+00
   53906,    0.000000e+00,   -2.916667e+01,   -8.000000e+00
   53907,    0.000000e+00,   -2.500000e+01,   -8.000000e+00
   53908,    0.000000e+00,   -2.083333e+01,   -8.000000e+00
   53909,    0.000000e+00,   -1.666667e+01,   -8.000000e+00
   53910,    0.000000e+00,   -1.250000e+01,   -8.000000e+00
   53911,    0.000000e+00,   -8.333333e+00,   -8.000000e+00
   53912,    0.000000e+00,   -4.166667e+00,   -8.000000e+00
   53913,    0.000000e+00,   -5.000000e+01,   -1.333333e+00
   53914,    0.000000e+00,   -5.000000e+01,   -2.666667e+00
   53915,    0.000000e+00,   -5.000000e+01,   -4.000000e+00
   53916,    0.000000e+00,   -5.000000e+01,   -5.333333e+00
   53917,    0.000000e+00,   -5.000000e+01,   -6.666667e+00
   53918,    0.000000e+00,   -4.583333e+01,   -1.333333e+00
   53919,    0.000000e+00,   -4.166667e+01,   -1.333333e+00
   53920,    0.000000e+00,   -3.750000e+01,   -1.333333e+00
   53921,    0.000000e+00,   -3.333333e+01,   -1.333333e+00
   53922,    0.000000e+00,   -2.916667e+01,   -1.333333e+00
   53923,    0.000000e+00,   -2.500000e+01,   -1.333333e+00
   53924,    0.000000e+00,   -2.083333e+01,   -1.333333e+00
   53925,    0.000000e+00,   -1.666667e+01,   -1.333333e+00
   53926,    0.000000e+00,   -1.250000e+01,   -1.333333e+00
   53927,    0.000000e+00,   -8.333333e+00,   -1.333333e+00
   53928,    0.000000e+00,   -4.166667e+00,   -1.333333e+00
   53929,    0.000000e+00,   -4.583333e+01,   -2.666667e+00
   53930,    0.000000e+00,   -4.166667e+01,   -2.666667e+00
   53931,    0.000000e+00,   -3.750000e+01,   -2.666667e+00
   53932,    0.000000e+00,   -3.333333e+01,   -2.666667e+00
   53933,    0.000000e+00,   -2.916667e+01,   -2.666667e+00
   53934,    0.000000e+00,   -2.500000e+01,   -2.666667e+00
   53935,    0.000000e+00,   -2.083333e+01,   -2.666667e+00
   53936,    0.000000e+00,   -1.666667e+01,   -2.666667e+00
   53937,    0.000000e+00,   -1.250000e+01,   -2.666667e+00
   53938,    0.000000e+00,   -8.333333e+00,   -2.666667e+00
   53939,    0.000000e+00,   -4.166667e+00,   -2.666667e+00
   53940,    0.000000e+00,   -4.583333e+01,   -4.000000e+00
   53941,    0.000000e+00,   -4.166667e+01,   -4.000000e+00
   53942,    0.000000e+00,   -3.750000e+01,   -4.000000e+00
   53943,    0.000000e+00,   -3.333333e+01,   -4.000000e+00
   53944,    0.000000e+00,   -2.916667e+01,   -4.000000e+00
   53945,    0.000000e+00,   -2.500000e+01,   -4.000000e+00
   53946,    0.000000e+00,   -2.083333e+01,   -4.000000e+00
   53947,    0.000000e+00,   -1.666667e+01,   -4.000000e+00
   53948,    0.000000e+00,   -1.250000e+01,   -4.000000e+00
   53949,    0.000000e+00,   -8.333333e+00,   -4.000000e+00
   53950,    0.000000e+00,   -4.166667e+00,   -4.000000e+00
   53951,    0.000000e+00,   -4.583333e+01,   -5.333333e+00
   53952,    0.000000e+00,   -4.166667e+01,   -5.333333e+00
   53953,    0.000000e+00,   -3.750000e+01,   -5.333333e+00
   53954,    0.000000e+00,   -3.333333e+01,   -5.333333e+00
   53955,    0.000000e+00,   -2.916667e+01,   -5.333333e+00
   53956,    0.000000e+00,   -2.500000e+01,   -5.333333e+00
   53957,    0.000000e+00,   -2.083333e+01,   -5.333333e+00
   53958,    0.000000e+00,   -1.666667e+01,   -5.333333e+00
   53959,    0.000000e+00,   -1.250000e+01,   -5.333333e+00
   53960,    0.000000e+00,   -8.333333e+00,   -5.333333e+00
   53961,    0.000000e+00,   -4.166667e+00,   -5.333333e+00
   53962,    0.000000e+00,   -4.583333e+01,   -6.666667e+00
   53963,    0.000000e+00,   -4.166667e+01,   -6.666667e+00
   53964,    0.000000e+00,   -3.750000e+01,   -6.666667e+00
   53965,    0.000000e+00,   -3.333333e+01,   -6.666667e+00
   53966,    0.000000e+00,   -2.916667e+01,   -6.666667e+00
   53967,    0.000000e+00,   -2.500000e+01,   -6.666667e+00
   53968,    0.000000e+00,   -2.083333e+01,   -6.666667e+00
   53969,    0.000000e+00,   -1.666667e+01,   -6.666667e+00
   53970,    0.000000e+00,   -1.250000e+01,   -6.666667e+00
   53971,    0.000000e+00,   -8.333333e+00,   -6.666667e+00
   53972,    0.000000e+00,   -4.166667e+00,   -6.666667e+00
   53973,   -8.000000e+00,   -5.000000e+01,    0.000000e+00
   53974,   -8.000000e+00,   -4.166667e+00,   -1.275674e-15
   53975,   -8.000000e+00,   -8.333333e+00,   -1.020539e-15
   53976,   -8.000000e+00,   -1.250000e+01,   -7.654042e-16
   53977,   -8.000000e+00,   -1.666667e+01,   -5.102695e-16
   53978,   -8.000000e+00,   -2.083333e+01,   -2.551347e-16
   53979,   -8.000000e+00,   -2.500000e+01,    0.000000e+00
   53980,   -8.000000e+00,   -2.916667e+01,    2.551347e-16
   53981,   -8.000000e+00,   -3.333333e+01,    5.102695e-16
   53982,   -8.000000e+00,   -3.750000e+01,    7.654042e-16
   53983,   -8.000000e+00,   -4.166667e+01,    1.020539e-15
   53984,   -8.000000e+00,   -4.583333e+01,    1.275674e-15
   53985,   -6.666667e+00,   -5.000000e+01,    0.000000e+00
   53986,   -5.333333e+00,   -5.000000e+01,    0.000000e+00
   53987,   -4.000000e+00,   -5.000000e+01,    0.000000e+00
   53988,   -2.666667e+00,   -5.000000e+01,    0.000000e+00
   53989,   -1.333333e+00,   -5.000000e+01,    0.000000e+00
   53990,   -1.333333e+00,   -4.583333e+01,    0.000000e+00
   53991,   -1.333333e+00,   -4.166667e+01,    0.000000e+00
   53992,   -1.333333e+00,   -3.750000e+01,    0.000000e+00
   53993,   -1.333333e+00,   -3.333333e+01,    0.000000e+00
   53994,   -1.333333e+00,   -2.916667e+01,    0.000000e+00
   53995,   -1.333333e+00,   -2.500000e+01,    0.000000e+00
   53996,   -1.333333e+00,   -2.083333e+01,    0.000000e+00
   53997,   -1.333333e+00,   -1.666667e+01,    0.000000e+00
   53998,   -1.333333e+00,   -1.250000e+01,    0.000000e+00
   53999,   -1.333333e+00,   -8.333333e+00,    0.000000e+00
   54000,   -1.333333e+00,   -4.166667e+00,    0.000000e+00
   54001,   -2.666667e+00,   -4.583333e+01,    0.000000e+00
   54002,   -2.666667e+00,   -4.166667e+01,    0.000000e+00
   54003,   -2.666667e+00,   -3.750000e+01,    0.000000e+00
   54004,   -2.666667e+00,   -3.333333e+01,    0.000000e+00
   54005,   -2.666667e+00,   -2.916667e+01,    0.000000e+00
   54006,   -2.666667e+00,   -2.500000e+01,    0.000000e+00
   54007,   -2.666667e+00,   -2.083333e+01,    0.000000e+00
   54008,   -2.666667e+00,   -1.666667e+01,    0.000000e+00
   54009,   -2.666667e+00,   -1.250000e+01,    0.000000e+00
   54010,   -2.666667e+00,   -8.333333e+00,    0.000000e+00
   54011,   -2.666667e+00,   -4.166667e+00,    0.000000e+00
   54012,   -4.000000e+00,   -4.583333e+01,    0.000000e+00
   54013,   -4.000000e+00,   -4.166667e+01,    0.000000e+00
   54014,   -4.000000e+00,   -3.750000e+01,    0.000000e+00
   54015,   -4.000000e+00,   -3.333333e+01,    0.000000e+00
   54016,   -4.000000e+00,   -2.916667e+01,    0.000000e+00
   54017,   -4.000000e+00,   -2.500000e+01,    0.000000e+00
   54018,   -4.000000e+00,   -2.083333e+01,    0.000000e+00
   54019,   -4.000000e+00,   -1.666667e+01,    0.000000e+00
   54020,   -4.000000e+00,   -1.250000e+01,    0.000000e+00
   54021,   -4.000000e+00,   -8.333333e+00,    0.000000e+00
   54022,   -4.000000e+00,   -4.166667e+00,    0.000000e+00
   54023,   -5.333333e+00,   -4.583333e+01,    0.000000e+00
   54024,   -5.333333e+00,   -4.166667e+01,    0.000000e+00
   54025,   -5.333333e+00,   -3.750000e+01,    0.000000e+00
   54026,   -5.333333e+00,   -3.333333e+01,    0.000000e+00
   54027,   -5.333333e+00,   -2.916667e+01,    0.000000e+00
   54028,   -5.333333e+00,   -2.500000e+01,    0.000000e+00
   54029,   -5.333333e+00,   -2.083333e+01,    0.000000e+00
   54030,   -5.333333e+00,   -1.666667e+01,    0.000000e+00
   54031,   -5.333333e+00,   -1.250000e+01,    0.000000e+00
   54032,   -5.333333e+00,   -8.333333e+00,    0.000000e+00
   54033,   -5.333333e+00,   -4.166667e+00,    0.000000e+00
   54034,   -6.666667e+00,   -4.583333e+01,    0.000000e+00
   54035,   -6.666667e+00,   -4.166667e+01,    0.000000e+00
   54036,   -6.666667e+00,   -3.750000e+01,    0.000000e+00
   54037,   -6.666667e+00,   -3.333333e+01,    0.000000e+00
   54038,   -6.666667e+00,   -2.916667e+01,    0.000000e+00
   54039,   -6.666667e+00,   -2.500000e+01,    0.000000e+00
   54040,   -6.666667e+00,   -2.083333e+01,    0.000000e+00
   54041,   -6.666667e+00,   -1.666667e+01,    0.000000e+00
   54042,   -6.666667e+00,   -1.250000e+01,    0.000000e+00
   54043,   -6.666667e+00,   -8.333333e+00,    0.000000e+00
   54044,   -6.666667e+00,   -4.166667e+00,    0.000000e+00
   54045,   -7.727407e+00,   -5.000000e+01,   -2.070552e+00
   54046,   -6.928203e+00,   -5.000000e+01,   -4.000000e+00
   54047,   -5.656854e+00,   -5.000000e+01,   -5.656854e+00
   54048,   -4.000000e+00,   -5.000000e+01,   -6.928203e+00
   54049,   -2.070552e+00,   -5.000000e+01,   -7.727407e+00
   54050,   -2.070552e+00,   -4.166667e+00,   -7.727407e+00
   54051,   -2.070552e+00,   -8.333333e+00,   -7.727407e+00
   54052,   -2.070552e+00,   -1.250000e+01,   -7.727407e+00
   54053,   -2.070552e+00,   -1.666667e+01,   -7.727407e+00
   54054,   -2.070552e+00,   -2.083333e+01,   -7.727407e+00
   54055,   -2.070552e+00,   -2.500000e+01,   -7.727407e+00
   54056,   -2.070552e+00,   -2.916667e+01,   -7.727407e+00
   54057,   -2.070552e+00,   -3.333333e+01,   -7.727407e+00
   54058,   -2.070552e+00,   -3.750000e+01,   -7.727407e+00
   54059,   -2.070552e+00,   -4.166667e+01,   -7.727407e+00
   54060,   -2.070552e+00,   -4.583333e+01,   -7.727407e+00
   54061,   -4.000000e+00,   -4.166667e+00,   -6.928203e+00
   54062,   -4.000000e+00,   -8.333333e+00,   -6.928203e+00
   54063,   -4.000000e+00,   -1.250000e+01,   -6.928203e+00
   54064,   -4.000000e+00,   -1.666667e+01,   -6.928203e+00
   54065,   -4.000000e+00,   -2.083333e+01,   -6.928203e+00
   54066,   -4.000000e+00,   -2.500000e+01,   -6.928203e+00
   54067,   -4.000000e+00,   -2.916667e+01,   -6.928203e+00
   54068,   -4.000000e+00,   -3.333333e+01,   -6.928203e+00
   54069,   -4.000000e+00,   -3.750000e+01,   -6.928203e+00
   54070,   -4.000000e+00,   -4.166667e+01,   -6.928203e+00
   54071,   -4.000000e+00,   -4.583333e+01,   -6.928203e+00
   54072,   -5.656854e+00,   -4.166667e+00,   -5.656854e+00
   54073,   -5.656854e+00,   -8.333333e+00,   -5.656854e+00
   54074,   -5.656854e+00,   -1.250000e+01,   -5.656854e+00
   54075,   -5.656854e+00,   -1.666667e+01,   -5.656854e+00
   54076,   -5.656854e+00,   -2.083333e+01,   -5.656854e+00
   54077,   -5.656854e+00,   -2.500000e+01,   -5.656854e+00
   54078,   -5.656854e+00,   -2.916667e+01,   -5.656854e+00
   54079,   -5.656854e+00,   -3.333333e+01,   -5.656854e+00
   54080,   -5.656854e+00,   -3.750000e+01,   -5.656854e+00
   54081,   -5.656854e+00,   -4.166667e+01,   -5.656854e+00
   54082,   -5.656854e+00,   -4.583333e+01,   -5.656854e+00
   54083,   -6.928203e+00,   -4.166667e+00,   -4.000000e+00
   54084,   -6.928203e+00,   -8.333333e+00,   -4.000000e+00
   54085,   -6.928203e+00,   -1.250000e+01,   -4.000000e+00
   54086,   -6.928203e+00,   -1.666667e+01,   -4.000000e+00
   54087,   -6.928203e+00,   -2.083333e+01,   -4.000000e+00
   54088,   -6.928203e+00,   -2.500000e+01,   -4.000000e+00
   54089,   -6.928203e+00,   -2.916667e+01,   -4.000000e+00
   54090,   -6.928203e+00,   -3.333333e+01,   -4.000000e+00
   54091,   -6.928203e+00,   -3.750000e+01,   -4.000000e+00
   54092,   -6.928203e+00,   -4.166667e+01,   -4.000000e+00
   54093,   -6.928203e+00,   -4.583333e+01,   -4.000000e+00
   54094,   -7.727407e+00,   -4.166667e+00,   -2.070552e+00
   54095,   -7.727407e+00,   -8.333333e+00,   -2.070552e+00
   54096,   -7.727407e+00,   -1.250000e+01,   -2.070552e+00
   54097,   -7.727407e+00,   -1.666667e+01,   -2.070552e+00
   54098,   -7.727407e+00,   -2.083333e+01,   -2.070552e+00
   54099,   -7.727407e+00,   -2.500000e+01,   -2.070552e+00
   54100,   -7.727407e+00,   -2.916667e+01,   -2.070552e+00
   54101,   -7.727407e+00,   -3.333333e+01,   -2.070552e+00
   54102,   -7.727407e+00,   -3.750000e+01,   -2.070552e+00
   54103,   -7.727407e+00,   -4.166667e+01,   -2.070552e+00
   54104,   -7.727407e+00,   -4.583333e+01,   -2.070552e+00
   54105,   -2.457461e+00,   -4.166667e+00,   -1.186902e+00
   54106,   -3.670240e+00,   -4.166667e+00,   -1.231267e+00
   54107,   -1.206319e+00,   -4.166667e+00,   -1.213176e+00
   54108,   -2.316069e+00,   -4.166667e+00,   -2.319601e+00
   54109,   -3.363025e+00,   -4.166667e+00,   -2.317041e+00
   54110,   -1.184480e+00,   -4.166667e+00,   -2.462259e+00
   54111,   -2.320438e+00,   -4.166667e+00,   -3.369858e+00
   54112,   -3.128275e+00,   -4.166667e+00,   -3.129302e+00
   54113,   -1.230692e+00,   -4.166667e+00,   -3.677147e+00
   54114,   -1.435312e+00,   -4.166667e+00,   -4.907893e+00
   54115,   -1.714861e+00,   -4.166667e+00,   -6.241713e+00
   54116,   -2.703929e+00,   -4.166667e+00,   -4.396111e+00
   54117,   -3.274663e+00,   -4.166667e+00,   -5.549385e+00
   54118,   -3.732203e+00,   -4.166667e+00,   -3.727667e+00
   54119,   -4.584774e+00,   -4.166667e+00,   -4.577465e+00
   54120,   -5.549409e+00,   -4.166667e+00,   -3.268691e+00
   54121,   -6.237972e+00,   -4.166667e+00,   -1.710329e+00
   54122,   -4.393650e+00,   -4.166667e+00,   -2.696244e+00
   54123,   -4.903833e+00,   -4.166667e+00,   -1.432720e+00
   54124,   -2.457461e+00,   -8.333333e+00,   -1.186902e+00
   54125,   -3.670240e+00,   -8.333333e+00,   -1.231267e+00
   54126,   -1.206319e+00,   -8.333333e+00,   -1.213176e+00
   54127,   -2.316069e+00,   -8.333333e+00,   -2.319601e+00
   54128,   -3.363025e+00,   -8.333333e+00,   -2.317041e+00
   54129,   -1.184480e+00,   -8.333333e+00,   -2.462259e+00
   54130,   -2.320438e+00,   -8.333333e+00,   -3.369858e+00
   54131,   -3.128275e+00,   -8.333333e+00,   -3.129302e+00
   54132,   -1.230692e+00,   -8.333333e+00,   -3.677147e+00
   54133,   -1.435312e+00,   -8.333333e+00,   -4.907893e+00
   54134,   -1.714861e+00,   -8.333333e+00,   -6.241713e+00
   54135,   -2.703929e+00,   -8.333333e+00,   -4.396111e+00
   54136,   -3.274663e+00,   -8.333333e+00,   -5.549385e+00
   54137,   -3.732203e+00,   -8.333333e+00,   -3.727667e+00
   54138,   -4.584774e+00,   -8.333333e+00,   -4.577465e+00
   54139,   -5.549409e+00,   -8.333333e+00,   -3.268691e+00
   54140,   -6.237972e+00,   -8.333333e+00,   -1.710329e+00
   54141,   -4.393650e+00,   -8.333333e+00,   -2.696244e+00
   54142,   -4.903833e+00,   -8.333333e+00,   -1.432720e+00
   54143,   -2.457461e+00,   -1.250000e+01,   -1.186902e+00
   54144,   -3.670240e+00,   -1.250000e+01,   -1.231267e+00
   54145,   -1.206319e+00,   -1.250000e+01,   -1.213176e+00
   54146,   -2.316069e+00,   -1.250000e+01,   -2.319601e+00
   54147,   -3.363025e+00,   -1.250000e+01,   -2.317041e+00
   54148,   -1.184480e+00,   -1.250000e+01,   -2.462259e+00
   54149,   -2.320438e+00,   -1.250000e+01,   -3.369858e+00
   54150,   -3.128275e+00,   -1.250000e+01,   -3.129302e+00
   54151,   -1.230692e+00,   -1.250000e+01,   -3.677147e+00
   54152,   -1.435312e+00,   -1.250000e+01,   -4.907893e+00
   54153,   -1.714861e+00,   -1.250000e+01,   -6.241713e+00
   54154,   -2.703929e+00,   -1.250000e+01,   -4.396111e+00
   54155,   -3.274663e+00,   -1.250000e+01,   -5.549385e+00
   54156,   -3.732203e+00,   -1.250000e+01,   -3.727667e+00
   54157,   -4.584774e+00,   -1.250000e+01,   -4.577465e+00
   54158,   -5.549409e+00,   -1.250000e+01,   -3.268691e+00
   54159,   -6.237972e+00,   -1.250000e+01,   -1.710329e+00
   54160,   -4.393650e+00,   -1.250000e+01,   -2.696244e+00
   54161,   -4.903833e+00,   -1.250000e+01,   -1.432720e+00
   54162,   -2.457461e+00,   -1.666667e+01,   -1.186902e+00
   54163,   -3.670240e+00,   -1.666667e+01,   -1.231267e+00
   54164,   -1.206319e+00,   -1.666667e+01,   -1.213176e+00
   54165,   -2.316069e+00,   -1.666667e+01,   -2.319601e+00
   54166,   -3.363025e+00,   -1.666667e+01,   -2.317041e+00
   54167,   -1.184480e+00,   -1.666667e+01,   -2.462259e+00
   54168,   -2.320438e+00,   -1.666667e+01,   -3.369858e+00
   54169,   -3.128275e+00,   -1.666667e+01,   -3.129302e+00
   54170,   -1.230692e+00,   -1.666667e+01,   -3.677147e+00
   54171,   -1.435312e+00,   -1.666667e+01,   -4.907893e+00
   54172,   -1.714861e+00,   -1.666667e+01,   -6.241713e+00
   54173,   -2.703929e+00,   -1.666667e+01,   -4.396111e+00
   54174,   -3.274663e+00,   -1.666667e+01,   -5.549385e+00
   54175,   -3.732203e+00,   -1.666667e+01,   -3.727667e+00
   54176,   -4.584774e+00,   -1.666667e+01,   -4.577465e+00
   54177,   -5.549409e+00,   -1.666667e+01,   -3.268691e+00
   54178,   -6.237972e+00,   -1.666667e+01,   -1.710329e+00
   54179,   -4.393650e+00,   -1.666667e+01,   -2.696244e+00
   54180,   -4.903833e+00,   -1.666667e+01,   -1.432720e+00
   54181,   -2.457461e+00,   -2.083333e+01,   -1.186902e+00
   54182,   -3.670240e+00,   -2.083333e+01,   -1.231267e+00
   54183,   -1.206319e+00,   -2.083333e+01,   -1.213176e+00
   54184,   -2.316069e+00,   -2.083333e+01,   -2.319601e+00
   54185,   -3.363025e+00,   -2.083333e+01,   -2.317041e+00
   54186,   -1.184480e+00,   -2.083333e+01,   -2.462259e+00
   54187,   -2.320438e+00,   -2.083333e+01,   -3.369858e+00
   54188,   -3.128275e+00,   -2.083333e+01,   -3.129302e+00
   54189,   -1.230692e+00,   -2.083333e+01,   -3.677147e+00
   54190,   -1.435312e+00,   -2.083333e+01,   -4.907893e+00
   54191,   -1.714861e+00,   -2.083333e+01,   -6.241713e+00
   54192,   -2.703929e+00,   -2.083333e+01,   -4.396111e+00
   54193,   -3.274663e+00,   -2.083333e+01,   -5.549385e+00
   54194,   -3.732203e+00,   -2.083333e+01,   -3.727667e+00
   54195,   -4.584774e+00,   -2.083333e+01,   -4.577465e+00
   54196,   -5.549409e+00,   -2.083333e+01,   -3.268691e+00
   54197,   -6.237972e+00,   -2.083333e+01,   -1.710329e+00
   54198,   -4.393650e+00,   -2.083333e+01,   -2.696244e+00
   54199,   -4.903833e+00,   -2.083333e+01,   -1.432720e+00
   54200,   -2.457461e+00,   -2.500000e+01,   -1.186902e+00
   54201,   -3.670240e+00,   -2.500000e+01,   -1.231267e+00
   54202,   -1.206319e+00,   -2.500000e+01,   -1.213176e+00
   54203,   -2.316069e+00,   -2.500000e+01,   -2.319601e+00
   54204,   -3.363025e+00,   -2.500000e+01,   -2.317041e+00
   54205,   -1.184480e+00,   -2.500000e+01,   -2.462259e+00
   54206,   -2.320438e+00,   -2.500000e+01,   -3.369858e+00
   54207,   -3.128275e+00,   -2.500000e+01,   -3.129302e+00
   54208,   -1.230692e+00,   -2.500000e+01,   -3.677147e+00
   54209,   -1.435312e+00,   -2.500000e+01,   -4.907893e+00
   54210,   -1.714861e+00,   -2.500000e+01,   -6.241713e+00
   54211,   -2.703929e+00,   -2.500000e+01,   -4.396111e+00
   54212,   -3.274663e+00,   -2.500000e+01,   -5.549385e+00
   54213,   -3.732203e+00,   -2.500000e+01,   -3.727667e+00
   54214,   -4.584774e+00,   -2.500000e+01,   -4.577465e+00
   54215,   -5.549409e+00,   -2.500000e+01,   -3.268691e+00
   54216,   -6.237972e+00,   -2.500000e+01,   -1.710329e+00
   54217,   -4.393650e+00,   -2.500000e+01,   -2.696244e+00
   54218,   -4.903833e+00,   -2.500000e+01,   -1.432720e+00
   54219,   -2.457461e+00,   -2.916667e+01,   -1.186902e+00
   54220,   -3.670240e+00,   -2.916667e+01,   -1.231267e+00
   54221,   -1.206319e+00,   -2.916667e+01,   -1.213176e+00
   54222,   -2.316069e+00,   -2.916667e+01,   -2.319601e+00
   54223,   -3.363025e+00,   -2.916667e+01,   -2.317041e+00
   54224,   -1.184480e+00,   -2.916667e+01,   -2.462259e+00
   54225,   -2.320438e+00,   -2.916667e+01,   -3.369858e+00
   54226,   -3.128275e+00,   -2.916667e+01,   -3.129302e+00
   54227,   -1.230692e+00,   -2.916667e+01,   -3.677147e+00
   54228,   -1.435312e+00,   -2.916667e+01,   -4.907893e+00
   54229,   -1.714861e+00,   -2.916667e+01,   -6.241713e+00
   54230,   -2.703929e+00,   -2.916667e+01,   -4.396111e+00
   54231,   -3.274663e+00,   -2.916667e+01,   -5.549385e+00
   54232,   -3.732203e+00,   -2.916667e+01,   -3.727667e+00
   54233,   -4.584774e+00,   -2.916667e+01,   -4.577465e+00
   54234,   -5.549409e+00,   -2.916667e+01,   -3.268691e+00
   54235,   -6.237972e+00,   -2.916667e+01,   -1.710329e+00
   54236,   -4.393650e+00,   -2.916667e+01,   -2.696244e+00
   54237,   -4.903833e+00,   -2.916667e+01,   -1.432720e+00
   54238,   -2.457461e+00,   -3.333333e+01,   -1.186902e+00
   54239,   -3.670240e+00,   -3.333333e+01,   -1.231267e+00
   54240,   -1.206319e+00,   -3.333333e+01,   -1.213176e+00
   54241,   -2.316069e+00,   -3.333333e+01,   -2.319601e+00
   54242,   -3.363025e+00,   -3.333333e+01,   -2.317041e+00
   54243,   -1.184480e+00,   -3.333333e+01,   -2.462259e+00
   54244,   -2.320438e+00,   -3.333333e+01,   -3.369858e+00
   54245,   -3.128275e+00,   -3.333333e+01,   -3.129302e+00
   54246,   -1.230692e+00,   -3.333333e+01,   -3.677147e+00
   54247,   -1.435312e+00,   -3.333333e+01,   -4.907893e+00
   54248,   -1.714861e+00,   -3.333333e+01,   -6.241713e+00
   54249,   -2.703929e+00,   -3.333333e+01,   -4.396111e+00
   54250,   -3.274663e+00,   -3.333333e+01,   -5.549385e+00
   54251,   -3.732203e+00,   -3.333333e+01,   -3.727667e+00
   54252,   -4.584774e+00,   -3.333333e+01,   -4.577465e+00
   54253,   -5.549409e+00,   -3.333333e+01,   -3.268691e+00
   54254,   -6.237972e+00,   -3.333333e+01,   -1.710329e+00
   54255,   -4.393650e+00,   -3.333333e+01,   -2.696244e+00
   54256,   -4.903833e+00,   -3.333333e+01,   -1.432720e+00
   54257,   -2.457461e+00,   -3.750000e+01,   -1.186902e+00
   54258,   -3.670240e+00,   -3.750000e+01,   -1.231267e+00
   54259,   -1.206319e+00,   -3.750000e+01,   -1.213176e+00
   54260,   -2.316069e+00,   -3.750000e+01,   -2.319601e+00
   54261,   -3.363025e+00,   -3.750000e+01,   -2.317041e+00
   54262,   -1.184480e+00,   -3.750000e+01,   -2.462259e+00
   54263,   -2.320438e+00,   -3.750000e+01,   -3.369858e+00
   54264,   -3.128275e+00,   -3.750000e+01,   -3.129302e+00
   54265,   -1.230692e+00,   -3.750000e+01,   -3.677147e+00
   54266,   -1.435312e+00,   -3.750000e+01,   -4.907893e+00
   54267,   -1.714861e+00,   -3.750000e+01,   -6.241713e+00
   54268,   -2.703929e+00,   -3.750000e+01,   -4.396111e+00
   54269,   -3.274663e+00,   -3.750000e+01,   -5.549385e+00
   54270,   -3.732203e+00,   -3.750000e+01,   -3.727667e+00
   54271,   -4.584774e+00,   -3.750000e+01,   -4.577465e+00
   54272,   -5.549409e+00,   -3.750000e+01,   -3.268691e+00
   54273,   -6.237972e+00,   -3.750000e+01,   -1.710329e+00
   54274,   -4.393650e+00,   -3.750000e+01,   -2.696244e+00
   54275,   -4.903833e+00,   -3.750000e+01,   -1.432720e+00
   54276,   -2.457461e+00,   -4.166667e+01,   -1.186902e+00
   54277,   -3.670240e+00,   -4.166667e+01,   -1.231267e+00
   54278,   -1.206319e+00,   -4.166667e+01,   -1.213176e+00
   54279,   -2.316069e+00,   -4.166667e+01,   -2.319601e+00
   54280,   -3.363025e+00,   -4.166667e+01,   -2.317041e+00
   54281,   -1.184480e+00,   -4.166667e+01,   -2.462259e+00
   54282,   -2.320438e+00,   -4.166667e+01,   -3.369858e+00
   54283,   -3.128275e+00,   -4.166667e+01,   -3.129302e+00
   54284,   -1.230692e+00,   -4.166667e+01,   -3.677147e+00
   54285,   -1.435312e+00,   -4.166667e+01,   -4.907893e+00
   54286,   -1.714861e+00,   -4.166667e+01,   -6.241713e+00
   54287,   -2.703929e+00,   -4.166667e+01,   -4.396111e+00
   54288,   -3.274663e+00,   -4.166667e+01,   -5.549385e+00
   54289,   -3.732203e+00,   -4.166667e+01,   -3.727667e+00
   54290,   -4.584774e+00,   -4.166667e+01,   -4.577465e+00
   54291,   -5.549409e+00,   -4.166667e+01,   -3.268691e+00
   54292,   -6.237972e+00,   -4.166667e+01,   -1.710329e+00
   54293,   -4.393650e+00,   -4.166667e+01,   -2.696244e+00
   54294,   -4.903833e+00,   -4.166667e+01,   -1.432720e+00
   54295,   -2.457461e+00,   -4.583333e+01,   -1.186902e+00
   54296,   -3.670240e+00,   -4.583333e+01,   -1.231267e+00
   54297,   -1.206319e+00,   -4.583333e+01,   -1.213176e+00
   54298,   -2.316069e+00,   -4.583333e+01,   -2.319601e+00
   54299,   -3.363025e+00,   -4.583333e+01,   -2.317041e+00
   54300,   -1.184480e+00,   -4.583333e+01,   -2.462259e+00
   54301,   -2.320438e+00,   -4.583333e+01,   -3.369858e+00
   54302,   -3.128275e+00,   -4.583333e+01,   -3.129302e+00
   54303,   -1.230692e+00,   -4.583333e+01,   -3.677147e+00
   54304,   -1.435312e+00,   -4.583333e+01,   -4.907893e+00
   54305,   -1.714861e+00,   -4.583333e+01,   -6.241713e+00
   54306,   -2.703929e+00,   -4.583333e+01,   -4.396111e+00
   54307,   -3.274663e+00,   -4.583333e+01,   -5.549385e+00
   54308,   -3.732203e+00,   -4.583333e+01,   -3.727667e+00
   54309,   -4.584774e+00,   -4.583333e+01,   -4.577465e+00
   54310,   -5.549409e+00,   -4.583333e+01,   -3.268691e+00
   54311,   -6.237972e+00,   -4.583333e+01,   -1.710329e+00
   54312,   -4.393650e+00,   -4.583333e+01,   -2.696244e+00
   54313,   -4.903833e+00,   -4.583333e+01,   -1.432720e+00
   54314,   -2.457461e+00,   -5.000000e+01,   -1.186902e+00
   54315,   -3.670240e+00,   -5.000000e+01,   -1.231267e+00
   54316,   -1.206319e+00,   -5.000000e+01,   -1.213176e+00
   54317,   -2.316069e+00,   -5.000000e+01,   -2.319601e+00
   54318,   -3.363025e+00,   -5.000000e+01,   -2.317041e+00
   54319,   -1.184480e+00,   -5.000000e+01,   -2.462259e+00
   54320,   -2.320438e+00,   -5.000000e+01,   -3.369858e+00
   54321,   -3.128275e+00,   -5.000000e+01,   -3.129302e+00
   54322,   -1.230692e+00,   -5.000000e+01,   -3.677147e+00
   54323,   -1.435312e+00,   -5.000000e+01,   -4.907893e+00
   54324,   -1.714861e+00,   -5.000000e+01,   -6.241713e+00
   54325,   -2.703929e+00,   -5.000000e+01,   -4.396111e+00
   54326,   -3.274663e+00,   -5.000000e+01,   -5.549385e+00
   54327,   -3.732203e+00,   -5.000000e+01,   -3.727667e+00
   54328,   -4.584774e+00,   -5.000000e+01,   -4.577465e+00
   54329,   -5.549409e+00,   -5.000000e+01,   -3.268691e+00
   54330,   -6.237972e+00,   -5.000000e+01,   -1.710329e+00
   54331,   -4.393650e+00,   -5.000000e+01,   -2.696244e+00
   54332,   -4.903833e+00,   -5.000000e+01,   -1.432720e+00
   54333,    6.666667e+00,    9.373499e-32,    0.000000e+00
   54334,    5.333333e+00,    9.373499e-32,    0.000000e+00
   54335,    4.000000e+00,    9.373499e-32,    0.000000e+00
   54336,    2.666667e+00,    9.373499e-32,    0.000000e+00
   54337,    1.333333e+00,    9.373499e-32,    0.000000e+00
   54338,    3.128914e+00,   -1.916212e-16,   -3.129411e+00
   54339,    1.229445e+00,   -2.249107e-16,   -3.673070e+00
   54340,    2.319842e+00,   -2.062338e-16,   -3.368053e+00
   54341,    3.678128e+00,   -7.549581e-17,   -1.232940e+00
   54342,    3.370213e+00,   -1.421586e-16,   -2.321627e+00
   54343,    4.579891e+00,   -2.806801e-16,   -4.583855e+00
   54344,    3.730739e+00,   -2.286843e-16,   -3.734698e+00
   54345,    3.270725e+00,   -3.398818e-16,   -5.550691e+00
   54346,    1.720767e+00,   -3.814384e-16,   -6.229361e+00
   54347,    2.699447e+00,   -2.692346e-16,   -4.396935e+00
   54348,    1.432781e+00,   -3.004297e-16,   -4.906389e+00
   54349,    1.186762e+00,   -1.505742e-16,   -2.459063e+00
   54350,    1.213196e+00,   -7.386846e-17,   -1.206364e+00
   54351,    2.320342e+00,   -1.419510e-16,   -2.318236e+00
   54352,    2.462518e+00,   -7.259151e-17,   -1.185509e+00
   54353,    4.908304e+00,   -8.794076e-17,   -1.436182e+00
   54354,    6.241499e+00,   -1.050044e-16,   -1.714852e+00
   54355,    4.396975e+00,   -1.656179e-16,   -2.704746e+00
   54356,    5.550104e+00,   -2.005114e-16,   -3.274600e+00
   54357,    6.666667e+00,    1.600000e+01,    0.000000e+00
   54358,    5.333333e+00,    1.600000e+01,    0.000000e+00
   54359,    4.000000e+00,    1.600000e+01,    0.000000e+00
   54360,    2.666667e+00,    1.600000e+01,    0.000000e+00
   54361,    1.333333e+00,    1.600000e+01,    0.000000e+00
   54362,    1.333333e+00,    1.333333e+01,    0.000000e+00
   54363,    1.333333e+00,    1.066667e+01,    0.000000e+00
   54364,    1.333333e+00,    8.000000e+00,    0.000000e+00
   54365,    1.333333e+00,    5.333333e+00,    0.000000e+00
   54366,    1.333333e+00,    2.666667e+00,    0.000000e+00
   54367,    2.666667e+00,    1.333333e+01,    0.000000e+00
   54368,    2.666667e+00,    1.066667e+01,    0.000000e+00
   54369,    2.666667e+00,    8.000000e+00,    0.000000e+00
   54370,    2.666667e+00,    5.333333e+00,    0.000000e+00
   54371,    2.666667e+00,    2.666667e+00,    0.000000e+00
   54372,    4.000000e+00,    1.333333e+01,    0.000000e+00
   54373,    4.000000e+00,    1.066667e+01,    0.000000e+00
   54374,    4.000000e+00,    8.000000e+00,    0.000000e+00
   54375,    4.000000e+00,    5.333333e+00,    0.000000e+00
   54376,    4.000000e+00,    2.666667e+00,    0.000000e+00
   54377,    5.333333e+00,    1.333333e+01,    0.000000e+00
   54378,    5.333333e+00,    1.066667e+01,    0.000000e+00
   54379,    5.333333e+00,    8.000000e+00,    0.000000e+00
   54380,    5.333333e+00,    5.333333e+00,    0.000000e+00
   54381,    5.333333e+00,    2.666667e+00,    0.000000e+00
   54382,    6.666667e+00,    1.333333e+01,    0.000000e+00
   54383,    6.666667e+00,    1.066667e+01,    0.000000e+00
   54384,    6.666667e+00,    8.000000e+00,    0.000000e+00
   54385,    6.666667e+00,    5.333333e+00,    0.000000e+00
   54386,    6.666667e+00,    2.666667e+00,    0.000000e+00
   54387,    4.579891e+00,    2.666667e+00,   -4.583855e+00
   54388,    3.270725e+00,    2.666667e+00,   -5.550691e+00
   54389,    1.720767e+00,    2.666667e+00,   -6.229361e+00
   54390,    3.730739e+00,    2.666667e+00,   -3.734698e+00
   54391,    2.699447e+00,    2.666667e+00,   -4.396935e+00
   54392,    1.432781e+00,    2.666667e+00,   -4.906389e+00
   54393,    3.128914e+00,    2.666667e+00,   -3.129411e+00
   54394,    2.319842e+00,    2.666667e+00,   -3.368053e+00
   54395,    1.229445e+00,    2.666667e+00,   -3.673070e+00
   54396,    1.186762e+00,    2.666667e+00,   -2.459063e+00
   54397,    1.213196e+00,    2.666667e+00,   -1.206364e+00
   54398,    2.320342e+00,    2.666667e+00,   -2.318236e+00
   54399,    2.462518e+00,    2.666667e+00,   -1.185509e+00
   54400,    3.370213e+00,    2.666667e+00,   -2.321627e+00
   54401,    3.678128e+00,    2.666667e+00,   -1.232940e+00
   54402,    4.908304e+00,    2.666667e+00,   -1.436182e+00
   54403,    6.241499e+00,    2.666667e+00,   -1.714852e+00
   54404,    4.396975e+00,    2.666667e+00,   -2.704746e+00
   54405,    5.550104e+00,    2.666667e+00,   -3.274600e+00
   54406,    4.579891e+00,    5.333333e+00,   -4.583855e+00
   54407,    3.270725e+00,    5.333333e+00,   -5.550691e+00
   54408,    1.720767e+00,    5.333333e+00,   -6.229361e+00
   54409,    3.730739e+00,    5.333333e+00,   -3.734698e+00
   54410,    2.699447e+00,    5.333333e+00,   -4.396935e+00
   54411,    1.432781e+00,    5.333333e+00,   -4.906389e+00
   54412,    3.128914e+00,    5.333333e+00,   -3.129411e+00
   54413,    2.319842e+00,    5.333333e+00,   -3.368053e+00
   54414,    1.229445e+00,    5.333333e+00,   -3.673070e+00
   54415,    1.186762e+00,    5.333333e+00,   -2.459063e+00
   54416,    1.213196e+00,    5.333333e+00,   -1.206364e+00
   54417,    2.320342e+00,    5.333333e+00,   -2.318236e+00
   54418,    2.462518e+00,    5.333333e+00,   -1.185509e+00
   54419,    3.370213e+00,    5.333333e+00,   -2.321627e+00
   54420,    3.678128e+00,    5.333333e+00,   -1.232940e+00
   54421,    4.908304e+00,    5.333333e+00,   -1.436182e+00
   54422,    6.241499e+00,    5.333333e+00,   -1.714852e+00
   54423,    4.396975e+00,    5.333333e+00,   -2.704746e+00
   54424,    5.550104e+00,    5.333333e+00,   -3.274600e+00
   54425,    4.579891e+00,    8.000000e+00,   -4.583855e+00
   54426,    3.270725e+00,    8.000000e+00,   -5.550691e+00
   54427,    1.720767e+00,    8.000000e+00,   -6.229361e+00
   54428,    3.730739e+00,    8.000000e+00,   -3.734698e+00
   54429,    2.699447e+00,    8.000000e+00,   -4.396935e+00
   54430,    1.432781e+00,    8.000000e+00,   -4.906389e+00
   54431,    3.128914e+00,    8.000000e+00,   -3.129411e+00
   54432,    2.319842e+00,    8.000000e+00,   -3.368053e+00
   54433,    1.229445e+00,    8.000000e+00,   -3.673070e+00
   54434,    1.186762e+00,    8.000000e+00,   -2.459063e+00
   54435,    1.213196e+00,    8.000000e+00,   -1.206364e+00
   54436,    2.320342e+00,    8.000000e+00,   -2.318236e+00
   54437,    2.462518e+00,    8.000000e+00,   -1.185509e+00
   54438,    3.370213e+00,    8.000000e+00,   -2.321627e+00
   54439,    3.678128e+00,    8.000000e+00,   -1.232940e+00
   54440,    4.908304e+00,    8.000000e+00,   -1.436182e+00
   54441,    6.241499e+00,    8.000000e+00,   -1.714852e+00
   54442,    4.396975e+00,    8.000000e+00,   -2.704746e+00
   54443,    5.550104e+00,    8.000000e+00,   -3.274600e+00
   54444,    4.579891e+00,    1.066667e+01,   -4.583855e+00
   54445,    3.270725e+00,    1.066667e+01,   -5.550691e+00
   54446,    1.720767e+00,    1.066667e+01,   -6.229361e+00
   54447,    3.730739e+00,    1.066667e+01,   -3.734698e+00
   54448,    2.699447e+00,    1.066667e+01,   -4.396935e+00
   54449,    1.432781e+00,    1.066667e+01,   -4.906389e+00
   54450,    3.128914e+00,    1.066667e+01,   -3.129411e+00
   54451,    2.319842e+00,    1.066667e+01,   -3.368053e+00
   54452,    1.229445e+00,    1.066667e+01,   -3.673070e+00
   54453,    1.186762e+00,    1.066667e+01,   -2.459063e+00
   54454,    1.213196e+00,    1.066667e+01,   -1.206364e+00
   54455,    2.320342e+00,    1.066667e+01,   -2.318236e+00
   54456,    2.462518e+00,    1.066667e+01,   -1.185509e+00
   54457,    3.370213e+00,    1.066667e+01,   -2.321627e+00
   54458,    3.678128e+00,    1.066667e+01,   -1.232940e+00
   54459,    4.908304e+00,    1.066667e+01,   -1.436182e+00
   54460,    6.241499e+00,    1.066667e+01,   -1.714852e+00
   54461,    4.396975e+00,    1.066667e+01,   -2.704746e+00
   54462,    5.550104e+00,    1.066667e+01,   -3.274600e+00
   54463,    4.579891e+00,    1.333333e+01,   -4.583855e+00
   54464,    3.270725e+00,    1.333333e+01,   -5.550691e+00
   54465,    1.720767e+00,    1.333333e+01,   -6.229361e+00
   54466,    3.730739e+00,    1.333333e+01,   -3.734698e+00
   54467,    2.699447e+00,    1.333333e+01,   -4.396935e+00
   54468,    1.432781e+00,    1.333333e+01,   -4.906389e+00
   54469,    3.128914e+00,    1.333333e+01,   -3.129411e+00
   54470,    2.319842e+00,    1.333333e+01,   -3.368053e+00
   54471,    1.229445e+00,    1.333333e+01,   -3.673070e+00
   54472,    1.186762e+00,    1.333333e+01,   -2.459063e+00
   54473,    1.213196e+00,    1.333333e+01,   -1.206364e+00
   54474,    2.320342e+00,    1.333333e+01,   -2.318236e+00
   54475,    2.462518e+00,    1.333333e+01,   -1.185509e+00
   54476,    3.370213e+00,    1.333333e+01,   -2.321627e+00
   54477,    3.678128e+00,    1.333333e+01,   -1.232940e+00
   54478,    4.908304e+00,    1.333333e+01,   -1.436182e+00
   54479,    6.241499e+00,    1.333333e+01,   -1.714852e+00
   54480,    4.396975e+00,    1.333333e+01,   -2.704746e+00
   54481,    5.550104e+00,    1.333333e+01,   -3.274600e+00
   54482,    4.579891e+00,    1.600000e+01,   -4.583855e+00
   54483,    3.270725e+00,    1.600000e+01,   -5.550691e+00
   54484,    1.720767e+00,    1.600000e+01,   -6.229361e+00
   54485,    3.730739e+00,    1.600000e+01,   -3.734698e+00
   54486,    2.699447e+00,    1.600000e+01,   -4.396935e+00
   54487,    1.432781e+00,    1.600000e+01,   -4.906389e+00
   54488,    3.128914e+00,    1.600000e+01,   -3.129411e+00
   54489,    2.319842e+00,    1.600000e+01,   -3.368053e+00
   54490,    1.229445e+00,    1.600000e+01,   -3.673070e+00
   54491,    1.186762e+00,    1.600000e+01,   -2.459063e+00
   54492,    1.213196e+00,    1.600000e+01,   -1.206364e+00
   54493,    2.320342e+00,    1.600000e+01,   -2.318236e+00
   54494,    2.462518e+00,    1.600000e+01,   -1.185509e+00
   54495,    3.370213e+00,    1.600000e+01,   -2.321627e+00
   54496,    3.678128e+00,    1.600000e+01,   -1.232940e+00
   54497,    4.908304e+00,    1.600000e+01,   -1.436182e+00
   54498,    6.241499e+00,    1.600000e+01,   -1.714852e+00
   54499,    4.396975e+00,    1.600000e+01,   -2.704746e+00
   54500,    5.550104e+00,    1.600000e+01,   -3.274600e+00
   54501,    8.000000e+00,   -5.000000e+01,    1.530808e-15
   54502,    8.000000e+00,   -4.583333e+01,    1.275674e-15
   54503,    8.000000e+00,   -4.166667e+01,    1.020539e-15
   54504,    8.000000e+00,   -3.750000e+01,    7.654042e-16
   54505,    8.000000e+00,   -3.333333e+01,    5.102695e-16
   54506,    8.000000e+00,   -2.916667e+01,    2.551347e-16
   54507,    8.000000e+00,   -2.500000e+01,    0.000000e+00
   54508,    8.000000e+00,   -2.083333e+01,   -2.551347e-16
   54509,    8.000000e+00,   -1.666667e+01,   -5.102695e-16
   54510,    8.000000e+00,   -1.250000e+01,   -7.654042e-16
   54511,    8.000000e+00,   -8.333333e+00,   -1.020539e-15
   54512,    8.000000e+00,   -4.166667e+00,   -1.275674e-15
   54513,    2.070552e+00,   -5.000000e+01,   -7.727407e+00
   54514,    4.000000e+00,   -5.000000e+01,   -6.928203e+00
   54515,    5.656854e+00,   -5.000000e+01,   -5.656854e+00
   54516,    6.928203e+00,   -5.000000e+01,   -4.000000e+00
   54517,    7.727407e+00,   -5.000000e+01,   -2.070552e+00
   54518,    2.070552e+00,   -4.583333e+01,   -7.727407e+00
   54519,    2.070552e+00,   -4.166667e+01,   -7.727407e+00
   54520,    2.070552e+00,   -3.750000e+01,   -7.727407e+00
   54521,    2.070552e+00,   -3.333333e+01,   -7.727407e+00
   54522,    2.070552e+00,   -2.916667e+01,   -7.727407e+00
   54523,    2.070552e+00,   -2.500000e+01,   -7.727407e+00
   54524,    2.070552e+00,   -2.083333e+01,   -7.727407e+00
   54525,    2.070552e+00,   -1.666667e+01,   -7.727407e+00
   54526,    2.070552e+00,   -1.250000e+01,   -7.727407e+00
   54527,    2.070552e+00,   -8.333333e+00,   -7.727407e+00
   54528,    2.070552e+00,   -4.166667e+00,   -7.727407e+00
   54529,    4.000000e+00,   -4.583333e+01,   -6.928203e+00
   54530,    4.000000e+00,   -4.166667e+01,   -6.928203e+00
   54531,    4.000000e+00,   -3.750000e+01,   -6.928203e+00
   54532,    4.000000e+00,   -3.333333e+01,   -6.928203e+00
   54533,    4.000000e+00,   -2.916667e+01,   -6.928203e+00
   54534,    4.000000e+00,   -2.500000e+01,   -6.928203e+00
   54535,    4.000000e+00,   -2.083333e+01,   -6.928203e+00
   54536,    4.000000e+00,   -1.666667e+01,   -6.928203e+00
   54537,    4.000000e+00,   -1.250000e+01,   -6.928203e+00
   54538,    4.000000e+00,   -8.333333e+00,   -6.928203e+00
   54539,    4.000000e+00,   -4.166667e+00,   -6.928203e+00
   54540,    5.656854e+00,   -4.583333e+01,   -5.656854e+00
   54541,    5.656854e+00,   -4.166667e+01,   -5.656854e+00
   54542,    5.656854e+00,   -3.750000e+01,   -5.656854e+00
   54543,    5.656854e+00,   -3.333333e+01,   -5.656854e+00
   54544,    5.656854e+00,   -2.916667e+01,   -5.656854e+00
   54545,    5.656854e+00,   -2.500000e+01,   -5.656854e+00
   54546,    5.656854e+00,   -2.083333e+01,   -5.656854e+00
   54547,    5.656854e+00,   -1.666667e+01,   -5.656854e+00
   54548,    5.656854e+00,   -1.250000e+01,   -5.656854e+00
   54549,    5.656854e+00,   -8.333333e+00,   -5.656854e+00
   54550,    5.656854e+00,   -4.166667e+00,   -5.656854e+00
   54551,    6.928203e+00,   -4.583333e+01,   -4.000000e+00
   54552,    6.928203e+00,   -4.166667e+01,   -4.000000e+00
   54553,    6.928203e+00,   -3.750000e+01,   -4.000000e+00
   54554,    6.928203e+00,   -3.333333e+01,   -4.000000e+00
   54555,    6.928203e+00,   -2.916667e+01,   -4.000000e+00
   54556,    6.928203e+00,   -2.500000e+01,   -4.000000e+00
   54557,    6.928203e+00,   -2.083333e+01,   -4.000000e+00
   54558,    6.928203e+00,   -1.666667e+01,   -4.000000e+00
   54559,    6.928203e+00,   -1.250000e+01,   -4.000000e+00
   54560,    6.928203e+00,   -8.333333e+00,   -4.000000e+00
   54561,    6.928203e+00,   -4.166667e+00,   -4.000000e+00
   54562,    7.727407e+00,   -4.583333e+01,   -2.070552e+00
   54563,    7.727407e+00,   -4.166667e+01,   -2.070552e+00
   54564,    7.727407e+00,   -3.750000e+01,   -2.070552e+00
   54565,    7.727407e+00,   -3.333333e+01,   -2.070552e+00
   54566,    7.727407e+00,   -2.916667e+01,   -2.070552e+00
   54567,    7.727407e+00,   -2.500000e+01,   -2.070552e+00
   54568,    7.727407e+00,   -2.083333e+01,   -2.070552e+00
   54569,    7.727407e+00,   -1.666667e+01,   -2.070552e+00
   54570,    7.727407e+00,   -1.250000e+01,   -2.070552e+00
   54571,    7.727407e+00,   -8.333333e+00,   -2.070552e+00
   54572,    7.727407e+00,   -4.166667e+00,   -2.070552e+00
   54573,    1.333333e+00,   -5.000000e+01,    0.000000e+00
   54574,    2.666667e+00,   -5.000000e+01,    0.000000e+00
   54575,    4.000000e+00,   -5.000000e+01,    0.000000e+00
   54576,    5.333333e+00,   -5.000000e+01,    0.000000e+00
   54577,    6.666667e+00,   -5.000000e+01,    0.000000e+00
   54578,    1.333333e+00,   -4.166667e+00,    0.000000e+00
   54579,    1.333333e+00,   -8.333333e+00,    0.000000e+00
   54580,    1.333333e+00,   -1.250000e+01,    0.000000e+00
   54581,    1.333333e+00,   -1.666667e+01,    0.000000e+00
   54582,    1.333333e+00,   -2.083333e+01,    0.000000e+00
   54583,    1.333333e+00,   -2.500000e+01,    0.000000e+00
   54584,    1.333333e+00,   -2.916667e+01,    0.000000e+00
   54585,    1.333333e+00,   -3.333333e+01,    0.000000e+00
   54586,    1.333333e+00,   -3.750000e+01,    0.000000e+00
   54587,    1.333333e+00,   -4.166667e+01,    0.000000e+00
   54588,    1.333333e+00,   -4.583333e+01,    0.000000e+00
   54589,    2.666667e+00,   -4.166667e+00,    0.000000e+00
   54590,    2.666667e+00,   -8.333333e+00,    0.000000e+00
   54591,    2.666667e+00,   -1.250000e+01,    0.000000e+00
   54592,    2.666667e+00,   -1.666667e+01,    0.000000e+00
   54593,    2.666667e+00,   -2.083333e+01,    0.000000e+00
   54594,    2.666667e+00,   -2.500000e+01,    0.000000e+00
   54595,    2.666667e+00,   -2.916667e+01,    0.000000e+00
   54596,    2.666667e+00,   -3.333333e+01,    0.000000e+00
   54597,    2.666667e+00,   -3.750000e+01,    0.000000e+00
   54598,    2.666667e+00,   -4.166667e+01,    0.000000e+00
   54599,    2.666667e+00,   -4.583333e+01,    0.000000e+00
   54600,    4.000000e+00,   -4.166667e+00,    0.000000e+00
   54601,    4.000000e+00,   -8.333333e+00,    0.000000e+00
   54602,    4.000000e+00,   -1.250000e+01,    0.000000e+00
   54603,    4.000000e+00,   -1.666667e+01,    0.000000e+00
   54604,    4.000000e+00,   -2.083333e+01,    0.000000e+00
   54605,    4.000000e+00,   -2.500000e+01,    0.000000e+00
   54606,    4.000000e+00,   -2.916667e+01,    0.000000e+00
   54607,    4.000000e+00,   -3.333333e+01,    0.000000e+00
   54608,    4.000000e+00,   -3.750000e+01,    0.000000e+00
   54609,    4.000000e+00,   -4.166667e+01,    0.000000e+00
   54610,    4.000000e+00,   -4.583333e+01,    0.000000e+00
   54611,    5.333333e+00,   -4.166667e+00,    0.000000e+00
   54612,    5.333333e+00,   -8.333333e+00,    0.000000e+00
   54613,    5.333333e+00,   -1.250000e+01,    0.000000e+00
   54614,    5.333333e+00,   -1.666667e+01,    0.000000e+00
   54615,    5.333333e+00,   -2.083333e+01,    0.000000e+00
   54616,    5.333333e+00,   -2.500000e+01,    0.000000e+00
   54617,    5.333333e+00,   -2.916667e+01,    0.000000e+00
   54618,    5.333333e+00,   -3.333333e+01,    0.000000e+00
   54619,    5.333333e+00,   -3.750000e+01,    0.000000e+00
   54620,    5.333333e+00,   -4.166667e+01,    0.000000e+00
   54621,    5.333333e+00,   -4.583333e+01,    0.000000e+00
   54622,    6.666667e+00,   -4.166667e+00,    0.000000e+00
   54623,    6.666667e+00,   -8.333333e+00,    0.000000e+00
   54624,    6.666667e+00,   -1.250000e+01,    0.000000e+00
   54625,    6.666667e+00,   -1.666667e+01,    0.000000e+00
   54626,    6.666667e+00,   -2.083333e+01,    0.000000e+00
   54627,    6.666667e+00,   -2.500000e+01,    0.000000e+00
   54628,    6.666667e+00,   -2.916667e+01,    0.000000e+00
   54629,    6.666667e+00,   -3.333333e+01,    0.000000e+00
   54630,    6.666667e+00,   -3.750000e+01,    0.000000e+00
   54631,    6.666667e+00,   -4.166667e+01,    0.000000e+00
   54632,    6.666667e+00,   -4.583333e+01,    0.000000e+00
   54633,    3.270725e+00,   -4.166667e+00,   -5.550691e+00
   54634,    4.579891e+00,   -4.166667e+00,   -4.583855e+00
   54635,    1.720767e+00,   -4.166667e+00,   -6.229361e+00
   54636,    2.699447e+00,   -4.166667e+00,   -4.396935e+00
   54637,    3.730739e+00,   -4.166667e+00,   -3.734698e+00
   54638,    1.432781e+00,   -4.166667e+00,   -4.906389e+00
   54639,    2.319842e+00,   -4.166667e+00,   -3.368053e+00
   54640,    3.128914e+00,   -4.166667e+00,   -3.129411e+00
   54641,    1.229445e+00,   -4.166667e+00,   -3.673070e+00
   54642,    1.186762e+00,   -4.166667e+00,   -2.459063e+00
   54643,    1.213196e+00,   -4.166667e+00,   -1.206364e+00
   54644,    2.320342e+00,   -4.166667e+00,   -2.318236e+00
   54645,    2.462518e+00,   -4.166667e+00,   -1.185509e+00
   54646,    3.370213e+00,   -4.166667e+00,   -2.321627e+00
   54647,    3.678128e+00,   -4.166667e+00,   -1.232940e+00
   54648,    4.908304e+00,   -4.166667e+00,   -1.436182e+00
   54649,    6.241499e+00,   -4.166667e+00,   -1.714852e+00
   54650,    4.396975e+00,   -4.166667e+00,   -2.704746e+00
   54651,    5.550104e+00,   -4.166667e+00,   -3.274600e+00
   54652,    3.270725e+00,   -8.333333e+00,   -5.550691e+00
   54653,    4.579891e+00,   -8.333333e+00,   -4.583855e+00
   54654,    1.720767e+00,   -8.333333e+00,   -6.229361e+00
   54655,    2.699447e+00,   -8.333333e+00,   -4.396935e+00
   54656,    3.730739e+00,   -8.333333e+00,   -3.734698e+00
   54657,    1.432781e+00,   -8.333333e+00,   -4.906389e+00
   54658,    2.319842e+00,   -8.333333e+00,   -3.368053e+00
   54659,    3.128914e+00,   -8.333333e+00,   -3.129411e+00
   54660,    1.229445e+00,   -8.333333e+00,   -3.673070e+00
   54661,    1.186762e+00,   -8.333333e+00,   -2.459063e+00
   54662,    1.213196e+00,   -8.333333e+00,   -1.206364e+00
   54663,    2.320342e+00,   -8.333333e+00,   -2.318236e+00
   54664,    2.462518e+00,   -8.333333e+00,   -1.185509e+00
   54665,    3.370213e+00,   -8.333333e+00,   -2.321627e+00
   54666,    3.678128e+00,   -8.333333e+00,   -1.232940e+00
   54667,    4.908304e+00,   -8.333333e+00,   -1.436182e+00
   54668,    6.241499e+00,   -8.333333e+00,   -1.714852e+00
   54669,    4.396975e+00,   -8.333333e+00,   -2.704746e+00
   54670,    5.550104e+00,   -8.333333e+00,   -3.274600e+00
   54671,    3.270725e+00,   -1.250000e+01,   -5.550691e+00
   54672,    4.579891e+00,   -1.250000e+01,   -4.583855e+00
   54673,    1.720767e+00,   -1.250000e+01,   -6.229361e+00
   54674,    2.699447e+00,   -1.250000e+01,   -4.396935e+00
   54675,    3.730739e+00,   -1.250000e+01,   -3.734698e+00
   54676,    1.432781e+00,   -1.250000e+01,   -4.906389e+00
   54677,    2.319842e+00,   -1.250000e+01,   -3.368053e+00
   54678,    3.128914e+00,   -1.250000e+01,   -3.129411e+00
   54679,    1.229445e+00,   -1.250000e+01,   -3.673070e+00
   54680,    1.186762e+00,   -1.250000e+01,   -2.459063e+00
   54681,    1.213196e+00,   -1.250000e+01,   -1.206364e+00
   54682,    2.320342e+00,   -1.250000e+01,   -2.318236e+00
   54683,    2.462518e+00,   -1.250000e+01,   -1.185509e+00
   54684,    3.370213e+00,   -1.250000e+01,   -2.321627e+00
   54685,    3.678128e+00,   -1.250000e+01,   -1.232940e+00
   54686,    4.908304e+00,   -1.250000e+01,   -1.436182e+00
   54687,    6.241499e+00,   -1.250000e+01,   -1.714852e+00
   54688,    4.396975e+00,   -1.250000e+01,   -2.704746e+00
   54689,    5.550104e+00,   -1.250000e+01,   -3.274600e+00
   54690,    3.270725e+00,   -1.666667e+01,   -5.550691e+00
   54691,    4.579891e+00,   -1.666667e+01,   -4.583855e+00
   54692,    1.720767e+00,   -1.666667e+01,   -6.229361e+00
   54693,    2.699447e+00,   -1.666667e+01,   -4.396935e+00
   54694,    3.730739e+00,   -1.666667e+01,   -3.734698e+00
   54695,    1.432781e+00,   -1.666667e+01,   -4.906389e+00
   54696,    2.319842e+00,   -1.666667e+01,   -3.368053e+00
   54697,    3.128914e+00,   -1.666667e+01,   -3.129411e+00
   54698,    1.229445e+00,   -1.666667e+01,   -3.673070e+00
   54699,    1.186762e+00,   -1.666667e+01,   -2.459063e+00
   54700,    1.213196e+00,   -1.666667e+01,   -1.206364e+00
   54701,    2.320342e+00,   -1.666667e+01,   -2.318236e+00
   54702,    2.462518e+00,   -1.666667e+01,   -1.185509e+00
   54703,    3.370213e+00,   -1.666667e+01,   -2.321627e+00
   54704,    3.678128e+00,   -1.666667e+01,   -1.232940e+00
   54705,    4.908304e+00,   -1.666667e+01,   -1.436182e+00
   54706,    6.241499e+00,   -1.666667e+01,   -1.714852e+00
   54707,    4.396975e+00,   -1.666667e+01,   -2.704746e+00
   54708,    5.550104e+00,   -1.666667e+01,   -3.274600e+00
   54709,    3.270725e+00,   -2.083333e+01,   -5.550691e+00
   54710,    4.579891e+00,   -2.083333e+01,   -4.583855e+00
   54711,    1.720767e+00,   -2.083333e+01,   -6.229361e+00
   54712,    2.699447e+00,   -2.083333e+01,   -4.396935e+00
   54713,    3.730739e+00,   -2.083333e+01,   -3.734698e+00
   54714,    1.432781e+00,   -2.083333e+01,   -4.906389e+00
   54715,    2.319842e+00,   -2.083333e+01,   -3.368053e+00
   54716,    3.128914e+00,   -2.083333e+01,   -3.129411e+00
   54717,    1.229445e+00,   -2.083333e+01,   -3.673070e+00
   54718,    1.186762e+00,   -2.083333e+01,   -2.459063e+00
   54719,    1.213196e+00,   -2.083333e+01,   -1.206364e+00
   54720,    2.320342e+00,   -2.083333e+01,   -2.318236e+00
   54721,    2.462518e+00,   -2.083333e+01,   -1.185509e+00
   54722,    3.370213e+00,   -2.083333e+01,   -2.321627e+00
   54723,    3.678128e+00,   -2.083333e+01,   -1.232940e+00
   54724,    4.908304e+00,   -2.083333e+01,   -1.436182e+00
   54725,    6.241499e+00,   -2.083333e+01,   -1.714852e+00
   54726,    4.396975e+00,   -2.083333e+01,   -2.704746e+00
   54727,    5.550104e+00,   -2.083333e+01,   -3.274600e+00
   54728,    3.270725e+00,   -2.500000e+01,   -5.550691e+00
   54729,    4.579891e+00,   -2.500000e+01,   -4.583855e+00
   54730,    1.720767e+00,   -2.500000e+01,   -6.229361e+00
   54731,    2.699447e+00,   -2.500000e+01,   -4.396935e+00
   54732,    3.730739e+00,   -2.500000e+01,   -3.734698e+00
   54733,    1.432781e+00,   -2.500000e+01,   -4.906389e+00
   54734,    2.319842e+00,   -2.500000e+01,   -3.368053e+00
   54735,    3.128914e+00,   -2.500000e+01,   -3.129411e+00
   54736,    1.229445e+00,   -2.500000e+01,   -3.673070e+00
   54737,    1.186762e+00,   -2.500000e+01,   -2.459063e+00
   54738,    1.213196e+00,   -2.500000e+01,   -1.206364e+00
   54739,    2.320342e+00,   -2.500000e+01,   -2.318236e+00
   54740,    2.462518e+00,   -2.500000e+01,   -1.185509e+00
   54741,    3.370213e+00,   -2.500000e+01,   -2.321627e+00
   54742,    3.678128e+00,   -2.500000e+01,   -1.232940e+00
   54743,    4.908304e+00,   -2.500000e+01,   -1.436182e+00
   54744,    6.241499e+00,   -2.500000e+01,   -1.714852e+00
   54745,    4.396975e+00,   -2.500000e+01,   -2.704746e+00
   54746,    5.550104e+00,   -2.500000e+01,   -3.274600e+00
   54747,    3.270725e+00,   -2.916667e+01,   -5.550691e+00
   54748,    4.579891e+00,   -2.916667e+01,   -4.583855e+00
   54749,    1.720767e+00,   -2.916667e+01,   -6.229361e+00
   54750,    2.699447e+00,   -2.916667e+01,   -4.396935e+00
   54751,    3.730739e+00,   -2.916667e+01,   -3.734698e+00
   54752,    1.432781e+00,   -2.916667e+01,   -4.906389e+00
   54753,    2.319842e+00,   -2.916667e+01,   -3.368053e+00
   54754,    3.128914e+00,   -2.916667e+01,   -3.129411e+00
   54755,    1.229445e+00,   -2.916667e+01,   -3.673070e+00
   54756,    1.186762e+00,   -2.916667e+01,   -2.459063e+00
   54757,    1.213196e+00,   -2.916667e+01,   -1.206364e+00
   54758,    2.320342e+00,   -2.916667e+01,   -2.318236e+00
   54759,    2.462518e+00,   -2.916667e+01,   -1.185509e+00
   54760,    3.370213e+00,   -2.916667e+01,   -2.321627e+00
   54761,    3.678128e+00,   -2.916667e+01,   -1.232940e+00
   54762,    4.908304e+00,   -2.916667e+01,   -1.436182e+00
   54763,    6.241499e+00,   -2.916667e+01,   -1.714852e+00
   54764,    4.396975e+00,   -2.916667e+01,   -2.704746e+00
   54765,    5.550104e+00,   -2.916667e+01,   -3.274600e+00
   54766,    3.270725e+00,   -3.333333e+01,   -5.550691e+00
   54767,    4.579891e+00,   -3.333333e+01,   -4.583855e+00
   54768,    1.720767e+00,   -3.333333e+01,   -6.229361e+00
   54769,    2.699447e+00,   -3.333333e+01,   -4.396935e+00
   54770,    3.730739e+00,   -3.333333e+01,   -3.734698e+00
   54771,    1.432781e+00,   -3.333333e+01,   -4.906389e+00
   54772,    2.319842e+00,   -3.333333e+01,   -3.368053e+00
   54773,    3.128914e+00,   -3.333333e+01,   -3.129411e+00
   54774,    1.229445e+00,   -3.333333e+01,   -3.673070e+00
   54775,    1.186762e+00,   -3.333333e+01,   -2.459063e+00
   54776,    1.213196e+00,   -3.333333e+01,   -1.206364e+00
   54777,    2.320342e+00,   -3.333333e+01,   -2.318236e+00
   54778,    2.462518e+00,   -3.333333e+01,   -1.185509e+00
   54779,    3.370213e+00,   -3.333333e+01,   -2.321627e+00
   54780,    3.678128e+00,   -3.333333e+01,   -1.232940e+00
   54781,    4.908304e+00,   -3.333333e+01,   -1.436182e+00
   54782,    6.241499e+00,   -3.333333e+01,   -1.714852e+00
   54783,    4.396975e+00,   -3.333333e+01,   -2.704746e+00
   54784,    5.550104e+00,   -3.333333e+01,   -3.274600e+00
   54785,    3.270725e+00,   -3.750000e+01,   -5.550691e+00
   54786,    4.579891e+00,   -3.750000e+01,   -4.583855e+00
   54787,    1.720767e+00,   -3.750000e+01,   -6.229361e+00
   54788,    2.699447e+00,   -3.750000e+01,   -4.396935e+00
   54789,    3.730739e+00,   -3.750000e+01,   -3.734698e+00
   54790,    1.432781e+00,   -3.750000e+01,   -4.906389e+00
   54791,    2.319842e+00,   -3.750000e+01,   -3.368053e+00
   54792,    3.128914e+00,   -3.750000e+01,   -3.129411e+00
   54793,    1.229445e+00,   -3.750000e+01,   -3.673070e+00
   54794,    1.186762e+00,   -3.750000e+01,   -2.459063e+00
   54795,    1.213196e+00,   -3.750000e+01,   -1.206364e+00
   54796,    2.320342e+00,   -3.750000e+01,   -2.318236e+00
   54797,    2.462518e+00,   -3.750000e+01,   -1.185509e+00
   54798,    3.370213e+00,   -3.750000e+01,   -2.321627e+00
   54799,    3.678128e+00,   -3.750000e+01,   -1.232940e+00
   54800,    4.908304e+00,   -3.750000e+01,   -1.436182e+00
   54801,    6.241499e+00,   -3.750000e+01,   -1.714852e+00
   54802,    4.396975e+00,   -3.750000e+01,   -2.704746e+00
   54803,    5.550104e+00,   -3.750000e+01,   -3.274600e+00
   54804,    3.270725e+00,   -4.166667e+01,   -5.550691e+00
   54805,    4.579891e+00,   -4.166667e+01,   -4.583855e+00
   54806,    1.720767e+00,   -4.166667e+01,   -6.229361e+00
   54807,    2.699447e+00,   -4.166667e+01,   -4.396935e+00
   54808,    3.730739e+00,   -4.166667e+01,   -3.734698e+00
   54809,    1.432781e+00,   -4.166667e+01,   -4.906389e+00
   54810,    2.319842e+00,   -4.166667e+01,   -3.368053e+00
   54811,    3.128914e+00,   -4.166667e+01,   -3.129411e+00
   54812,    1.229445e+00,   -4.166667e+01,   -3.673070e+00
   54813,    1.186762e+00,   -4.166667e+01,   -2.459063e+00
   54814,    1.213196e+00,   -4.166667e+01,   -1.206364e+00
   54815,    2.320342e+00,   -4.166667e+01,   -2.318236e+00
   54816,    2.462518e+00,   -4.166667e+01,   -1.185509e+00
   54817,    3.370213e+00,   -4.166667e+01,   -2.321627e+00
   54818,    3.678128e+00,   -4.166667e+01,   -1.232940e+00
   54819,    4.908304e+00,   -4.166667e+01,   -1.436182e+00
   54820,    6.241499e+00,   -4.166667e+01,   -1.714852e+00
   54821,    4.396975e+00,   -4.166667e+01,   -2.704746e+00
   54822,    5.550104e+00,   -4.166667e+01,   -3.274600e+00
   54823,    3.270725e+00,   -4.583333e+01,   -5.550691e+00
   54824,    4.579891e+00,   -4.583333e+01,   -4.583855e+00
   54825,    1.720767e+00,   -4.583333e+01,   -6.229361e+00
   54826,    2.699447e+00,   -4.583333e+01,   -4.396935e+00
   54827,    3.730739e+00,   -4.583333e+01,   -3.734698e+00
   54828,    1.432781e+00,   -4.583333e+01,   -4.906389e+00
   54829,    2.319842e+00,   -4.583333e+01,   -3.368053e+00
   54830,    3.128914e+00,   -4.583333e+01,   -3.129411e+00
   54831,    1.229445e+00,   -4.583333e+01,   -3.673070e+00
   54832,    1.186762e+00,   -4.583333e+01,   -2.459063e+00
   54833,    1.213196e+00,   -4.583333e+01,   -1.206364e+00
   54834,    2.320342e+00,   -4.583333e+01,   -2.318236e+00
   54835,    2.462518e+00,   -4.583333e+01,   -1.185509e+00
   54836,    3.370213e+00,   -4.583333e+01,   -2.321627e+00
   54837,    3.678128e+00,   -4.583333e+01,   -1.232940e+00
   54838,    4.908304e+00,   -4.583333e+01,   -1.436182e+00
   54839,    6.241499e+00,   -4.583333e+01,   -1.714852e+00
   54840,    4.396975e+00,   -4.583333e+01,   -2.704746e+00
   54841,    5.550104e+00,   -4.583333e+01,   -3.274600e+00
   54842,    3.270725e+00,   -5.000000e+01,   -5.550691e+00
   54843,    4.579891e+00,   -5.000000e+01,   -4.583855e+00
   54844,    1.720767e+00,   -5.000000e+01,   -6.229361e+00
   54845,    2.699447e+00,   -5.000000e+01,   -4.396935e+00
   54846,    3.730739e+00,   -5.000000e+01,   -3.734698e+00
   54847,    1.432781e+00,   -5.000000e+01,   -4.906389e+00
   54848,    2.319842e+00,   -5.000000e+01,   -3.368053e+00
   54849,    3.128914e+00,   -5.000000e+01,   -3.129411e+00
   54850,    1.229445e+00,   -5.000000e+01,   -3.673070e+00
   54851,    1.186762e+00,   -5.000000e+01,   -2.459063e+00
   54852,    1.213196e+00,   -5.000000e+01,   -1.206364e+00
   54853,    2.320342e+00,   -5.000000e+01,   -2.318236e+00
   54854,    2.462518e+00,   -5.000000e+01,   -1.185509e+00
   54855,    3.370213e+00,   -5.000000e+01,   -2.321627e+00
   54856,    3.678128e+00,   -5.000000e+01,   -1.232940e+00
   54857,    4.908304e+00,   -5.000000e+01,   -1.436182e+00
   54858,    6.241499e+00,   -5.000000e+01,   -1.714852e+00
   54859,    4.396975e+00,   -5.000000e+01,   -2.704746e+00
   54860,    5.550104e+00,   -5.000000e+01,   -3.274600e+00
   54861,    0.000000e+00,   -5.510911e-16,   -9.000000e+00
   54862,    0.000000e+00,   -4.898587e-16,   -8.000000e+00
   54863,    0.000000e+00,   -5.000000e+01,   -9.000000e+00
   54864,    0.000000e+00,   -4.895833e+01,   -9.000000e+00
   54865,    0.000000e+00,   -4.791667e+01,   -9.000000e+00
   54866,    0.000000e+00,   -4.687500e+01,   -9.000000e+00
   54867,    0.000000e+00,   -4.583333e+01,   -9.000000e+00
   54868,    0.000000e+00,   -4.479167e+01,   -9.000000e+00
   54869,    0.000000e+00,   -4.375000e+01,   -9.000000e+00
   54870,    0.000000e+00,   -4.270833e+01,   -9.000000e+00
   54871,    0.000000e+00,   -4.166667e+01,   -9.000000e+00
   54872,    0.000000e+00,   -4.062500e+01,   -9.000000e+00
   54873,    0.000000e+00,   -3.958333e+01,   -9.000000e+00
   54874,    0.000000e+00,   -3.854167e+01,   -9.000000e+00
   54875,    0.000000e+00,   -3.750000e+01,   -9.000000e+00
   54876,    0.000000e+00,   -3.645833e+01,   -9.000000e+00
   54877,    0.000000e+00,   -3.541667e+01,   -9.000000e+00
   54878,    0.000000e+00,   -3.437500e+01,   -9.000000e+00
   54879,    0.000000e+00,   -3.333333e+01,   -9.000000e+00
   54880,    0.000000e+00,   -3.229167e+01,   -9.000000e+00
   54881,    0.000000e+00,   -3.125000e+01,   -9.000000e+00
   54882,    0.000000e+00,   -3.020833e+01,   -9.000000e+00
   54883,    0.000000e+00,   -2.916667e+01,   -9.000000e+00
   54884,    0.000000e+00,   -2.812500e+01,   -9.000000e+00
   54885,    0.000000e+00,   -2.708333e+01,   -9.000000e+00
   54886,    0.000000e+00,   -2.604167e+01,   -9.000000e+00
   54887,    0.000000e+00,   -2.500000e+01,   -9.000000e+00
   54888,    0.000000e+00,   -2.395833e+01,   -9.000000e+00
   54889,    0.000000e+00,   -2.291667e+01,   -9.000000e+00
   54890,    0.000000e+00,   -2.187500e+01,   -9.000000e+00
   54891,    0.000000e+00,   -2.083333e+01,   -9.000000e+00
   54892,    0.000000e+00,   -1.979167e+01,   -9.000000e+00
   54893,    0.000000e+00,   -1.875000e+01,   -9.000000e+00
   54894,    0.000000e+00,   -1.770833e+01,   -9.000000e+00
   54895,    0.000000e+00,   -1.666667e+01,   -9.000000e+00
   54896,    0.000000e+00,   -1.562500e+01,   -9.000000e+00
   54897,    0.000000e+00,   -1.458333e+01,   -9.000000e+00
   54898,    0.000000e+00,   -1.354167e+01,   -9.000000e+00
   54899,    0.000000e+00,   -1.250000e+01,   -9.000000e+00
   54900,    0.000000e+00,   -1.145833e+01,   -9.000000e+00
   54901,    0.000000e+00,   -1.041667e+01,   -9.000000e+00
   54902,    0.000000e+00,   -9.375000e+00,   -9.000000e+00
   54903,    0.000000e+00,   -8.333333e+00,   -9.000000e+00
   54904,    0.000000e+00,   -7.291667e+00,   -9.000000e+00
   54905,    0.000000e+00,   -6.250000e+00,   -9.000000e+00
   54906,    0.000000e+00,   -5.208333e+00,   -9.000000e+00
   54907,    0.000000e+00,   -4.166667e+00,   -9.000000e+00
   54908,    0.000000e+00,   -3.125000e+00,   -9.000000e+00
   54909,    0.000000e+00,   -2.083333e+00,   -9.000000e+00
   54910,    0.000000e+00,   -1.041667e+00,   -9.000000e+00
   54911,    0.000000e+00,   -5.000000e+01,   -8.000000e+00
   54912,    0.000000e+00,   -1.041667e+00,   -8.000000e+00
   54913,    0.000000e+00,   -2.083333e+00,   -8.000000e+00
   54914,    0.000000e+00,   -3.125000e+00,   -8.000000e+00
   54915,    0.000000e+00,   -4.166667e+00,   -8.000000e+00
   54916,    0.000000e+00,   -5.208333e+00,   -8.000000e+00
   54917,    0.000000e+00,   -6.250000e+00,   -8.000000e+00
   54918,    0.000000e+00,   -7.291667e+00,   -8.000000e+00
   54919,    0.000000e+00,   -8.333333e+00,   -8.000000e+00
   54920,    0.000000e+00,   -9.375000e+00,   -8.000000e+00
   54921,    0.000000e+00,   -1.041667e+01,   -8.000000e+00
   54922,    0.000000e+00,   -1.145833e+01,   -8.000000e+00
   54923,    0.000000e+00,   -1.250000e+01,   -8.000000e+00
   54924,    0.000000e+00,   -1.354167e+01,   -8.000000e+00
   54925,    0.000000e+00,   -1.458333e+01,   -8.000000e+00
   54926,    0.000000e+00,   -1.562500e+01,   -8.000000e+00
   54927,    0.000000e+00,   -1.666667e+01,   -8.000000e+00
   54928,    0.000000e+00,   -1.770833e+01,   -8.000000e+00
   54929,    0.000000e+00,   -1.875000e+01,   -8.000000e+00
   54930,    0.000000e+00,   -1.979167e+01,   -8.000000e+00
   54931,    0.000000e+00,   -2.083333e+01,   -8.000000e+00
   54932,    0.000000e+00,   -2.187500e+01,   -8.000000e+00
   54933,    0.000000e+00,   -2.291667e+01,   -8.000000e+00
   54934,    0.000000e+00,   -2.395833e+01,   -8.000000e+00
   54935,    0.000000e+00,   -2.500000e+01,   -8.000000e+00
   54936,    0.000000e+00,   -2.604167e+01,   -8.000000e+00
   54937,    0.000000e+00,   -2.708333e+01,   -8.000000e+00
   54938,    0.000000e+00,   -2.812500e+01,   -8.000000e+00
   54939,    0.000000e+00,   -2.916667e+01,   -8.000000e+00
   54940,    0.000000e+00,   -3.020833e+01,   -8.000000e+00
   54941,    0.000000e+00,   -3.125000e+01,   -8.000000e+00
   54942,    0.000000e+00,   -3.229167e+01,   -8.000000e+00
   54943,    0.000000e+00,   -3.333333e+01,   -8.000000e+00
   54944,    0.000000e+00,   -3.437500e+01,   -8.000000e+00
   54945,    0.000000e+00,   -3.541667e+01,   -8.000000e+00
   54946,    0.000000e+00,   -3.645833e+01,   -8.000000e+00
   54947,    0.000000e+00,   -3.750000e+01,   -8.000000e+00
   54948,    0.000000e+00,   -3.854167e+01,   -8.000000e+00
   54949,    0.000000e+00,   -3.958333e+01,   -8.000000e+00
   54950,    0.000000e+00,   -4.062500e+01,   -8.000000e+00
   54951,    0.000000e+00,   -4.166667e+01,   -8.000000e+00
   54952,    0.000000e+00,   -4.270833e+01,   -8.000000e+00
   54953,    0.000000e+00,   -4.375000e+01,   -8.000000e+00
   54954,    0.000000e+00,   -4.479167e+01,   -8.000000e+00
   54955,    0.000000e+00,   -4.583333e+01,   -8.000000e+00
   54956,    0.000000e+00,   -4.687500e+01,   -8.000000e+00
   54957,    0.000000e+00,   -4.791667e+01,   -8.000000e+00
   54958,    0.000000e+00,   -4.895833e+01,   -8.000000e+00
   54959,   -8.000000e+00,    9.373499e-32,    0.000000e+00
   54960,   -7.727407e+00,   -1.267848e-16,   -2.070552e+00
   54961,   -6.928203e+00,   -2.449294e-16,   -4.000000e+00
   54962,   -5.656854e+00,   -3.463824e-16,   -5.656854e+00
   54963,   -4.000000e+00,   -4.242301e-16,   -6.928203e+00
   54964,   -2.070552e+00,   -4.731672e-16,   -7.727407e+00
   54965,   -8.000000e+00,   -5.000000e+01,    0.000000e+00
   54966,   -8.000000e+00,   -4.895833e+01,    1.467025e-15
   54967,   -8.000000e+00,   -4.791667e+01,    1.403241e-15
   54968,   -8.000000e+00,   -4.687500e+01,    1.339457e-15
   54969,   -8.000000e+00,   -4.583333e+01,    1.275674e-15
   54970,   -8.000000e+00,   -4.479167e+01,    1.211890e-15
   54971,   -8.000000e+00,   -4.375000e+01,    1.148106e-15
   54972,   -8.000000e+00,   -4.270833e+01,    1.084323e-15
   54973,   -8.000000e+00,   -4.166667e+01,    1.020539e-15
   54974,   -8.000000e+00,   -4.062500e+01,    9.567553e-16
   54975,   -8.000000e+00,   -3.958333e+01,    8.929716e-16
   54976,   -8.000000e+00,   -3.854167e+01,    8.291879e-16
   54977,   -8.000000e+00,   -3.750000e+01,    7.654042e-16
   54978,   -8.000000e+00,   -3.645833e+01,    7.016206e-16
   54979,   -8.000000e+00,   -3.541667e+01,    6.378369e-16
   54980,   -8.000000e+00,   -3.437500e+01,    5.740532e-16
   54981,   -8.000000e+00,   -3.333333e+01,    5.102695e-16
   54982,   -8.000000e+00,   -3.229167e+01,    4.464858e-16
   54983,   -8.000000e+00,   -3.125000e+01,    3.827021e-16
   54984,   -8.000000e+00,   -3.020833e+01,    3.189184e-16
   54985,   -8.000000e+00,   -2.916667e+01,    2.551347e-16
   54986,   -8.000000e+00,   -2.812500e+01,    1.913511e-16
   54987,   -8.000000e+00,   -2.708333e+01,    1.275674e-16
   54988,   -8.000000e+00,   -2.604167e+01,    6.378369e-17
   54989,   -8.000000e+00,   -2.500000e+01,    0.000000e+00
   54990,   -8.000000e+00,   -2.395833e+01,   -6.378369e-17
   54991,   -8.000000e+00,   -2.291667e+01,   -1.275674e-16
   54992,   -8.000000e+00,   -2.187500e+01,   -1.913511e-16
   54993,   -8.000000e+00,   -2.083333e+01,   -2.551347e-16
   54994,   -8.000000e+00,   -1.979167e+01,   -3.189184e-16
   54995,   -8.000000e+00,   -1.875000e+01,   -3.827021e-16
   54996,   -8.000000e+00,   -1.770833e+01,   -4.464858e-16
   54997,   -8.000000e+00,   -1.666667e+01,   -5.102695e-16
   54998,   -8.000000e+00,   -1.562500e+01,   -5.740532e-16
   54999,   -8.000000e+00,   -1.458333e+01,   -6.378369e-16
   55000,   -8.000000e+00,   -1.354167e+01,   -7.016206e-16
   55001,   -8.000000e+00,   -1.250000e+01,   -7.654042e-16
   55002,   -8.000000e+00,   -1.145833e+01,   -8.291879e-16
   55003,   -8.000000e+00,   -1.041667e+01,   -8.929716e-16
   55004,   -8.000000e+00,   -9.375000e+00,   -9.567553e-16
   55005,   -8.000000e+00,   -8.333333e+00,   -1.020539e-15
   55006,   -8.000000e+00,   -7.291667e+00,   -1.084323e-15
   55007,   -8.000000e+00,   -6.250000e+00,   -1.148106e-15
   55008,   -8.000000e+00,   -5.208333e+00,   -1.211890e-15
   55009,   -8.000000e+00,   -4.166667e+00,   -1.275674e-15
   55010,   -8.000000e+00,   -3.125000e+00,   -1.339457e-15
   55011,   -8.000000e+00,   -2.083333e+00,   -1.403241e-15
   55012,   -8.000000e+00,   -1.041667e+00,   -1.467025e-15
   55013,   -2.070552e+00,   -5.000000e+01,   -7.727407e+00
   55014,   -4.000000e+00,   -5.000000e+01,   -6.928203e+00
   55015,   -5.656854e+00,   -5.000000e+01,   -5.656854e+00
   55016,   -6.928203e+00,   -5.000000e+01,   -4.000000e+00
   55017,   -7.727407e+00,   -5.000000e+01,   -2.070552e+00
   55018,   -2.070552e+00,   -4.895833e+01,   -7.727407e+00
   55019,   -2.070552e+00,   -4.791667e+01,   -7.727407e+00
   55020,   -2.070552e+00,   -4.687500e+01,   -7.727407e+00
   55021,   -2.070552e+00,   -4.583333e+01,   -7.727407e+00
   55022,   -2.070552e+00,   -4.479167e+01,   -7.727407e+00
   55023,   -2.070552e+00,   -4.375000e+01,   -7.727407e+00
   55024,   -2.070552e+00,   -4.270833e+01,   -7.727407e+00
   55025,   -2.070552e+00,   -4.166667e+01,   -7.727407e+00
   55026,   -2.070552e+00,   -4.062500e+01,   -7.727407e+00
   55027,   -2.070552e+00,   -3.958333e+01,   -7.727407e+00
   55028,   -2.070552e+00,   -3.854167e+01,   -7.727407e+00
   55029,   -2.070552e+00,   -3.750000e+01,   -7.727407e+00
   55030,   -2.070552e+00,   -3.645833e+01,   -7.727407e+00
   55031,   -2.070552e+00,   -3.541667e+01,   -7.727407e+00
   55032,   -2.070552e+00,   -3.437500e+01,   -7.727407e+00
   55033,   -2.070552e+00,   -3.333333e+01,   -7.727407e+00
   55034,   -2.070552e+00,   -3.229167e+01,   -7.727407e+00
   55035,   -2.070552e+00,   -3.125000e+01,   -7.727407e+00
   55036,   -2.070552e+00,   -3.020833e+01,   -7.727407e+00
   55037,   -2.070552e+00,   -2.916667e+01,   -7.727407e+00
   55038,   -2.070552e+00,   -2.812500e+01,   -7.727407e+00
   55039,   -2.070552e+00,   -2.708333e+01,   -7.727407e+00
   55040,   -2.070552e+00,   -2.604167e+01,   -7.727407e+00
   55041,   -2.070552e+00,   -2.500000e+01,   -7.727407e+00
   55042,   -2.070552e+00,   -2.395833e+01,   -7.727407e+00
   55043,   -2.070552e+00,   -2.291667e+01,   -7.727407e+00
   55044,   -2.070552e+00,   -2.187500e+01,   -7.727407e+00
   55045,   -2.070552e+00,   -2.083333e+01,   -7.727407e+00
   55046,   -2.070552e+00,   -1.979167e+01,   -7.727407e+00
   55047,   -2.070552e+00,   -1.875000e+01,   -7.727407e+00
   55048,   -2.070552e+00,   -1.770833e+01,   -7.727407e+00
   55049,   -2.070552e+00,   -1.666667e+01,   -7.727407e+00
   55050,   -2.070552e+00,   -1.562500e+01,   -7.727407e+00
   55051,   -2.070552e+00,   -1.458333e+01,   -7.727407e+00
   55052,   -2.070552e+00,   -1.354167e+01,   -7.727407e+00
   55053,   -2.070552e+00,   -1.250000e+01,   -7.727407e+00
   55054,   -2.070552e+00,   -1.145833e+01,   -7.727407e+00
   55055,   -2.070552e+00,   -1.041667e+01,   -7.727407e+00
   55056,   -2.070552e+00,   -9.375000e+00,   -7.727407e+00
   55057,   -2.070552e+00,   -8.333333e+00,   -7.727407e+00
   55058,   -2.070552e+00,   -7.291667e+00,   -7.727407e+00
   55059,   -2.070552e+00,   -6.250000e+00,   -7.727407e+00
   55060,   -2.070552e+00,   -5.208333e+00,   -7.727407e+00
   55061,   -2.070552e+00,   -4.166667e+00,   -7.727407e+00
   55062,   -2.070552e+00,   -3.125000e+00,   -7.727407e+00
   55063,   -2.070552e+00,   -2.083333e+00,   -7.727407e+00
   55064,   -2.070552e+00,   -1.041667e+00,   -7.727407e+00
   55065,   -4.000000e+00,   -4.895833e+01,   -6.928203e+00
   55066,   -4.000000e+00,   -4.791667e+01,   -6.928203e+00
   55067,   -4.000000e+00,   -4.687500e+01,   -6.928203e+00
   55068,   -4.000000e+00,   -4.583333e+01,   -6.928203e+00
   55069,   -4.000000e+00,   -4.479167e+01,   -6.928203e+00
   55070,   -4.000000e+00,   -4.375000e+01,   -6.928203e+00
   55071,   -4.000000e+00,   -4.270833e+01,   -6.928203e+00
   55072,   -4.000000e+00,   -4.166667e+01,   -6.928203e+00
   55073,   -4.000000e+00,   -4.062500e+01,   -6.928203e+00
   55074,   -4.000000e+00,   -3.958333e+01,   -6.928203e+00
   55075,   -4.000000e+00,   -3.854167e+01,   -6.928203e+00
   55076,   -4.000000e+00,   -3.750000e+01,   -6.928203e+00
   55077,   -4.000000e+00,   -3.645833e+01,   -6.928203e+00
   55078,   -4.000000e+00,   -3.541667e+01,   -6.928203e+00
   55079,   -4.000000e+00,   -3.437500e+01,   -6.928203e+00
   55080,   -4.000000e+00,   -3.333333e+01,   -6.928203e+00
   55081,   -4.000000e+00,   -3.229167e+01,   -6.928203e+00
   55082,   -4.000000e+00,   -3.125000e+01,   -6.928203e+00
   55083,   -4.000000e+00,   -3.020833e+01,   -6.928203e+00
   55084,   -4.000000e+00,   -2.916667e+01,   -6.928203e+00
   55085,   -4.000000e+00,   -2.812500e+01,   -6.928203e+00
   55086,   -4.000000e+00,   -2.708333e+01,   -6.928203e+00
   55087,   -4.000000e+00,   -2.604167e+01,   -6.928203e+00
   55088,   -4.000000e+00,   -2.500000e+01,   -6.928203e+00
   55089,   -4.000000e+00,   -2.395833e+01,   -6.928203e+00
   55090,   -4.000000e+00,   -2.291667e+01,   -6.928203e+00
   55091,   -4.000000e+00,   -2.187500e+01,   -6.928203e+00
   55092,   -4.000000e+00,   -2.083333e+01,   -6.928203e+00
   55093,   -4.000000e+00,   -1.979167e+01,   -6.928203e+00
   55094,   -4.000000e+00,   -1.875000e+01,   -6.928203e+00
   55095,   -4.000000e+00,   -1.770833e+01,   -6.928203e+00
   55096,   -4.000000e+00,   -1.666667e+01,   -6.928203e+00
   55097,   -4.000000e+00,   -1.562500e+01,   -6.928203e+00
   55098,   -4.000000e+00,   -1.458333e+01,   -6.928203e+00
   55099,   -4.000000e+00,   -1.354167e+01,   -6.928203e+00
   55100,   -4.000000e+00,   -1.250000e+01,   -6.928203e+00
   55101,   -4.000000e+00,   -1.145833e+01,   -6.928203e+00
   55102,   -4.000000e+00,   -1.041667e+01,   -6.928203e+00
   55103,   -4.000000e+00,   -9.375000e+00,   -6.928203e+00
   55104,   -4.000000e+00,   -8.333333e+00,   -6.928203e+00
   55105,   -4.000000e+00,   -7.291667e+00,   -6.928203e+00
   55106,   -4.000000e+00,   -6.250000e+00,   -6.928203e+00
   55107,   -4.000000e+00,   -5.208333e+00,   -6.928203e+00
   55108,   -4.000000e+00,   -4.166667e+00,   -6.928203e+00
   55109,   -4.000000e+00,   -3.125000e+00,   -6.928203e+00
   55110,   -4.000000e+00,   -2.083333e+00,   -6.928203e+00
   55111,   -4.000000e+00,   -1.041667e+00,   -6.928203e+00
   55112,   -5.656854e+00,   -4.895833e+01,   -5.656854e+00
   55113,   -5.656854e+00,   -4.791667e+01,   -5.656854e+00
   55114,   -5.656854e+00,   -4.687500e+01,   -5.656854e+00
   55115,   -5.656854e+00,   -4.583333e+01,   -5.656854e+00
   55116,   -5.656854e+00,   -4.479167e+01,   -5.656854e+00
   55117,   -5.656854e+00,   -4.375000e+01,   -5.656854e+00
   55118,   -5.656854e+00,   -4.270833e+01,   -5.656854e+00
   55119,   -5.656854e+00,   -4.166667e+01,   -5.656854e+00
   55120,   -5.656854e+00,   -4.062500e+01,   -5.656854e+00
   55121,   -5.656854e+00,   -3.958333e+01,   -5.656854e+00
   55122,   -5.656854e+00,   -3.854167e+01,   -5.656854e+00
   55123,   -5.656854e+00,   -3.750000e+01,   -5.656854e+00
   55124,   -5.656854e+00,   -3.645833e+01,   -5.656854e+00
   55125,   -5.656854e+00,   -3.541667e+01,   -5.656854e+00
   55126,   -5.656854e+00,   -3.437500e+01,   -5.656854e+00
   55127,   -5.656854e+00,   -3.333333e+01,   -5.656854e+00
   55128,   -5.656854e+00,   -3.229167e+01,   -5.656854e+00
   55129,   -5.656854e+00,   -3.125000e+01,   -5.656854e+00
   55130,   -5.656854e+00,   -3.020833e+01,   -5.656854e+00
   55131,   -5.656854e+00,   -2.916667e+01,   -5.656854e+00
   55132,   -5.656854e+00,   -2.812500e+01,   -5.656854e+00
   55133,   -5.656854e+00,   -2.708333e+01,   -5.656854e+00
   55134,   -5.656854e+00,   -2.604167e+01,   -5.656854e+00
   55135,   -5.656854e+00,   -2.500000e+01,   -5.656854e+00
   55136,   -5.656854e+00,   -2.395833e+01,   -5.656854e+00
   55137,   -5.656854e+00,   -2.291667e+01,   -5.656854e+00
   55138,   -5.656854e+00,   -2.187500e+01,   -5.656854e+00
   55139,   -5.656854e+00,   -2.083333e+01,   -5.656854e+00
   55140,   -5.656854e+00,   -1.979167e+01,   -5.656854e+00
   55141,   -5.656854e+00,   -1.875000e+01,   -5.656854e+00
   55142,   -5.656854e+00,   -1.770833e+01,   -5.656854e+00
   55143,   -5.656854e+00,   -1.666667e+01,   -5.656854e+00
   55144,   -5.656854e+00,   -1.562500e+01,   -5.656854e+00
   55145,   -5.656854e+00,   -1.458333e+01,   -5.656854e+00
   55146,   -5.656854e+00,   -1.354167e+01,   -5.656854e+00
   55147,   -5.656854e+00,   -1.250000e+01,   -5.656854e+00
   55148,   -5.656854e+00,   -1.145833e+01,   -5.656854e+00
   55149,   -5.656854e+00,   -1.041667e+01,   -5.656854e+00
   55150,   -5.656854e+00,   -9.375000e+00,   -5.656854e+00
   55151,   -5.656854e+00,   -8.333333e+00,   -5.656854e+00
   55152,   -5.656854e+00,   -7.291667e+00,   -5.656854e+00
   55153,   -5.656854e+00,   -6.250000e+00,   -5.656854e+00
   55154,   -5.656854e+00,   -5.208333e+00,   -5.656854e+00
   55155,   -5.656854e+00,   -4.166667e+00,   -5.656854e+00
   55156,   -5.656854e+00,   -3.125000e+00,   -5.656854e+00
   55157,   -5.656854e+00,   -2.083333e+00,   -5.656854e+00
   55158,   -5.656854e+00,   -1.041667e+00,   -5.656854e+00
   55159,   -6.928203e+00,   -4.895833e+01,   -4.000000e+00
   55160,   -6.928203e+00,   -4.791667e+01,   -4.000000e+00
   55161,   -6.928203e+00,   -4.687500e+01,   -4.000000e+00
   55162,   -6.928203e+00,   -4.583333e+01,   -4.000000e+00
   55163,   -6.928203e+00,   -4.479167e+01,   -4.000000e+00
   55164,   -6.928203e+00,   -4.375000e+01,   -4.000000e+00
   55165,   -6.928203e+00,   -4.270833e+01,   -4.000000e+00
   55166,   -6.928203e+00,   -4.166667e+01,   -4.000000e+00
   55167,   -6.928203e+00,   -4.062500e+01,   -4.000000e+00
   55168,   -6.928203e+00,   -3.958333e+01,   -4.000000e+00
   55169,   -6.928203e+00,   -3.854167e+01,   -4.000000e+00
   55170,   -6.928203e+00,   -3.750000e+01,   -4.000000e+00
   55171,   -6.928203e+00,   -3.645833e+01,   -4.000000e+00
   55172,   -6.928203e+00,   -3.541667e+01,   -4.000000e+00
   55173,   -6.928203e+00,   -3.437500e+01,   -4.000000e+00
   55174,   -6.928203e+00,   -3.333333e+01,   -4.000000e+00
   55175,   -6.928203e+00,   -3.229167e+01,   -4.000000e+00
   55176,   -6.928203e+00,   -3.125000e+01,   -4.000000e+00
   55177,   -6.928203e+00,   -3.020833e+01,   -4.000000e+00
   55178,   -6.928203e+00,   -2.916667e+01,   -4.000000e+00
   55179,   -6.928203e+00,   -2.812500e+01,   -4.000000e+00
   55180,   -6.928203e+00,   -2.708333e+01,   -4.000000e+00
   55181,   -6.928203e+00,   -2.604167e+01,   -4.000000e+00
   55182,   -6.928203e+00,   -2.500000e+01,   -4.000000e+00
   55183,   -6.928203e+00,   -2.395833e+01,   -4.000000e+00
   55184,   -6.928203e+00,   -2.291667e+01,   -4.000000e+00
   55185,   -6.928203e+00,   -2.187500e+01,   -4.000000e+00
   55186,   -6.928203e+00,   -2.083333e+01,   -4.000000e+00
   55187,   -6.928203e+00,   -1.979167e+01,   -4.000000e+00
   55188,   -6.928203e+00,   -1.875000e+01,   -4.000000e+00
   55189,   -6.928203e+00,   -1.770833e+01,   -4.000000e+00
   55190,   -6.928203e+00,   -1.666667e+01,   -4.000000e+00
   55191,   -6.928203e+00,   -1.562500e+01,   -4.000000e+00
   55192,   -6.928203e+00,   -1.458333e+01,   -4.000000e+00
   55193,   -6.928203e+00,   -1.354167e+01,   -4.000000e+00
   55194,   -6.928203e+00,   -1.250000e+01,   -4.000000e+00
   55195,   -6.928203e+00,   -1.145833e+01,   -4.000000e+00
   55196,   -6.928203e+00,   -1.041667e+01,   -4.000000e+00
   55197,   -6.928203e+00,   -9.375000e+00,   -4.000000e+00
   55198,   -6.928203e+00,   -8.333333e+00,   -4.000000e+00
   55199,   -6.928203e+00,   -7.291667e+00,   -4.000000e+00
   55200,   -6.928203e+00,   -6.250000e+00,   -4.000000e+00
   55201,   -6.928203e+00,   -5.208333e+00,   -4.000000e+00
   55202,   -6.928203e+00,   -4.166667e+00,   -4.000000e+00
   55203,   -6.928203e+00,   -3.125000e+00,   -4.000000e+00
   55204,   -6.928203e+00,   -2.083333e+00,   -4.000000e+00
   55205,   -6.928203e+00,   -1.041667e+00,   -4.000000e+00
   55206,   -7.727407e+00,   -4.895833e+01,   -2.070552e+00
   55207,   -7.727407e+00,   -4.791667e+01,   -2.070552e+00
   55208,   -7.727407e+00,   -4.687500e+01,   -2.070552e+00
   55209,   -7.727407e+00,   -4.583333e+01,   -2.070552e+00
   55210,   -7.727407e+00,   -4.479167e+01,   -2.070552e+00
   55211,   -7.727407e+00,   -4.375000e+01,   -2.070552e+00
   55212,   -7.727407e+00,   -4.270833e+01,   -2.070552e+00
   55213,   -7.727407e+00,   -4.166667e+01,   -2.070552e+00
   55214,   -7.727407e+00,   -4.062500e+01,   -2.070552e+00
   55215,   -7.727407e+00,   -3.958333e+01,   -2.070552e+00
   55216,   -7.727407e+00,   -3.854167e+01,   -2.070552e+00
   55217,   -7.727407e+00,   -3.750000e+01,   -2.070552e+00
   55218,   -7.727407e+00,   -3.645833e+01,   -2.070552e+00
   55219,   -7.727407e+00,   -3.541667e+01,   -2.070552e+00
   55220,   -7.727407e+00,   -3.437500e+01,   -2.070552e+00
   55221,   -7.727407e+00,   -3.333333e+01,   -2.070552e+00
   55222,   -7.727407e+00,   -3.229167e+01,   -2.070552e+00
   55223,   -7.727407e+00,   -3.125000e+01,   -2.070552e+00
   55224,   -7.727407e+00,   -3.020833e+01,   -2.070552e+00
   55225,   -7.727407e+00,   -2.916667e+01,   -2.070552e+00
   55226,   -7.727407e+00,   -2.812500e+01,   -2.070552e+00
   55227,   -7.727407e+00,   -2.708333e+01,   -2.070552e+00
   55228,   -7.727407e+00,   -2.604167e+01,   -2.070552e+00
   55229,   -7.727407e+00,   -2.500000e+01,   -2.070552e+00
   55230,   -7.727407e+00,   -2.395833e+01,   -2.070552e+00
   55231,   -7.727407e+00,   -2.291667e+01,   -2.070552e+00
   55232,   -7.727407e+00,   -2.187500e+01,   -2.070552e+00
   55233,   -7.727407e+00,   -2.083333e+01,   -2.070552e+00
   55234,   -7.727407e+00,   -1.979167e+01,   -2.070552e+00
   55235,   -7.727407e+00,   -1.875000e+01,   -2.070552e+00
   55236,   -7.727407e+00,   -1.770833e+01,   -2.070552e+00
   55237,   -7.727407e+00,   -1.666667e+01,   -2.070552e+00
   55238,   -7.727407e+00,   -1.562500e+01,   -2.070552e+00
   55239,   -7.727407e+00,   -1.458333e+01,   -2.070552e+00
   55240,   -7.727407e+00,   -1.354167e+01,   -2.070552e+00
   55241,   -7.727407e+00,   -1.250000e+01,   -2.070552e+00
   55242,   -7.727407e+00,   -1.145833e+01,   -2.070552e+00
   55243,   -7.727407e+00,   -1.041667e+01,   -2.070552e+00
   55244,   -7.727407e+00,   -9.375000e+00,   -2.070552e+00
   55245,   -7.727407e+00,   -8.333333e+00,   -2.070552e+00
   55246,   -7.727407e+00,   -7.291667e+00,   -2.070552e+00
   55247,   -7.727407e+00,   -6.250000e+00,   -2.070552e+00
   55248,   -7.727407e+00,   -5.208333e+00,   -2.070552e+00
   55249,   -7.727407e+00,   -4.166667e+00,   -2.070552e+00
   55250,   -7.727407e+00,   -3.125000e+00,   -2.070552e+00
   55251,   -7.727407e+00,   -2.083333e+00,   -2.070552e+00
   55252,   -7.727407e+00,   -1.041667e+00,   -2.070552e+00
   55253,   -9.000000e+00,    9.373499e-32,    0.000000e+00
   55254,   -2.329371e+00,   -5.323131e-16,   -8.693332e+00
   55255,   -4.500000e+00,   -4.772589e-16,   -7.794229e+00
   55256,   -6.363961e+00,   -3.896802e-16,   -6.363961e+00
   55257,   -7.794229e+00,   -2.755455e-16,   -4.500000e+00
   55258,   -8.693332e+00,   -1.426329e-16,   -2.329371e+00
   55259,   -9.000000e+00,   -5.000000e+01,    0.000000e+00
   55260,   -9.000000e+00,   -1.041667e+00,   -1.467025e-15
   55261,   -9.000000e+00,   -2.083333e+00,   -1.403241e-15
   55262,   -9.000000e+00,   -3.125000e+00,   -1.339457e-15
   55263,   -9.000000e+00,   -4.166667e+00,   -1.275674e-15
   55264,   -9.000000e+00,   -5.208333e+00,   -1.211890e-15
   55265,   -9.000000e+00,   -6.250000e+00,   -1.148106e-15
   55266,   -9.000000e+00,   -7.291667e+00,   -1.084323e-15
   55267,   -9.000000e+00,   -8.333333e+00,   -1.020539e-15
   55268,   -9.000000e+00,   -9.375000e+00,   -9.567553e-16
   55269,   -9.000000e+00,   -1.041667e+01,   -8.929716e-16
   55270,   -9.000000e+00,   -1.145833e+01,   -8.291879e-16
   55271,   -9.000000e+00,   -1.250000e+01,   -7.654042e-16
   55272,   -9.000000e+00,   -1.354167e+01,   -7.016206e-16
   55273,   -9.000000e+00,   -1.458333e+01,   -6.378369e-16
   55274,   -9.000000e+00,   -1.562500e+01,   -5.740532e-16
   55275,   -9.000000e+00,   -1.666667e+01,   -5.102695e-16
   55276,   -9.000000e+00,   -1.770833e+01,   -4.464858e-16
   55277,   -9.000000e+00,   -1.875000e+01,   -3.827021e-16
   55278,   -9.000000e+00,   -1.979167e+01,   -3.189184e-16
   55279,   -9.000000e+00,   -2.083333e+01,   -2.551347e-16
   55280,   -9.000000e+00,   -2.187500e+01,   -1.913511e-16
   55281,   -9.000000e+00,   -2.291667e+01,   -1.275674e-16
   55282,   -9.000000e+00,   -2.395833e+01,   -6.378369e-17
   55283,   -9.000000e+00,   -2.500000e+01,    0.000000e+00
   55284,   -9.000000e+00,   -2.604167e+01,    6.378369e-17
   55285,   -9.000000e+00,   -2.708333e+01,    1.275674e-16
   55286,   -9.000000e+00,   -2.812500e+01,    1.913511e-16
   55287,   -9.000000e+00,   -2.916667e+01,    2.551347e-16
   55288,   -9.000000e+00,   -3.020833e+01,    3.189184e-16
   55289,   -9.000000e+00,   -3.125000e+01,    3.827021e-16
   55290,   -9.000000e+00,   -3.229167e+01,    4.464858e-16
   55291,   -9.000000e+00,   -3.333333e+01,    5.102695e-16
   55292,   -9.000000e+00,   -3.437500e+01,    5.740532e-16
   55293,   -9.000000e+00,   -3.541667e+01,    6.378369e-16
   55294,   -9.000000e+00,   -3.645833e+01,    7.016206e-16
   55295,   -9.000000e+00,   -3.750000e+01,    7.654042e-16
   55296,   -9.000000e+00,   -3.854167e+01,    8.291879e-16
   55297,   -9.000000e+00,   -3.958333e+01,    8.929716e-16
   55298,   -9.000000e+00,   -4.062500e+01,    9.567553e-16
   55299,   -9.000000e+00,   -4.166667e+01,    1.020539e-15
   55300,   -9.000000e+00,   -4.270833e+01,    1.084323e-15
   55301,   -9.000000e+00,   -4.375000e+01,    1.148106e-15
   55302,   -9.000000e+00,   -4.479167e+01,    1.211890e-15
   55303,   -9.000000e+00,   -4.583333e+01,    1.275674e-15
   55304,   -9.000000e+00,   -4.687500e+01,    1.339457e-15
   55305,   -9.000000e+00,   -4.791667e+01,    1.403241e-15
   55306,   -9.000000e+00,   -4.895833e+01,    1.467025e-15
   55307,   -8.693332e+00,   -5.000000e+01,   -2.329371e+00
   55308,   -7.794229e+00,   -5.000000e+01,   -4.500000e+00
   55309,   -6.363961e+00,   -5.000000e+01,   -6.363961e+00
   55310,   -4.500000e+00,   -5.000000e+01,   -7.794229e+00
   55311,   -2.329371e+00,   -5.000000e+01,   -8.693332e+00
   55312,   -2.329371e+00,   -1.041667e+00,   -8.693332e+00
   55313,   -2.329371e+00,   -2.083333e+00,   -8.693332e+00
   55314,   -2.329371e+00,   -3.125000e+00,   -8.693332e+00
   55315,   -2.329371e+00,   -4.166667e+00,   -8.693332e+00
   55316,   -2.329371e+00,   -5.208333e+00,   -8.693332e+00
   55317,   -2.329371e+00,   -6.250000e+00,   -8.693332e+00
   55318,   -2.329371e+00,   -7.291667e+00,   -8.693332e+00
   55319,   -2.329371e+00,   -8.333333e+00,   -8.693332e+00
   55320,   -2.329371e+00,   -9.375000e+00,   -8.693332e+00
   55321,   -2.329371e+00,   -1.041667e+01,   -8.693332e+00
   55322,   -2.329371e+00,   -1.145833e+01,   -8.693332e+00
   55323,   -2.329371e+00,   -1.250000e+01,   -8.693332e+00
   55324,   -2.329371e+00,   -1.354167e+01,   -8.693332e+00
   55325,   -2.329371e+00,   -1.458333e+01,   -8.693332e+00
   55326,   -2.329371e+00,   -1.562500e+01,   -8.693332e+00
   55327,   -2.329371e+00,   -1.666667e+01,   -8.693332e+00
   55328,   -2.329371e+00,   -1.770833e+01,   -8.693332e+00
   55329,   -2.329371e+00,   -1.875000e+01,   -8.693332e+00
   55330,   -2.329371e+00,   -1.979167e+01,   -8.693332e+00
   55331,   -2.329371e+00,   -2.083333e+01,   -8.693332e+00
   55332,   -2.329371e+00,   -2.187500e+01,   -8.693332e+00
   55333,   -2.329371e+00,   -2.291667e+01,   -8.693332e+00
   55334,   -2.329371e+00,   -2.395833e+01,   -8.693332e+00
   55335,   -2.329371e+00,   -2.500000e+01,   -8.693332e+00
   55336,   -2.329371e+00,   -2.604167e+01,   -8.693332e+00
   55337,   -2.329371e+00,   -2.708333e+01,   -8.693332e+00
   55338,   -2.329371e+00,   -2.812500e+01,   -8.693332e+00
   55339,   -2.329371e+00,   -2.916667e+01,   -8.693332e+00
   55340,   -2.329371e+00,   -3.020833e+01,   -8.693332e+00
   55341,   -2.329371e+00,   -3.125000e+01,   -8.693332e+00
   55342,   -2.329371e+00,   -3.229167e+01,   -8.693332e+00
   55343,   -2.329371e+00,   -3.333333e+01,   -8.693332e+00
   55344,   -2.329371e+00,   -3.437500e+01,   -8.693332e+00
   55345,   -2.329371e+00,   -3.541667e+01,   -8.693332e+00
   55346,   -2.329371e+00,   -3.645833e+01,   -8.693332e+00
   55347,   -2.329371e+00,   -3.750000e+01,   -8.693332e+00
   55348,   -2.329371e+00,   -3.854167e+01,   -8.693332e+00
   55349,   -2.329371e+00,   -3.958333e+01,   -8.693332e+00
   55350,   -2.329371e+00,   -4.062500e+01,   -8.693332e+00
   55351,   -2.329371e+00,   -4.166667e+01,   -8.693332e+00
   55352,   -2.329371e+00,   -4.270833e+01,   -8.693332e+00
   55353,   -2.329371e+00,   -4.375000e+01,   -8.693332e+00
   55354,   -2.329371e+00,   -4.479167e+01,   -8.693332e+00
   55355,   -2.329371e+00,   -4.583333e+01,   -8.693332e+00
   55356,   -2.329371e+00,   -4.687500e+01,   -8.693332e+00
   55357,   -2.329371e+00,   -4.791667e+01,   -8.693332e+00
   55358,   -2.329371e+00,   -4.895833e+01,   -8.693332e+00
   55359,   -4.500000e+00,   -1.041667e+00,   -7.794229e+00
   55360,   -4.500000e+00,   -2.083333e+00,   -7.794229e+00
   55361,   -4.500000e+00,   -3.125000e+00,   -7.794229e+00
   55362,   -4.500000e+00,   -4.166667e+00,   -7.794229e+00
   55363,   -4.500000e+00,   -5.208333e+00,   -7.794229e+00
   55364,   -4.500000e+00,   -6.250000e+00,   -7.794229e+00
   55365,   -4.500000e+00,   -7.291667e+00,   -7.794229e+00
   55366,   -4.500000e+00,   -8.333333e+00,   -7.794229e+00
   55367,   -4.500000e+00,   -9.375000e+00,   -7.794229e+00
   55368,   -4.500000e+00,   -1.041667e+01,   -7.794229e+00
   55369,   -4.500000e+00,   -1.145833e+01,   -7.794229e+00
   55370,   -4.500000e+00,   -1.250000e+01,   -7.794229e+00
   55371,   -4.500000e+00,   -1.354167e+01,   -7.794229e+00
   55372,   -4.500000e+00,   -1.458333e+01,   -7.794229e+00
   55373,   -4.500000e+00,   -1.562500e+01,   -7.794229e+00
   55374,   -4.500000e+00,   -1.666667e+01,   -7.794229e+00
   55375,   -4.500000e+00,   -1.770833e+01,   -7.794229e+00
   55376,   -4.500000e+00,   -1.875000e+01,   -7.794229e+00
   55377,   -4.500000e+00,   -1.979167e+01,   -7.794229e+00
   55378,   -4.500000e+00,   -2.083333e+01,   -7.794229e+00
   55379,   -4.500000e+00,   -2.187500e+01,   -7.794229e+00
   55380,   -4.500000e+00,   -2.291667e+01,   -7.794229e+00
   55381,   -4.500000e+00,   -2.395833e+01,   -7.794229e+00
   55382,   -4.500000e+00,   -2.500000e+01,   -7.794229e+00
   55383,   -4.500000e+00,   -2.604167e+01,   -7.794229e+00
   55384,   -4.500000e+00,   -2.708333e+01,   -7.794229e+00
   55385,   -4.500000e+00,   -2.812500e+01,   -7.794229e+00
   55386,   -4.500000e+00,   -2.916667e+01,   -7.794229e+00
   55387,   -4.500000e+00,   -3.020833e+01,   -7.794229e+00
   55388,   -4.500000e+00,   -3.125000e+01,   -7.794229e+00
   55389,   -4.500000e+00,   -3.229167e+01,   -7.794229e+00
   55390,   -4.500000e+00,   -3.333333e+01,   -7.794229e+00
   55391,   -4.500000e+00,   -3.437500e+01,   -7.794229e+00
   55392,   -4.500000e+00,   -3.541667e+01,   -7.794229e+00
   55393,   -4.500000e+00,   -3.645833e+01,   -7.794229e+00
   55394,   -4.500000e+00,   -3.750000e+01,   -7.794229e+00
   55395,   -4.500000e+00,   -3.854167e+01,   -7.794229e+00
   55396,   -4.500000e+00,   -3.958333e+01,   -7.794229e+00
   55397,   -4.500000e+00,   -4.062500e+01,   -7.794229e+00
   55398,   -4.500000e+00,   -4.166667e+01,   -7.794229e+00
   55399,   -4.500000e+00,   -4.270833e+01,   -7.794229e+00
   55400,   -4.500000e+00,   -4.375000e+01,   -7.794229e+00
   55401,   -4.500000e+00,   -4.479167e+01,   -7.794229e+00
   55402,   -4.500000e+00,   -4.583333e+01,   -7.794229e+00
   55403,   -4.500000e+00,   -4.687500e+01,   -7.794229e+00
   55404,   -4.500000e+00,   -4.791667e+01,   -7.794229e+00
   55405,   -4.500000e+00,   -4.895833e+01,   -7.794229e+00
   55406,   -6.363961e+00,   -1.041667e+00,   -6.363961e+00
   55407,   -6.363961e+00,   -2.083333e+00,   -6.363961e+00
   55408,   -6.363961e+00,   -3.125000e+00,   -6.363961e+00
   55409,   -6.363961e+00,   -4.166667e+00,   -6.363961e+00
   55410,   -6.363961e+00,   -5.208333e+00,   -6.363961e+00
   55411,   -6.363961e+00,   -6.250000e+00,   -6.363961e+00
   55412,   -6.363961e+00,   -7.291667e+00,   -6.363961e+00
   55413,   -6.363961e+00,   -8.333333e+00,   -6.363961e+00
   55414,   -6.363961e+00,   -9.375000e+00,   -6.363961e+00
   55415,   -6.363961e+00,   -1.041667e+01,   -6.363961e+00
   55416,   -6.363961e+00,   -1.145833e+01,   -6.363961e+00
   55417,   -6.363961e+00,   -1.250000e+01,   -6.363961e+00
   55418,   -6.363961e+00,   -1.354167e+01,   -6.363961e+00
   55419,   -6.363961e+00,   -1.458333e+01,   -6.363961e+00
   55420,   -6.363961e+00,   -1.562500e+01,   -6.363961e+00
   55421,   -6.363961e+00,   -1.666667e+01,   -6.363961e+00
   55422,   -6.363961e+00,   -1.770833e+01,   -6.363961e+00
   55423,   -6.363961e+00,   -1.875000e+01,   -6.363961e+00
   55424,   -6.363961e+00,   -1.979167e+01,   -6.363961e+00
   55425,   -6.363961e+00,   -2.083333e+01,   -6.363961e+00
   55426,   -6.363961e+00,   -2.187500e+01,   -6.363961e+00
   55427,   -6.363961e+00,   -2.291667e+01,   -6.363961e+00
   55428,   -6.363961e+00,   -2.395833e+01,   -6.363961e+00
   55429,   -6.363961e+00,   -2.500000e+01,   -6.363961e+00
   55430,   -6.363961e+00,   -2.604167e+01,   -6.363961e+00
   55431,   -6.363961e+00,   -2.708333e+01,   -6.363961e+00
   55432,   -6.363961e+00,   -2.812500e+01,   -6.363961e+00
   55433,   -6.363961e+00,   -2.916667e+01,   -6.363961e+00
   55434,   -6.363961e+00,   -3.020833e+01,   -6.363961e+00
   55435,   -6.363961e+00,   -3.125000e+01,   -6.363961e+00
   55436,   -6.363961e+00,   -3.229167e+01,   -6.363961e+00
   55437,   -6.363961e+00,   -3.333333e+01,   -6.363961e+00
   55438,   -6.363961e+00,   -3.437500e+01,   -6.363961e+00
   55439,   -6.363961e+00,   -3.541667e+01,   -6.363961e+00
   55440,   -6.363961e+00,   -3.645833e+01,   -6.363961e+00
   55441,   -6.363961e+00,   -3.750000e+01,   -6.363961e+00
   55442,   -6.363961e+00,   -3.854167e+01,   -6.363961e+00
   55443,   -6.363961e+00,   -3.958333e+01,   -6.363961e+00
   55444,   -6.363961e+00,   -4.062500e+01,   -6.363961e+00
   55445,   -6.363961e+00,   -4.166667e+01,   -6.363961e+00
   55446,   -6.363961e+00,   -4.270833e+01,   -6.363961e+00
   55447,   -6.363961e+00,   -4.375000e+01,   -6.363961e+00
   55448,   -6.363961e+00,   -4.479167e+01,   -6.363961e+00
   55449,   -6.363961e+00,   -4.583333e+01,   -6.363961e+00
   55450,   -6.363961e+00,   -4.687500e+01,   -6.363961e+00
   55451,   -6.363961e+00,   -4.791667e+01,   -6.363961e+00
   55452,   -6.363961e+00,   -4.895833e+01,   -6.363961e+00
   55453,   -7.794229e+00,   -1.041667e+00,   -4.500000e+00
   55454,   -7.794229e+00,   -2.083333e+00,   -4.500000e+00
   55455,   -7.794229e+00,   -3.125000e+00,   -4.500000e+00
   55456,   -7.794229e+00,   -4.166667e+00,   -4.500000e+00
   55457,   -7.794229e+00,   -5.208333e+00,   -4.500000e+00
   55458,   -7.794229e+00,   -6.250000e+00,   -4.500000e+00
   55459,   -7.794229e+00,   -7.291667e+00,   -4.500000e+00
   55460,   -7.794229e+00,   -8.333333e+00,   -4.500000e+00
   55461,   -7.794229e+00,   -9.375000e+00,   -4.500000e+00
   55462,   -7.794229e+00,   -1.041667e+01,   -4.500000e+00
   55463,   -7.794229e+00,   -1.145833e+01,   -4.500000e+00
   55464,   -7.794229e+00,   -1.250000e+01,   -4.500000e+00
   55465,   -7.794229e+00,   -1.354167e+01,   -4.500000e+00
   55466,   -7.794229e+00,   -1.458333e+01,   -4.500000e+00
   55467,   -7.794229e+00,   -1.562500e+01,   -4.500000e+00
   55468,   -7.794229e+00,   -1.666667e+01,   -4.500000e+00
   55469,   -7.794229e+00,   -1.770833e+01,   -4.500000e+00
   55470,   -7.794229e+00,   -1.875000e+01,   -4.500000e+00
   55471,   -7.794229e+00,   -1.979167e+01,   -4.500000e+00
   55472,   -7.794229e+00,   -2.083333e+01,   -4.500000e+00
   55473,   -7.794229e+00,   -2.187500e+01,   -4.500000e+00
   55474,   -7.794229e+00,   -2.291667e+01,   -4.500000e+00
   55475,   -7.794229e+00,   -2.395833e+01,   -4.500000e+00
   55476,   -7.794229e+00,   -2.500000e+01,   -4.500000e+00
   55477,   -7.794229e+00,   -2.604167e+01,   -4.500000e+00
   55478,   -7.794229e+00,   -2.708333e+01,   -4.500000e+00
   55479,   -7.794229e+00,   -2.812500e+01,   -4.500000e+00
   55480,   -7.794229e+00,   -2.916667e+01,   -4.500000e+00
   55481,   -7.794229e+00,   -3.020833e+01,   -4.500000e+00
   55482,   -7.794229e+00,   -3.125000e+01,   -4.500000e+00
   55483,   -7.794229e+00,   -3.229167e+01,   -4.500000e+00
   55484,   -7.794229e+00,   -3.333333e+01,   -4.500000e+00
   55485,   -7.794229e+00,   -3.437500e+01,   -4.500000e+00
   55486,   -7.794229e+00,   -3.541667e+01,   -4.500000e+00
   55487,   -7.794229e+00,   -3.645833e+01,   -4.500000e+00
   55488,   -7.794229e+00,   -3.750000e+01,   -4.500000e+00
   55489,   -7.794229e+00,   -3.854167e+01,   -4.500000e+00
   55490,   -7.794229e+00,   -3.958333e+01,   -4.500000e+00
   55491,   -7.794229e+00,   -4.062500e+01,   -4.500000e+00
   55492,   -7.794229e+00,   -4.166667e+01,   -4.500000e+00
   55493,   -7.794229e+00,   -4.270833e+01,   -4.500000e+00
   55494,   -7.794229e+00,   -4.375000e+01,   -4.500000e+00
   55495,   -7.794229e+00,   -4.479167e+01,   -4.500000e+00
   55496,   -7.794229e+00,   -4.583333e+01,   -4.500000e+00
   55497,   -7.794229e+00,   -4.687500e+01,   -4.500000e+00
   55498,   -7.794229e+00,   -4.791667e+01,   -4.500000e+00
   55499,   -7.794229e+00,   -4.895833e+01,   -4.500000e+00
   55500,   -8.693332e+00,   -1.041667e+00,   -2.329371e+00
   55501,   -8.693332e+00,   -2.083333e+00,   -2.329371e+00
   55502,   -8.693332e+00,   -3.125000e+00,   -2.329371e+00
   55503,   -8.693332e+00,   -4.166667e+00,   -2.329371e+00
   55504,   -8.693332e+00,   -5.208333e+00,   -2.329371e+00
   55505,   -8.693332e+00,   -6.250000e+00,   -2.329371e+00
   55506,   -8.693332e+00,   -7.291667e+00,   -2.329371e+00
   55507,   -8.693332e+00,   -8.333333e+00,   -2.329371e+00
   55508,   -8.693332e+00,   -9.375000e+00,   -2.329371e+00
   55509,   -8.693332e+00,   -1.041667e+01,   -2.329371e+00
   55510,   -8.693332e+00,   -1.145833e+01,   -2.329371e+00
   55511,   -8.693332e+00,   -1.250000e+01,   -2.329371e+00
   55512,   -8.693332e+00,   -1.354167e+01,   -2.329371e+00
   55513,   -8.693332e+00,   -1.458333e+01,   -2.329371e+00
   55514,   -8.693332e+00,   -1.562500e+01,   -2.329371e+00
   55515,   -8.693332e+00,   -1.666667e+01,   -2.329371e+00
   55516,   -8.693332e+00,   -1.770833e+01,   -2.329371e+00
   55517,   -8.693332e+00,   -1.875000e+01,   -2.329371e+00
   55518,   -8.693332e+00,   -1.979167e+01,   -2.329371e+00
   55519,   -8.693332e+00,   -2.083333e+01,   -2.329371e+00
   55520,   -8.693332e+00,   -2.187500e+01,   -2.329371e+00
   55521,   -8.693332e+00,   -2.291667e+01,   -2.329371e+00
   55522,   -8.693332e+00,   -2.395833e+01,   -2.329371e+00
   55523,   -8.693332e+00,   -2.500000e+01,   -2.329371e+00
   55524,   -8.693332e+00,   -2.604167e+01,   -2.329371e+00
   55525,   -8.693332e+00,   -2.708333e+01,   -2.329371e+00
   55526,   -8.693332e+00,   -2.812500e+01,   -2.329371e+00
   55527,   -8.693332e+00,   -2.916667e+01,   -2.329371e+00
   55528,   -8.693332e+00,   -3.020833e+01,   -2.329371e+00
   55529,   -8.693332e+00,   -3.125000e+01,   -2.329371e+00
   55530,   -8.693332e+00,   -3.229167e+01,   -2.329371e+00
   55531,   -8.693332e+00,   -3.333333e+01,   -2.329371e+00
   55532,   -8.693332e+00,   -3.437500e+01,   -2.329371e+00
   55533,   -8.693332e+00,   -3.541667e+01,   -2.329371e+00
   55534,   -8.693332e+00,   -3.645833e+01,   -2.329371e+00
   55535,   -8.693332e+00,   -3.750000e+01,   -2.329371e+00
   55536,   -8.693332e+00,   -3.854167e+01,   -2.329371e+00
   55537,   -8.693332e+00,   -3.958333e+01,   -2.329371e+00
   55538,   -8.693332e+00,   -4.062500e+01,   -2.329371e+00
   55539,   -8.693332e+00,   -4.166667e+01,   -2.329371e+00
   55540,   -8.693332e+00,   -4.270833e+01,   -2.329371e+00
   55541,   -8.693332e+00,   -4.375000e+01,   -2.329371e+00
   55542,   -8.693332e+00,   -4.479167e+01,   -2.329371e+00
   55543,   -8.693332e+00,   -4.583333e+01,   -2.329371e+00
   55544,   -8.693332e+00,   -4.687500e+01,   -2.329371e+00
   55545,   -8.693332e+00,   -4.791667e+01,   -2.329371e+00
   55546,   -8.693332e+00,   -4.895833e+01,   -2.329371e+00
   55547,    9.000000e+00,   -5.000000e+01,    1.530808e-15
   55548,    2.329371e+00,   -5.000000e+01,   -8.693332e+00
   55549,    4.500000e+00,   -5.000000e+01,   -7.794229e+00
   55550,    6.363961e+00,   -5.000000e+01,   -6.363961e+00
   55551,    7.794229e+00,   -5.000000e+01,   -4.500000e+00
   55552,    8.693332e+00,   -5.000000e+01,   -2.329371e+00
   55553,    8.000000e+00,   -5.000000e+01,    1.530808e-15
   55554,    7.727407e+00,   -5.000000e+01,   -2.070552e+00
   55555,    6.928203e+00,   -5.000000e+01,   -4.000000e+00
   55556,    5.656854e+00,   -5.000000e+01,   -5.656854e+00
   55557,    4.000000e+00,   -5.000000e+01,   -6.928203e+00
   55558,    2.070552e+00,   -5.000000e+01,   -7.727407e+00
   55559,    9.000000e+00,    0.000000e+00,   -1.530808e-15
   55560,    8.693332e+00,   -1.426329e-16,   -2.329371e+00
   55561,    7.794229e+00,   -2.755455e-16,   -4.500000e+00
   55562,    6.363961e+00,   -3.896802e-16,   -6.363961e+00
   55563,    4.500000e+00,   -4.772589e-16,   -7.794229e+00
   55564,    2.329371e+00,   -5.323131e-16,   -8.693332e+00
   55565,    9.000000e+00,   -4.895833e+01,    1.467025e-15
   55566,    9.000000e+00,   -4.791667e+01,    1.403241e-15
   55567,    9.000000e+00,   -4.687500e+01,    1.339457e-15
   55568,    9.000000e+00,   -4.583333e+01,    1.275674e-15
   55569,    9.000000e+00,   -4.479167e+01,    1.211890e-15
   55570,    9.000000e+00,   -4.375000e+01,    1.148106e-15
   55571,    9.000000e+00,   -4.270833e+01,    1.084323e-15
   55572,    9.000000e+00,   -4.166667e+01,    1.020539e-15
   55573,    9.000000e+00,   -4.062500e+01,    9.567553e-16
   55574,    9.000000e+00,   -3.958333e+01,    8.929716e-16
   55575,    9.000000e+00,   -3.854167e+01,    8.291879e-16
   55576,    9.000000e+00,   -3.750000e+01,    7.654042e-16
   55577,    9.000000e+00,   -3.645833e+01,    7.016206e-16
   55578,    9.000000e+00,   -3.541667e+01,    6.378369e-16
   55579,    9.000000e+00,   -3.437500e+01,    5.740532e-16
   55580,    9.000000e+00,   -3.333333e+01,    5.102695e-16
   55581,    9.000000e+00,   -3.229167e+01,    4.464858e-16
   55582,    9.000000e+00,   -3.125000e+01,    3.827021e-16
   55583,    9.000000e+00,   -3.020833e+01,    3.189184e-16
   55584,    9.000000e+00,   -2.916667e+01,    2.551347e-16
   55585,    9.000000e+00,   -2.812500e+01,    1.913511e-16
   55586,    9.000000e+00,   -2.708333e+01,    1.275674e-16
   55587,    9.000000e+00,   -2.604167e+01,    6.378369e-17
   55588,    9.000000e+00,   -2.500000e+01,    0.000000e+00
   55589,    9.000000e+00,   -2.395833e+01,   -6.378369e-17
   55590,    9.000000e+00,   -2.291667e+01,   -1.275674e-16
   55591,    9.000000e+00,   -2.187500e+01,   -1.913511e-16
   55592,    9.000000e+00,   -2.083333e+01,   -2.551347e-16
   55593,    9.000000e+00,   -1.979167e+01,   -3.189184e-16
   55594,    9.000000e+00,   -1.875000e+01,   -3.827021e-16
   55595,    9.000000e+00,   -1.770833e+01,   -4.464858e-16
   55596,    9.000000e+00,   -1.666667e+01,   -5.102695e-16
   55597,    9.000000e+00,   -1.562500e+01,   -5.740532e-16
   55598,    9.000000e+00,   -1.458333e+01,   -6.378369e-16
   55599,    9.000000e+00,   -1.354167e+01,   -7.016206e-16
   55600,    9.000000e+00,   -1.250000e+01,   -7.654042e-16
   55601,    9.000000e+00,   -1.145833e+01,   -8.291879e-16
   55602,    9.000000e+00,   -1.041667e+01,   -8.929716e-16
   55603,    9.000000e+00,   -9.375000e+00,   -9.567553e-16
   55604,    9.000000e+00,   -8.333333e+00,   -1.020539e-15
   55605,    9.000000e+00,   -7.291667e+00,   -1.084323e-15
   55606,    9.000000e+00,   -6.250000e+00,   -1.148106e-15
   55607,    9.000000e+00,   -5.208333e+00,   -1.211890e-15
   55608,    9.000000e+00,   -4.166667e+00,   -1.275674e-15
   55609,    9.000000e+00,   -3.125000e+00,   -1.339457e-15
   55610,    9.000000e+00,   -2.083333e+00,   -1.403241e-15
   55611,    9.000000e+00,   -1.041667e+00,   -1.467025e-15
   55612,    2.329371e+00,   -4.895833e+01,   -8.693332e+00
   55613,    2.329371e+00,   -4.791667e+01,   -8.693332e+00
   55614,    2.329371e+00,   -4.687500e+01,   -8.693332e+00
   55615,    2.329371e+00,   -4.583333e+01,   -8.693332e+00
   55616,    2.329371e+00,   -4.479167e+01,   -8.693332e+00
   55617,    2.329371e+00,   -4.375000e+01,   -8.693332e+00
   55618,    2.329371e+00,   -4.270833e+01,   -8.693332e+00
   55619,    2.329371e+00,   -4.166667e+01,   -8.693332e+00
   55620,    2.329371e+00,   -4.062500e+01,   -8.693332e+00
   55621,    2.329371e+00,   -3.958333e+01,   -8.693332e+00
   55622,    2.329371e+00,   -3.854167e+01,   -8.693332e+00
   55623,    2.329371e+00,   -3.750000e+01,   -8.693332e+00
   55624,    2.329371e+00,   -3.645833e+01,   -8.693332e+00
   55625,    2.329371e+00,   -3.541667e+01,   -8.693332e+00
   55626,    2.329371e+00,   -3.437500e+01,   -8.693332e+00
   55627,    2.329371e+00,   -3.333333e+01,   -8.693332e+00
   55628,    2.329371e+00,   -3.229167e+01,   -8.693332e+00
   55629,    2.329371e+00,   -3.125000e+01,   -8.693332e+00
   55630,    2.329371e+00,   -3.020833e+01,   -8.693332e+00
   55631,    2.329371e+00,   -2.916667e+01,   -8.693332e+00
   55632,    2.329371e+00,   -2.812500e+01,   -8.693332e+00
   55633,    2.329371e+00,   -2.708333e+01,   -8.693332e+00
   55634,    2.329371e+00,   -2.604167e+01,   -8.693332e+00
   55635,    2.329371e+00,   -2.500000e+01,   -8.693332e+00
   55636,    2.329371e+00,   -2.395833e+01,   -8.693332e+00
   55637,    2.329371e+00,   -2.291667e+01,   -8.693332e+00
   55638,    2.329371e+00,   -2.187500e+01,   -8.693332e+00
   55639,    2.329371e+00,   -2.083333e+01,   -8.693332e+00
   55640,    2.329371e+00,   -1.979167e+01,   -8.693332e+00
   55641,    2.329371e+00,   -1.875000e+01,   -8.693332e+00
   55642,    2.329371e+00,   -1.770833e+01,   -8.693332e+00
   55643,    2.329371e+00,   -1.666667e+01,   -8.693332e+00
   55644,    2.329371e+00,   -1.562500e+01,   -8.693332e+00
   55645,    2.329371e+00,   -1.458333e+01,   -8.693332e+00
   55646,    2.329371e+00,   -1.354167e+01,   -8.693332e+00
   55647,    2.329371e+00,   -1.250000e+01,   -8.693332e+00
   55648,    2.329371e+00,   -1.145833e+01,   -8.693332e+00
   55649,    2.329371e+00,   -1.041667e+01,   -8.693332e+00
   55650,    2.329371e+00,   -9.375000e+00,   -8.693332e+00
   55651,    2.329371e+00,   -8.333333e+00,   -8.693332e+00
   55652,    2.329371e+00,   -7.291667e+00,   -8.693332e+00
   55653,    2.329371e+00,   -6.250000e+00,   -8.693332e+00
   55654,    2.329371e+00,   -5.208333e+00,   -8.693332e+00
   55655,    2.329371e+00,   -4.166667e+00,   -8.693332e+00
   55656,    2.329371e+00,   -3.125000e+00,   -8.693332e+00
   55657,    2.329371e+00,   -2.083333e+00,   -8.693332e+00
   55658,    2.329371e+00,   -1.041667e+00,   -8.693332e+00
   55659,    4.500000e+00,   -4.895833e+01,   -7.794229e+00
   55660,    4.500000e+00,   -4.791667e+01,   -7.794229e+00
   55661,    4.500000e+00,   -4.687500e+01,   -7.794229e+00
   55662,    4.500000e+00,   -4.583333e+01,   -7.794229e+00
   55663,    4.500000e+00,   -4.479167e+01,   -7.794229e+00
   55664,    4.500000e+00,   -4.375000e+01,   -7.794229e+00
   55665,    4.500000e+00,   -4.270833e+01,   -7.794229e+00
   55666,    4.500000e+00,   -4.166667e+01,   -7.794229e+00
   55667,    4.500000e+00,   -4.062500e+01,   -7.794229e+00
   55668,    4.500000e+00,   -3.958333e+01,   -7.794229e+00
   55669,    4.500000e+00,   -3.854167e+01,   -7.794229e+00
   55670,    4.500000e+00,   -3.750000e+01,   -7.794229e+00
   55671,    4.500000e+00,   -3.645833e+01,   -7.794229e+00
   55672,    4.500000e+00,   -3.541667e+01,   -7.794229e+00
   55673,    4.500000e+00,   -3.437500e+01,   -7.794229e+00
   55674,    4.500000e+00,   -3.333333e+01,   -7.794229e+00
   55675,    4.500000e+00,   -3.229167e+01,   -7.794229e+00
   55676,    4.500000e+00,   -3.125000e+01,   -7.794229e+00
   55677,    4.500000e+00,   -3.020833e+01,   -7.794229e+00
   55678,    4.500000e+00,   -2.916667e+01,   -7.794229e+00
   55679,    4.500000e+00,   -2.812500e+01,   -7.794229e+00
   55680,    4.500000e+00,   -2.708333e+01,   -7.794229e+00
   55681,    4.500000e+00,   -2.604167e+01,   -7.794229e+00
   55682,    4.500000e+00,   -2.500000e+01,   -7.794229e+00
   55683,    4.500000e+00,   -2.395833e+01,   -7.794229e+00
   55684,    4.500000e+00,   -2.291667e+01,   -7.794229e+00
   55685,    4.500000e+00,   -2.187500e+01,   -7.794229e+00
   55686,    4.500000e+00,   -2.083333e+01,   -7.794229e+00
   55687,    4.500000e+00,   -1.979167e+01,   -7.794229e+00
   55688,    4.500000e+00,   -1.875000e+01,   -7.794229e+00
   55689,    4.500000e+00,   -1.770833e+01,   -7.794229e+00
   55690,    4.500000e+00,   -1.666667e+01,   -7.794229e+00
   55691,    4.500000e+00,   -1.562500e+01,   -7.794229e+00
   55692,    4.500000e+00,   -1.458333e+01,   -7.794229e+00
   55693,    4.500000e+00,   -1.354167e+01,   -7.794229e+00
   55694,    4.500000e+00,   -1.250000e+01,   -7.794229e+00
   55695,    4.500000e+00,   -1.145833e+01,   -7.794229e+00
   55696,    4.500000e+00,   -1.041667e+01,   -7.794229e+00
   55697,    4.500000e+00,   -9.375000e+00,   -7.794229e+00
   55698,    4.500000e+00,   -8.333333e+00,   -7.794229e+00
   55699,    4.500000e+00,   -7.291667e+00,   -7.794229e+00
   55700,    4.500000e+00,   -6.250000e+00,   -7.794229e+00
   55701,    4.500000e+00,   -5.208333e+00,   -7.794229e+00
   55702,    4.500000e+00,   -4.166667e+00,   -7.794229e+00
   55703,    4.500000e+00,   -3.125000e+00,   -7.794229e+00
   55704,    4.500000e+00,   -2.083333e+00,   -7.794229e+00
   55705,    4.500000e+00,   -1.041667e+00,   -7.794229e+00
   55706,    6.363961e+00,   -4.895833e+01,   -6.363961e+00
   55707,    6.363961e+00,   -4.791667e+01,   -6.363961e+00
   55708,    6.363961e+00,   -4.687500e+01,   -6.363961e+00
   55709,    6.363961e+00,   -4.583333e+01,   -6.363961e+00
   55710,    6.363961e+00,   -4.479167e+01,   -6.363961e+00
   55711,    6.363961e+00,   -4.375000e+01,   -6.363961e+00
   55712,    6.363961e+00,   -4.270833e+01,   -6.363961e+00
   55713,    6.363961e+00,   -4.166667e+01,   -6.363961e+00
   55714,    6.363961e+00,   -4.062500e+01,   -6.363961e+00
   55715,    6.363961e+00,   -3.958333e+01,   -6.363961e+00
   55716,    6.363961e+00,   -3.854167e+01,   -6.363961e+00
   55717,    6.363961e+00,   -3.750000e+01,   -6.363961e+00
   55718,    6.363961e+00,   -3.645833e+01,   -6.363961e+00
   55719,    6.363961e+00,   -3.541667e+01,   -6.363961e+00
   55720,    6.363961e+00,   -3.437500e+01,   -6.363961e+00
   55721,    6.363961e+00,   -3.333333e+01,   -6.363961e+00
   55722,    6.363961e+00,   -3.229167e+01,   -6.363961e+00
   55723,    6.363961e+00,   -3.125000e+01,   -6.363961e+00
   55724,    6.363961e+00,   -3.020833e+01,   -6.363961e+00
   55725,    6.363961e+00,   -2.916667e+01,   -6.363961e+00
   55726,    6.363961e+00,   -2.812500e+01,   -6.363961e+00
   55727,    6.363961e+00,   -2.708333e+01,   -6.363961e+00
   55728,    6.363961e+00,   -2.604167e+01,   -6.363961e+00
   55729,    6.363961e+00,   -2.500000e+01,   -6.363961e+00
   55730,    6.363961e+00,   -2.395833e+01,   -6.363961e+00
   55731,    6.363961e+00,   -2.291667e+01,   -6.363961e+00
   55732,    6.363961e+00,   -2.187500e+01,   -6.363961e+00
   55733,    6.363961e+00,   -2.083333e+01,   -6.363961e+00
   55734,    6.363961e+00,   -1.979167e+01,   -6.363961e+00
   55735,    6.363961e+00,   -1.875000e+01,   -6.363961e+00
   55736,    6.363961e+00,   -1.770833e+01,   -6.363961e+00
   55737,    6.363961e+00,   -1.666667e+01,   -6.363961e+00
   55738,    6.363961e+00,   -1.562500e+01,   -6.363961e+00
   55739,    6.363961e+00,   -1.458333e+01,   -6.363961e+00
   55740,    6.363961e+00,   -1.354167e+01,   -6.363961e+00
   55741,    6.363961e+00,   -1.250000e+01,   -6.363961e+00
   55742,    6.363961e+00,   -1.145833e+01,   -6.363961e+00
   55743,    6.363961e+00,   -1.041667e+01,   -6.363961e+00
   55744,    6.363961e+00,   -9.375000e+00,   -6.363961e+00
   55745,    6.363961e+00,   -8.333333e+00,   -6.363961e+00
   55746,    6.363961e+00,   -7.291667e+00,   -6.363961e+00
   55747,    6.363961e+00,   -6.250000e+00,   -6.363961e+00
   55748,    6.363961e+00,   -5.208333e+00,   -6.363961e+00
   55749,    6.363961e+00,   -4.166667e+00,   -6.363961e+00
   55750,    6.363961e+00,   -3.125000e+00,   -6.363961e+00
   55751,    6.363961e+00,   -2.083333e+00,   -6.363961e+00
   55752,    6.363961e+00,   -1.041667e+00,   -6.363961e+00
   55753,    7.794229e+00,   -4.895833e+01,   -4.500000e+00
   55754,    7.794229e+00,   -4.791667e+01,   -4.500000e+00
   55755,    7.794229e+00,   -4.687500e+01,   -4.500000e+00
   55756,    7.794229e+00,   -4.583333e+01,   -4.500000e+00
   55757,    7.794229e+00,   -4.479167e+01,   -4.500000e+00
   55758,    7.794229e+00,   -4.375000e+01,   -4.500000e+00
   55759,    7.794229e+00,   -4.270833e+01,   -4.500000e+00
   55760,    7.794229e+00,   -4.166667e+01,   -4.500000e+00
   55761,    7.794229e+00,   -4.062500e+01,   -4.500000e+00
   55762,    7.794229e+00,   -3.958333e+01,   -4.500000e+00
   55763,    7.794229e+00,   -3.854167e+01,   -4.500000e+00
   55764,    7.794229e+00,   -3.750000e+01,   -4.500000e+00
   55765,    7.794229e+00,   -3.645833e+01,   -4.500000e+00
   55766,    7.794229e+00,   -3.541667e+01,   -4.500000e+00
   55767,    7.794229e+00,   -3.437500e+01,   -4.500000e+00
   55768,    7.794229e+00,   -3.333333e+01,   -4.500000e+00
   55769,    7.794229e+00,   -3.229167e+01,   -4.500000e+00
   55770,    7.794229e+00,   -3.125000e+01,   -4.500000e+00
   55771,    7.794229e+00,   -3.020833e+01,   -4.500000e+00
   55772,    7.794229e+00,   -2.916667e+01,   -4.500000e+00
   55773,    7.794229e+00,   -2.812500e+01,   -4.500000e+00
   55774,    7.794229e+00,   -2.708333e+01,   -4.500000e+00
   55775,    7.794229e+00,   -2.604167e+01,   -4.500000e+00
   55776,    7.794229e+00,   -2.500000e+01,   -4.500000e+00
   55777,    7.794229e+00,   -2.395833e+01,   -4.500000e+00
   55778,    7.794229e+00,   -2.291667e+01,   -4.500000e+00
   55779,    7.794229e+00,   -2.187500e+01,   -4.500000e+00
   55780,    7.794229e+00,   -2.083333e+01,   -4.500000e+00
   55781,    7.794229e+00,   -1.979167e+01,   -4.500000e+00
   55782,    7.794229e+00,   -1.875000e+01,   -4.500000e+00
   55783,    7.794229e+00,   -1.770833e+01,   -4.500000e+00
   55784,    7.794229e+00,   -1.666667e+01,   -4.500000e+00
   55785,    7.794229e+00,   -1.562500e+01,   -4.500000e+00
   55786,    7.794229e+00,   -1.458333e+01,   -4.500000e+00
   55787,    7.794229e+00,   -1.354167e+01,   -4.500000e+00
   55788,    7.794229e+00,   -1.250000e+01,   -4.500000e+00
   55789,    7.794229e+00,   -1.145833e+01,   -4.500000e+00
   55790,    7.794229e+00,   -1.041667e+01,   -4.500000e+00
   55791,    7.794229e+00,   -9.375000e+00,   -4.500000e+00
   55792,    7.794229e+00,   -8.333333e+00,   -4.500000e+00
   55793,    7.794229e+00,   -7.291667e+00,   -4.500000e+00
   55794,    7.794229e+00,   -6.250000e+00,   -4.500000e+00
   55795,    7.794229e+00,   -5.208333e+00,   -4.500000e+00
   55796,    7.794229e+00,   -4.166667e+00,   -4.500000e+00
   55797,    7.794229e+00,   -3.125000e+00,   -4.500000e+00
   55798,    7.794229e+00,   -2.083333e+00,   -4.500000e+00
   55799,    7.794229e+00,   -1.041667e+00,   -4.500000e+00
   55800,    8.693332e+00,   -4.895833e+01,   -2.329371e+00
   55801,    8.693332e+00,   -4.791667e+01,   -2.329371e+00
   55802,    8.693332e+00,   -4.687500e+01,   -2.329371e+00
   55803,    8.693332e+00,   -4.583333e+01,   -2.329371e+00
   55804,    8.693332e+00,   -4.479167e+01,   -2.329371e+00
   55805,    8.693332e+00,   -4.375000e+01,   -2.329371e+00
   55806,    8.693332e+00,   -4.270833e+01,   -2.329371e+00
   55807,    8.693332e+00,   -4.166667e+01,   -2.329371e+00
   55808,    8.693332e+00,   -4.062500e+01,   -2.329371e+00
   55809,    8.693332e+00,   -3.958333e+01,   -2.329371e+00
   55810,    8.693332e+00,   -3.854167e+01,   -2.329371e+00
   55811,    8.693332e+00,   -3.750000e+01,   -2.329371e+00
   55812,    8.693332e+00,   -3.645833e+01,   -2.329371e+00
   55813,    8.693332e+00,   -3.541667e+01,   -2.329371e+00
   55814,    8.693332e+00,   -3.437500e+01,   -2.329371e+00
   55815,    8.693332e+00,   -3.333333e+01,   -2.329371e+00
   55816,    8.693332e+00,   -3.229167e+01,   -2.329371e+00
   55817,    8.693332e+00,   -3.125000e+01,   -2.329371e+00
   55818,    8.693332e+00,   -3.020833e+01,   -2.329371e+00
   55819,    8.693332e+00,   -2.916667e+01,   -2.329371e+00
   55820,    8.693332e+00,   -2.812500e+01,   -2.329371e+00
   55821,    8.693332e+00,   -2.708333e+01,   -2.329371e+00
   55822,    8.693332e+00,   -2.604167e+01,   -2.329371e+00
   55823,    8.693332e+00,   -2.500000e+01,   -2.329371e+00
   55824,    8.693332e+00,   -2.395833e+01,   -2.329371e+00
   55825,    8.693332e+00,   -2.291667e+01,   -2.329371e+00
   55826,    8.693332e+00,   -2.187500e+01,   -2.329371e+00
   55827,    8.693332e+00,   -2.083333e+01,   -2.329371e+00
   55828,    8.693332e+00,   -1.979167e+01,   -2.329371e+00
   55829,    8.693332e+00,   -1.875000e+01,   -2.329371e+00
   55830,    8.693332e+00,   -1.770833e+01,   -2.329371e+00
   55831,    8.693332e+00,   -1.666667e+01,   -2.329371e+00
   55832,    8.693332e+00,   -1.562500e+01,   -2.329371e+00
   55833,    8.693332e+00,   -1.458333e+01,   -2.329371e+00
   55834,    8.693332e+00,   -1.354167e+01,   -2.329371e+00
   55835,    8.693332e+00,   -1.250000e+01,   -2.329371e+00
   55836,    8.693332e+00,   -1.145833e+01,   -2.329371e+00
   55837,    8.693332e+00,   -1.041667e+01,   -2.329371e+00
   55838,    8.693332e+00,   -9.375000e+00,   -2.329371e+00
   55839,    8.693332e+00,   -8.333333e+00,   -2.329371e+00
   55840,    8.693332e+00,   -7.291667e+00,   -2.329371e+00
   55841,    8.693332e+00,   -6.250000e+00,   -2.329371e+00
   55842,    8.693332e+00,   -5.208333e+00,   -2.329371e+00
   55843,    8.693332e+00,   -4.166667e+00,   -2.329371e+00
   55844,    8.693332e+00,   -3.125000e+00,   -2.329371e+00
   55845,    8.693332e+00,   -2.083333e+00,   -2.329371e+00
   55846,    8.693332e+00,   -1.041667e+00,   -2.329371e+00
   55847,    8.000000e+00,    0.000000e+00,   -1.530808e-15
   55848,    8.000000e+00,   -1.041667e+00,   -1.467025e-15
   55849,    8.000000e+00,   -2.083333e+00,   -1.403241e-15
   55850,    8.000000e+00,   -3.125000e+00,   -1.339457e-15
   55851,    8.000000e+00,   -4.166667e+00,   -1.275674e-15
   55852,    8.000000e+00,   -5.208333e+00,   -1.211890e-15
   55853,    8.000000e+00,   -6.250000e+00,   -1.148106e-15
   55854,    8.000000e+00,   -7.291667e+00,   -1.084323e-15
   55855,    8.000000e+00,   -8.333333e+00,   -1.020539e-15
   55856,    8.000000e+00,   -9.375000e+00,   -9.567553e-16
   55857,    8.000000e+00,   -1.041667e+01,   -8.929716e-16
   55858,    8.000000e+00,   -1.145833e+01,   -8.291879e-16
   55859,    8.000000e+00,   -1.250000e+01,   -7.654042e-16
   55860,    8.000000e+00,   -1.354167e+01,   -7.016206e-16
   55861,    8.000000e+00,   -1.458333e+01,   -6.378369e-16
   55862,    8.000000e+00,   -1.562500e+01,   -5.740532e-16
   55863,    8.000000e+00,   -1.666667e+01,   -5.102695e-16
   55864,    8.000000e+00,   -1.770833e+01,   -4.464858e-16
   55865,    8.000000e+00,   -1.875000e+01,   -3.827021e-16
   55866,    8.000000e+00,   -1.979167e+01,   -3.189184e-16
   55867,    8.000000e+00,   -2.083333e+01,   -2.551347e-16
   55868,    8.000000e+00,   -2.187500e+01,   -1.913511e-16
   55869,    8.000000e+00,   -2.291667e+01,   -1.275674e-16
   55870,    8.000000e+00,   -2.395833e+01,   -6.378369e-17
   55871,    8.000000e+00,   -2.500000e+01,    0.000000e+00
   55872,    8.000000e+00,   -2.604167e+01,    6.378369e-17
   55873,    8.000000e+00,   -2.708333e+01,    1.275674e-16
   55874,    8.000000e+00,   -2.812500e+01,    1.913511e-16
   55875,    8.000000e+00,   -2.916667e+01,    2.551347e-16
   55876,    8.000000e+00,   -3.020833e+01,    3.189184e-16
   55877,    8.000000e+00,   -3.125000e+01,    3.827021e-16
   55878,    8.000000e+00,   -3.229167e+01,    4.464858e-16
   55879,    8.000000e+00,   -3.333333e+01,    5.102695e-16
   55880,    8.000000e+00,   -3.437500e+01,    5.740532e-16
   55881,    8.000000e+00,   -3.541667e+01,    6.378369e-16
   55882,    8.000000e+00,   -3.645833e+01,    7.016206e-16
   55883,    8.000000e+00,   -3.750000e+01,    7.654042e-16
   55884,    8.000000e+00,   -3.854167e+01,    8.291879e-16
   55885,    8.000000e+00,   -3.958333e+01,    8.929716e-16
   55886,    8.000000e+00,   -4.062500e+01,    9.567553e-16
   55887,    8.000000e+00,   -4.166667e+01,    1.020539e-15
   55888,    8.000000e+00,   -4.270833e+01,    1.084323e-15
   55889,    8.000000e+00,   -4.375000e+01,    1.148106e-15
   55890,    8.000000e+00,   -4.479167e+01,    1.211890e-15
   55891,    8.000000e+00,   -4.583333e+01,    1.275674e-15
   55892,    8.000000e+00,   -4.687500e+01,    1.339457e-15
   55893,    8.000000e+00,   -4.791667e+01,    1.403241e-15
   55894,    8.000000e+00,   -4.895833e+01,    1.467025e-15
   55895,    2.070552e+00,   -4.731672e-16,   -7.727407e+00
   55896,    4.000000e+00,   -4.242301e-16,   -6.928203e+00
   55897,    5.656854e+00,   -3.463824e-16,   -5.656854e+00
   55898,    6.928203e+00,   -2.449294e-16,   -4.000000e+00
   55899,    7.727407e+00,   -1.267848e-16,   -2.070552e+00
   55900,    2.070552e+00,   -1.041667e+00,   -7.727407e+00
   55901,    2.070552e+00,   -2.083333e+00,   -7.727407e+00
   55902,    2.070552e+00,   -3.125000e+00,   -7.727407e+00
   55903,    2.070552e+00,   -4.166667e+00,   -7.727407e+00
   55904,    2.070552e+00,   -5.208333e+00,   -7.727407e+00
   55905,    2.070552e+00,   -6.250000e+00,   -7.727407e+00
   55906,    2.070552e+00,   -7.291667e+00,   -7.727407e+00
   55907,    2.070552e+00,   -8.333333e+00,   -7.727407e+00
   55908,    2.070552e+00,   -9.375000e+00,   -7.727407e+00
   55909,    2.070552e+00,   -1.041667e+01,   -7.727407e+00
   55910,    2.070552e+00,   -1.145833e+01,   -7.727407e+00
   55911,    2.070552e+00,   -1.250000e+01,   -7.727407e+00
   55912,    2.070552e+00,   -1.354167e+01,   -7.727407e+00
   55913,    2.070552e+00,   -1.458333e+01,   -7.727407e+00
   55914,    2.070552e+00,   -1.562500e+01,   -7.727407e+00
   55915,    2.070552e+00,   -1.666667e+01,   -7.727407e+00
   55916,    2.070552e+00,   -1.770833e+01,   -7.727407e+00
   55917,    2.070552e+00,   -1.875000e+01,   -7.727407e+00
   55918,    2.070552e+00,   -1.979167e+01,   -7.727407e+00
   55919,    2.070552e+00,   -2.083333e+01,   -7.727407e+00
   55920,    2.070552e+00,   -2.187500e+01,   -7.727407e+00
   55921,    2.070552e+00,   -2.291667e+01,   -7.727407e+00
   55922,    2.070552e+00,   -2.395833e+01,   -7.727407e+00
   55923,    2.070552e+00,   -2.500000e+01,   -7.727407e+00
   55924,    2.070552e+00,   -2.604167e+01,   -7.727407e+00
   55925,    2.070552e+00,   -2.708333e+01,   -7.727407e+00
   55926,    2.070552e+00,   -2.812500e+01,   -7.727407e+00
   55927,    2.070552e+00,   -2.916667e+01,   -7.727407e+00
   55928,    2.070552e+00,   -3.020833e+01,   -7.727407e+00
   55929,    2.070552e+00,   -3.125000e+01,   -7.727407e+00
   55930,    2.070552e+00,   -3.229167e+01,   -7.727407e+00
   55931,    2.070552e+00,   -3.333333e+01,   -7.727407e+00
   55932,    2.070552e+00,   -3.437500e+01,   -7.727407e+00
   55933,    2.070552e+00,   -3.541667e+01,   -7.727407e+00
   55934,    2.070552e+00,   -3.645833e+01,   -7.727407e+00
   55935,    2.070552e+00,   -3.750000e+01,   -7.727407e+00
   55936,    2.070552e+00,   -3.854167e+01,   -7.727407e+00
   55937,    2.070552e+00,   -3.958333e+01,   -7.727407e+00
   55938,    2.070552e+00,   -4.062500e+01,   -7.727407e+00
   55939,    2.070552e+00,   -4.166667e+01,   -7.727407e+00
   55940,    2.070552e+00,   -4.270833e+01,   -7.727407e+00
   55941,    2.070552e+00,   -4.375000e+01,   -7.727407e+00
   55942,    2.070552e+00,   -4.479167e+01,   -7.727407e+00
   55943,    2.070552e+00,   -4.583333e+01,   -7.727407e+00
   55944,    2.070552e+00,   -4.687500e+01,   -7.727407e+00
   55945,    2.070552e+00,   -4.791667e+01,   -7.727407e+00
   55946,    2.070552e+00,   -4.895833e+01,   -7.727407e+00
   55947,    4.000000e+00,   -1.041667e+00,   -6.928203e+00
   55948,    4.000000e+00,   -2.083333e+00,   -6.928203e+00
   55949,    4.000000e+00,   -3.125000e+00,   -6.928203e+00
   55950,    4.000000e+00,   -4.166667e+00,   -6.928203e+00
   55951,    4.000000e+00,   -5.208333e+00,   -6.928203e+00
   55952,    4.000000e+00,   -6.250000e+00,   -6.928203e+00
   55953,    4.000000e+00,   -7.291667e+00,   -6.928203e+00
   55954,    4.000000e+00,   -8.333333e+00,   -6.928203e+00
   55955,    4.000000e+00,   -9.375000e+00,   -6.928203e+00
   55956,    4.000000e+00,   -1.041667e+01,   -6.928203e+00
   55957,    4.000000e+00,   -1.145833e+01,   -6.928203e+00
   55958,    4.000000e+00,   -1.250000e+01,   -6.928203e+00
   55959,    4.000000e+00,   -1.354167e+01,   -6.928203e+00
   55960,    4.000000e+00,   -1.458333e+01,   -6.928203e+00
   55961,    4.000000e+00,   -1.562500e+01,   -6.928203e+00
   55962,    4.000000e+00,   -1.666667e+01,   -6.928203e+00
   55963,    4.000000e+00,   -1.770833e+01,   -6.928203e+00
   55964,    4.000000e+00,   -1.875000e+01,   -6.928203e+00
   55965,    4.000000e+00,   -1.979167e+01,   -6.928203e+00
   55966,    4.000000e+00,   -2.083333e+01,   -6.928203e+00
   55967,    4.000000e+00,   -2.187500e+01,   -6.928203e+00
   55968,    4.000000e+00,   -2.291667e+01,   -6.928203e+00
   55969,    4.000000e+00,   -2.395833e+01,   -6.928203e+00
   55970,    4.000000e+00,   -2.500000e+01,   -6.928203e+00
   55971,    4.000000e+00,   -2.604167e+01,   -6.928203e+00
   55972,    4.000000e+00,   -2.708333e+01,   -6.928203e+00
   55973,    4.000000e+00,   -2.812500e+01,   -6.928203e+00
   55974,    4.000000e+00,   -2.916667e+01,   -6.928203e+00
   55975,    4.000000e+00,   -3.020833e+01,   -6.928203e+00
   55976,    4.000000e+00,   -3.125000e+01,   -6.928203e+00
   55977,    4.000000e+00,   -3.229167e+01,   -6.928203e+00
   55978,    4.000000e+00,   -3.333333e+01,   -6.928203e+00
   55979,    4.000000e+00,   -3.437500e+01,   -6.928203e+00
   55980,    4.000000e+00,   -3.541667e+01,   -6.928203e+00
   55981,    4.000000e+00,   -3.645833e+01,   -6.928203e+00
   55982,    4.000000e+00,   -3.750000e+01,   -6.928203e+00
   55983,    4.000000e+00,   -3.854167e+01,   -6.928203e+00
   55984,    4.000000e+00,   -3.958333e+01,   -6.928203e+00
   55985,    4.000000e+00,   -4.062500e+01,   -6.928203e+00
   55986,    4.000000e+00,   -4.166667e+01,   -6.928203e+00
   55987,    4.000000e+00,   -4.270833e+01,   -6.928203e+00
   55988,    4.000000e+00,   -4.375000e+01,   -6.928203e+00
   55989,    4.000000e+00,   -4.479167e+01,   -6.928203e+00
   55990,    4.000000e+00,   -4.583333e+01,   -6.928203e+00
   55991,    4.000000e+00,   -4.687500e+01,   -6.928203e+00
   55992,    4.000000e+00,   -4.791667e+01,   -6.928203e+00
   55993,    4.000000e+00,   -4.895833e+01,   -6.928203e+00
   55994,    5.656854e+00,   -1.041667e+00,   -5.656854e+00
   55995,    5.656854e+00,   -2.083333e+00,   -5.656854e+00
   55996,    5.656854e+00,   -3.125000e+00,   -5.656854e+00
   55997,    5.656854e+00,   -4.166667e+00,   -5.656854e+00
   55998,    5.656854e+00,   -5.208333e+00,   -5.656854e+00
   55999,    5.656854e+00,   -6.250000e+00,   -5.656854e+00
   56000,    5.656854e+00,   -7.291667e+00,   -5.656854e+00
   56001,    5.656854e+00,   -8.333333e+00,   -5.656854e+00
   56002,    5.656854e+00,   -9.375000e+00,   -5.656854e+00
   56003,    5.656854e+00,   -1.041667e+01,   -5.656854e+00
   56004,    5.656854e+00,   -1.145833e+01,   -5.656854e+00
   56005,    5.656854e+00,   -1.250000e+01,   -5.656854e+00
   56006,    5.656854e+00,   -1.354167e+01,   -5.656854e+00
   56007,    5.656854e+00,   -1.458333e+01,   -5.656854e+00
   56008,    5.656854e+00,   -1.562500e+01,   -5.656854e+00
   56009,    5.656854e+00,   -1.666667e+01,   -5.656854e+00
   56010,    5.656854e+00,   -1.770833e+01,   -5.656854e+00
   56011,    5.656854e+00,   -1.875000e+01,   -5.656854e+00
   56012,    5.656854e+00,   -1.979167e+01,   -5.656854e+00
   56013,    5.656854e+00,   -2.083333e+01,   -5.656854e+00
   56014,    5.656854e+00,   -2.187500e+01,   -5.656854e+00
   56015,    5.656854e+00,   -2.291667e+01,   -5.656854e+00
   56016,    5.656854e+00,   -2.395833e+01,   -5.656854e+00
   56017,    5.656854e+00,   -2.500000e+01,   -5.656854e+00
   56018,    5.656854e+00,   -2.604167e+01,   -5.656854e+00
   56019,    5.656854e+00,   -2.708333e+01,   -5.656854e+00
   56020,    5.656854e+00,   -2.812500e+01,   -5.656854e+00
   56021,    5.656854e+00,   -2.916667e+01,   -5.656854e+00
   56022,    5.656854e+00,   -3.020833e+01,   -5.656854e+00
   56023,    5.656854e+00,   -3.125000e+01,   -5.656854e+00
   56024,    5.656854e+00,   -3.229167e+01,   -5.656854e+00
   56025,    5.656854e+00,   -3.333333e+01,   -5.656854e+00
   56026,    5.656854e+00,   -3.437500e+01,   -5.656854e+00
   56027,    5.656854e+00,   -3.541667e+01,   -5.656854e+00
   56028,    5.656854e+00,   -3.645833e+01,   -5.656854e+00
   56029,    5.656854e+00,   -3.750000e+01,   -5.656854e+00
   56030,    5.656854e+00,   -3.854167e+01,   -5.656854e+00
   56031,    5.656854e+00,   -3.958333e+01,   -5.656854e+00
   56032,    5.656854e+00,   -4.062500e+01,   -5.656854e+00
   56033,    5.656854e+00,   -4.166667e+01,   -5.656854e+00
   56034,    5.656854e+00,   -4.270833e+01,   -5.656854e+00
   56035,    5.656854e+00,   -4.375000e+01,   -5.656854e+00
   56036,    5.656854e+00,   -4.479167e+01,   -5.656854e+00
   56037,    5.656854e+00,   -4.583333e+01,   -5.656854e+00
   56038,    5.656854e+00,   -4.687500e+01,   -5.656854e+00
   56039,    5.656854e+00,   -4.791667e+01,   -5.656854e+00
   56040,    5.656854e+00,   -4.895833e+01,   -5.656854e+00
   56041,    6.928203e+00,   -1.041667e+00,   -4.000000e+00
   56042,    6.928203e+00,   -2.083333e+00,   -4.000000e+00
   56043,    6.928203e+00,   -3.125000e+00,   -4.000000e+00
   56044,    6.928203e+00,   -4.166667e+00,   -4.000000e+00
   56045,    6.928203e+00,   -5.208333e+00,   -4.000000e+00
   56046,    6.928203e+00,   -6.250000e+00,   -4.000000e+00
   56047,    6.928203e+00,   -7.291667e+00,   -4.000000e+00
   56048,    6.928203e+00,   -8.333333e+00,   -4.000000e+00
   56049,    6.928203e+00,   -9.375000e+00,   -4.000000e+00
   56050,    6.928203e+00,   -1.041667e+01,   -4.000000e+00
   56051,    6.928203e+00,   -1.145833e+01,   -4.000000e+00
   56052,    6.928203e+00,   -1.250000e+01,   -4.000000e+00
   56053,    6.928203e+00,   -1.354167e+01,   -4.000000e+00
   56054,    6.928203e+00,   -1.458333e+01,   -4.000000e+00
   56055,    6.928203e+00,   -1.562500e+01,   -4.000000e+00
   56056,    6.928203e+00,   -1.666667e+01,   -4.000000e+00
   56057,    6.928203e+00,   -1.770833e+01,   -4.000000e+00
   56058,    6.928203e+00,   -1.875000e+01,   -4.000000e+00
   56059,    6.928203e+00,   -1.979167e+01,   -4.000000e+00
   56060,    6.928203e+00,   -2.083333e+01,   -4.000000e+00
   56061,    6.928203e+00,   -2.187500e+01,   -4.000000e+00
   56062,    6.928203e+00,   -2.291667e+01,   -4.000000e+00
   56063,    6.928203e+00,   -2.395833e+01,   -4.000000e+00
   56064,    6.928203e+00,   -2.500000e+01,   -4.000000e+00
   56065,    6.928203e+00,   -2.604167e+01,   -4.000000e+00
   56066,    6.928203e+00,   -2.708333e+01,   -4.000000e+00
   56067,    6.928203e+00,   -2.812500e+01,   -4.000000e+00
   56068,    6.928203e+00,   -2.916667e+01,   -4.000000e+00
   56069,    6.928203e+00,   -3.020833e+01,   -4.000000e+00
   56070,    6.928203e+00,   -3.125000e+01,   -4.000000e+00
   56071,    6.928203e+00,   -3.229167e+01,   -4.000000e+00
   56072,    6.928203e+00,   -3.333333e+01,   -4.000000e+00
   56073,    6.928203e+00,   -3.437500e+01,   -4.000000e+00
   56074,    6.928203e+00,   -3.541667e+01,   -4.000000e+00
   56075,    6.928203e+00,   -3.645833e+01,   -4.000000e+00
   56076,    6.928203e+00,   -3.750000e+01,   -4.000000e+00
   56077,    6.928203e+00,   -3.854167e+01,   -4.000000e+00
   56078,    6.928203e+00,   -3.958333e+01,   -4.000000e+00
   56079,    6.928203e+00,   -4.062500e+01,   -4.000000e+00
   56080,    6.928203e+00,   -4.166667e+01,   -4.000000e+00
   56081,    6.928203e+00,   -4.270833e+01,   -4.000000e+00
   56082,    6.928203e+00,   -4.375000e+01,   -4.000000e+00
   56083,    6.928203e+00,   -4.479167e+01,   -4.000000e+00
   56084,    6.928203e+00,   -4.583333e+01,   -4.000000e+00
   56085,    6.928203e+00,   -4.687500e+01,   -4.000000e+00
   56086,    6.928203e+00,   -4.791667e+01,   -4.000000e+00
   56087,    6.928203e+00,   -4.895833e+01,   -4.000000e+00
   56088,    7.727407e+00,   -1.041667e+00,   -2.070552e+00
   56089,    7.727407e+00,   -2.083333e+00,   -2.070552e+00
   56090,    7.727407e+00,   -3.125000e+00,   -2.070552e+00
   56091,    7.727407e+00,   -4.166667e+00,   -2.070552e+00
   56092,    7.727407e+00,   -5.208333e+00,   -2.070552e+00
   56093,    7.727407e+00,   -6.250000e+00,   -2.070552e+00
   56094,    7.727407e+00,   -7.291667e+00,   -2.070552e+00
   56095,    7.727407e+00,   -8.333333e+00,   -2.070552e+00
   56096,    7.727407e+00,   -9.375000e+00,   -2.070552e+00
   56097,    7.727407e+00,   -1.041667e+01,   -2.070552e+00
   56098,    7.727407e+00,   -1.145833e+01,   -2.070552e+00
   56099,    7.727407e+00,   -1.250000e+01,   -2.070552e+00
   56100,    7.727407e+00,   -1.354167e+01,   -2.070552e+00
   56101,    7.727407e+00,   -1.458333e+01,   -2.070552e+00
   56102,    7.727407e+00,   -1.562500e+01,   -2.070552e+00
   56103,    7.727407e+00,   -1.666667e+01,   -2.070552e+00
   56104,    7.727407e+00,   -1.770833e+01,   -2.070552e+00
   56105,    7.727407e+00,   -1.875000e+01,   -2.070552e+00
   56106,    7.727407e+00,   -1.979167e+01,   -2.070552e+00
   56107,    7.727407e+00,   -2.083333e+01,   -2.070552e+00
   56108,    7.727407e+00,   -2.187500e+01,   -2.070552e+00
   56109,    7.727407e+00,   -2.291667e+01,   -2.070552e+00
   56110,    7.727407e+00,   -2.395833e+01,   -2.070552e+00
   56111,    7.727407e+00,   -2.500000e+01,   -2.070552e+00
   56112,    7.727407e+00,   -2.604167e+01,   -2.070552e+00
   56113,    7.727407e+00,   -2.708333e+01,   -2.070552e+00
   56114,    7.727407e+00,   -2.812500e+01,   -2.070552e+00
   56115,    7.727407e+00,   -2.916667e+01,   -2.070552e+00
   56116,    7.727407e+00,   -3.020833e+01,   -2.070552e+00
   56117,    7.727407e+00,   -3.125000e+01,   -2.070552e+00
   56118,    7.727407e+00,   -3.229167e+01,   -2.070552e+00
   56119,    7.727407e+00,   -3.333333e+01,   -2.070552e+00
   56120,    7.727407e+00,   -3.437500e+01,   -2.070552e+00
   56121,    7.727407e+00,   -3.541667e+01,   -2.070552e+00
   56122,    7.727407e+00,   -3.645833e+01,   -2.070552e+00
   56123,    7.727407e+00,   -3.750000e+01,   -2.070552e+00
   56124,    7.727407e+00,   -3.854167e+01,   -2.070552e+00
   56125,    7.727407e+00,   -3.958333e+01,   -2.070552e+00
   56126,    7.727407e+00,   -4.062500e+01,   -2.070552e+00
   56127,    7.727407e+00,   -4.166667e+01,   -2.070552e+00
   56128,    7.727407e+00,   -4.270833e+01,   -2.070552e+00
   56129,    7.727407e+00,   -4.375000e+01,   -2.070552e+00
   56130,    7.727407e+00,   -4.479167e+01,   -2.070552e+00
   56131,    7.727407e+00,   -4.583333e+01,   -2.070552e+00
   56132,    7.727407e+00,   -4.687500e+01,   -2.070552e+00
   56133,    7.727407e+00,   -4.791667e+01,   -2.070552e+00
   56134,    7.727407e+00,   -4.895833e+01,   -2.070552e+00
********************************** E L E M E N T S ****************************
*ELEMENT, TYPE=C3D8R, ELSET=anchor
   49569,   54123,   54033,   54022,   54106,   53708,   53688,   53687,   53695
   49570,   54122,   54123,   54106,   54109,   53707,   53708,   53695,   53696
   49571,   54118,   54122,   54109,   54112,   53694,   53707,   53696,   53690
   49572,   54121,   54044,   54033,   54123,   53706,   53689,   53688,   53708
   49573,   54120,   54121,   54123,   54122,   53705,   53706,   53708,   53707
   49574,   54119,   54120,   54122,   54118,   53693,   53705,   53707,   53694
   49575,   54094,   53974,   54044,   54121,   53600,   53595,   53689,   53706
   49576,   54083,   54094,   54121,   54120,   53599,   53600,   53706,   53705
   49577,   54072,   54083,   54120,   54119,   53598,   53599,   53705,   53693
   49578,   54117,   54061,   54072,   54119,   53704,   53597,   53598,   53693
   49579,   54116,   54117,   54119,   54118,   53703,   53704,   53693,   53694
   49580,   54111,   54116,   54118,   54112,   53692,   53703,   53694,   53690
   49581,   54115,   54050,   54061,   54117,   53702,   53596,   53597,   53704
   49582,   54114,   54115,   54117,   54116,   53701,   53702,   53704,   53703
   49583,   54113,   54114,   54116,   54111,   53691,   53701,   53703,   53692
   49584,   53972,   53912,   54050,   54115,   53680,   53589,   53596,   53702
   49585,   53961,   53972,   54115,   54114,   53681,   53680,   53702,   53701
   49586,   53950,   53961,   54114,   54113,   53682,   53681,   53701,   53691
   49587,   54110,   53939,   53950,   54113,   53700,   53683,   53682,   53691
   49588,   54108,   54110,   54113,   54111,   53699,   53700,   53691,   53692
   49589,   54109,   54108,   54111,   54112,   53696,   53699,   53692,   53690
   49590,   54107,   53928,   53939,   54110,   53698,   53684,   53683,   53700
   49591,   54105,   54107,   54110,   54108,   53697,   53698,   53700,   53699
   49592,   54106,   54105,   54108,   54109,   53695,   53697,   53699,   53696
   49593,   54000,   53890,   53928,   54107,   53685,   53679,   53684,   53698
   49594,   54011,   54000,   54107,   54105,   53686,   53685,   53698,   53697
   49595,   54022,   54011,   54105,   54106,   53687,   53686,   53697,   53695
   49596,   54142,   54032,   54021,   54125,   54123,   54033,   54022,   54106
   49597,   54141,   54142,   54125,   54128,   54122,   54123,   54106,   54109
   49598,   54137,   54141,   54128,   54131,   54118,   54122,   54109,   54112
   49599,   54140,   54043,   54032,   54142,   54121,   54044,   54033,   54123
   49600,   54139,   54140,   54142,   54141,   54120,   54121,   54123,   54122
   49601,   54138,   54139,   54141,   54137,   54119,   54120,   54122,   54118
   49602,   54095,   53975,   54043,   54140,   54094,   53974,   54044,   54121
   49603,   54084,   54095,   54140,   54139,   54083,   54094,   54121,   54120
   49604,   54073,   54084,   54139,   54138,   54072,   54083,   54120,   54119
   49605,   54136,   54062,   54073,   54138,   54117,   54061,   54072,   54119
   49606,   54135,   54136,   54138,   54137,   54116,   54117,   54119,   54118
   49607,   54130,   54135,   54137,   54131,   54111,   54116,   54118,   54112
   49608,   54134,   54051,   54062,   54136,   54115,   54050,   54061,   54117
   49609,   54133,   54134,   54136,   54135,   54114,   54115,   54117,   54116
   49610,   54132,   54133,   54135,   54130,   54113,   54114,   54116,   54111
   49611,   53971,   53911,   54051,   54134,   53972,   53912,   54050,   54115
   49612,   53960,   53971,   54134,   54133,   53961,   53972,   54115,   54114
   49613,   53949,   53960,   54133,   54132,   53950,   53961,   54114,   54113
   49614,   54129,   53938,   53949,   54132,   54110,   53939,   53950,   54113
   49615,   54127,   54129,   54132,   54130,   54108,   54110,   54113,   54111
   49616,   54128,   54127,   54130,   54131,   54109,   54108,   54111,   54112
   49617,   54126,   53927,   53938,   54129,   54107,   53928,   53939,   54110
   49618,   54124,   54126,   54129,   54127,   54105,   54107,   54110,   54108
   49619,   54125,   54124,   54127,   54128,   54106,   54105,   54108,   54109
   49620,   53999,   53891,   53927,   54126,   54000,   53890,   53928,   54107
   49621,   54010,   53999,   54126,   54124,   54011,   54000,   54107,   54105
   49622,   54021,   54010,   54124,   54125,   54022,   54011,   54105,   54106
   49623,   54161,   54031,   54020,   54144,   54142,   54032,   54021,   54125
   49624,   54160,   54161,   54144,   54147,   54141,   54142,   54125,   54128
   49625,   54156,   54160,   54147,   54150,   54137,   54141,   54128,   54131
   49626,   54159,   54042,   54031,   54161,   54140,   54043,   54032,   54142
   49627,   54158,   54159,   54161,   54160,   54139,   54140,   54142,   54141
   49628,   54157,   54158,   54160,   54156,   54138,   54139,   54141,   54137
   49629,   54096,   53976,   54042,   54159,   54095,   53975,   54043,   54140
   49630,   54085,   54096,   54159,   54158,   54084,   54095,   54140,   54139
   49631,   54074,   54085,   54158,   54157,   54073,   54084,   54139,   54138
   49632,   54155,   54063,   54074,   54157,   54136,   54062,   54073,   54138
   49633,   54154,   54155,   54157,   54156,   54135,   54136,   54138,   54137
   49634,   54149,   54154,   54156,   54150,   54130,   54135,   54137,   54131
   49635,   54153,   54052,   54063,   54155,   54134,   54051,   54062,   54136
   49636,   54152,   54153,   54155,   54154,   54133,   54134,   54136,   54135
   49637,   54151,   54152,   54154,   54149,   54132,   54133,   54135,   54130
   49638,   53970,   53910,   54052,   54153,   53971,   53911,   54051,   54134
   49639,   53959,   53970,   54153,   54152,   53960,   53971,   54134,   54133
   49640,   53948,   53959,   54152,   54151,   53949,   53960,   54133,   54132
   49641,   54148,   53937,   53948,   54151,   54129,   53938,   53949,   54132
   49642,   54146,   54148,   54151,   54149,   54127,   54129,   54132,   54130
   49643,   54147,   54146,   54149,   54150,   54128,   54127,   54130,   54131
   49644,   54145,   53926,   53937,   54148,   54126,   53927,   53938,   54129
   49645,   54143,   54145,   54148,   54146,   54124,   54126,   54129,   54127
   49646,   54144,   54143,   54146,   54147,   54125,   54124,   54127,   54128
   49647,   53998,   53892,   53926,   54145,   53999,   53891,   53927,   54126
   49648,   54009,   53998,   54145,   54143,   54010,   53999,   54126,   54124
   49649,   54020,   54009,   54143,   54144,   54021,   54010,   54124,   54125
   49650,   54180,   54030,   54019,   54163,   54161,   54031,   54020,   54144
   49651,   54179,   54180,   54163,   54166,   54160,   54161,   54144,   54147
   49652,   54175,   54179,   54166,   54169,   54156,   54160,   54147,   54150
   49653,   54178,   54041,   54030,   54180,   54159,   54042,   54031,   54161
   49654,   54177,   54178,   54180,   54179,   54158,   54159,   54161,   54160
   49655,   54176,   54177,   54179,   54175,   54157,   54158,   54160,   54156
   49656,   54097,   53977,   54041,   54178,   54096,   53976,   54042,   54159
   49657,   54086,   54097,   54178,   54177,   54085,   54096,   54159,   54158
   49658,   54075,   54086,   54177,   54176,   54074,   54085,   54158,   54157
   49659,   54174,   54064,   54075,   54176,   54155,   54063,   54074,   54157
   49660,   54173,   54174,   54176,   54175,   54154,   54155,   54157,   54156
   49661,   54168,   54173,   54175,   54169,   54149,   54154,   54156,   54150
   49662,   54172,   54053,   54064,   54174,   54153,   54052,   54063,   54155
   49663,   54171,   54172,   54174,   54173,   54152,   54153,   54155,   54154
   49664,   54170,   54171,   54173,   54168,   54151,   54152,   54154,   54149
   49665,   53969,   53909,   54053,   54172,   53970,   53910,   54052,   54153
   49666,   53958,   53969,   54172,   54171,   53959,   53970,   54153,   54152
   49667,   53947,   53958,   54171,   54170,   53948,   53959,   54152,   54151
   49668,   54167,   53936,   53947,   54170,   54148,   53937,   53948,   54151
   49669,   54165,   54167,   54170,   54168,   54146,   54148,   54151,   54149
   49670,   54166,   54165,   54168,   54169,   54147,   54146,   54149,   54150
   49671,   54164,   53925,   53936,   54167,   54145,   53926,   53937,   54148
   49672,   54162,   54164,   54167,   54165,   54143,   54145,   54148,   54146
   49673,   54163,   54162,   54165,   54166,   54144,   54143,   54146,   54147
   49674,   53997,   53893,   53925,   54164,   53998,   53892,   53926,   54145
   49675,   54008,   53997,   54164,   54162,   54009,   53998,   54145,   54143
   49676,   54019,   54008,   54162,   54163,   54020,   54009,   54143,   54144
   49677,   54199,   54029,   54018,   54182,   54180,   54030,   54019,   54163
   49678,   54198,   54199,   54182,   54185,   54179,   54180,   54163,   54166
   49679,   54194,   54198,   54185,   54188,   54175,   54179,   54166,   54169
   49680,   54197,   54040,   54029,   54199,   54178,   54041,   54030,   54180
   49681,   54196,   54197,   54199,   54198,   54177,   54178,   54180,   54179
   49682,   54195,   54196,   54198,   54194,   54176,   54177,   54179,   54175
   49683,   54098,   53978,   54040,   54197,   54097,   53977,   54041,   54178
   49684,   54087,   54098,   54197,   54196,   54086,   54097,   54178,   54177
   49685,   54076,   54087,   54196,   54195,   54075,   54086,   54177,   54176
   49686,   54193,   54065,   54076,   54195,   54174,   54064,   54075,   54176
   49687,   54192,   54193,   54195,   54194,   54173,   54174,   54176,   54175
   49688,   54187,   54192,   54194,   54188,   54168,   54173,   54175,   54169
   49689,   54191,   54054,   54065,   54193,   54172,   54053,   54064,   54174
   49690,   54190,   54191,   54193,   54192,   54171,   54172,   54174,   54173
   49691,   54189,   54190,   54192,   54187,   54170,   54171,   54173,   54168
   49692,   53968,   53908,   54054,   54191,   53969,   53909,   54053,   54172
   49693,   53957,   53968,   54191,   54190,   53958,   53969,   54172,   54171
   49694,   53946,   53957,   54190,   54189,   53947,   53958,   54171,   54170
   49695,   54186,   53935,   53946,   54189,   54167,   53936,   53947,   54170
   49696,   54184,   54186,   54189,   54187,   54165,   54167,   54170,   54168
   49697,   54185,   54184,   54187,   54188,   54166,   54165,   54168,   54169
   49698,   54183,   53924,   53935,   54186,   54164,   53925,   53936,   54167
   49699,   54181,   54183,   54186,   54184,   54162,   54164,   54167,   54165
   49700,   54182,   54181,   54184,   54185,   54163,   54162,   54165,   54166
   49701,   53996,   53894,   53924,   54183,   53997,   53893,   53925,   54164
   49702,   54007,   53996,   54183,   54181,   54008,   53997,   54164,   54162
   49703,   54018,   54007,   54181,   54182,   54019,   54008,   54162,   54163
   49704,   54218,   54028,   54017,   54201,   54199,   54029,   54018,   54182
   49705,   54217,   54218,   54201,   54204,   54198,   54199,   54182,   54185
   49706,   54213,   54217,   54204,   54207,   54194,   54198,   54185,   54188
   49707,   54216,   54039,   54028,   54218,   54197,   54040,   54029,   54199
   49708,   54215,   54216,   54218,   54217,   54196,   54197,   54199,   54198
   49709,   54214,   54215,   54217,   54213,   54195,   54196,   54198,   54194
   49710,   54099,   53979,   54039,   54216,   54098,   53978,   54040,   54197
   49711,   54088,   54099,   54216,   54215,   54087,   54098,   54197,   54196
   49712,   54077,   54088,   54215,   54214,   54076,   54087,   54196,   54195
   49713,   54212,   54066,   54077,   54214,   54193,   54065,   54076,   54195
   49714,   54211,   54212,   54214,   54213,   54192,   54193,   54195,   54194
   49715,   54206,   54211,   54213,   54207,   54187,   54192,   54194,   54188
   49716,   54210,   54055,   54066,   54212,   54191,   54054,   54065,   54193
   49717,   54209,   54210,   54212,   54211,   54190,   54191,   54193,   54192
   49718,   54208,   54209,   54211,   54206,   54189,   54190,   54192,   54187
   49719,   53967,   53907,   54055,   54210,   53968,   53908,   54054,   54191
   49720,   53956,   53967,   54210,   54209,   53957,   53968,   54191,   54190
   49721,   53945,   53956,   54209,   54208,   53946,   53957,   54190,   54189
   49722,   54205,   53934,   53945,   54208,   54186,   53935,   53946,   54189
   49723,   54203,   54205,   54208,   54206,   54184,   54186,   54189,   54187
   49724,   54204,   54203,   54206,   54207,   54185,   54184,   54187,   54188
   49725,   54202,   53923,   53934,   54205,   54183,   53924,   53935,   54186
   49726,   54200,   54202,   54205,   54203,   54181,   54183,   54186,   54184
   49727,   54201,   54200,   54203,   54204,   54182,   54181,   54184,   54185
   49728,   53995,   53895,   53923,   54202,   53996,   53894,   53924,   54183
   49729,   54006,   53995,   54202,   54200,   54007,   53996,   54183,   54181
   49730,   54017,   54006,   54200,   54201,   54018,   54007,   54181,   54182
   49731,   54237,   54027,   54016,   54220,   54218,   54028,   54017,   54201
   49732,   54236,   54237,   54220,   54223,   54217,   54218,   54201,   54204
   49733,   54232,   54236,   54223,   54226,   54213,   54217,   54204,   54207
   49734,   54235,   54038,   54027,   54237,   54216,   54039,   54028,   54218
   49735,   54234,   54235,   54237,   54236,   54215,   54216,   54218,   54217
   49736,   54233,   54234,   54236,   54232,   54214,   54215,   54217,   54213
   49737,   54100,   53980,   54038,   54235,   54099,   53979,   54039,   54216
   49738,   54089,   54100,   54235,   54234,   54088,   54099,   54216,   54215
   49739,   54078,   54089,   54234,   54233,   54077,   54088,   54215,   54214
   49740,   54231,   54067,   54078,   54233,   54212,   54066,   54077,   54214
   49741,   54230,   54231,   54233,   54232,   54211,   54212,   54214,   54213
   49742,   54225,   54230,   54232,   54226,   54206,   54211,   54213,   54207
   49743,   54229,   54056,   54067,   54231,   54210,   54055,   54066,   54212
   49744,   54228,   54229,   54231,   54230,   54209,   54210,   54212,   54211
   49745,   54227,   54228,   54230,   54225,   54208,   54209,   54211,   54206
   49746,   53966,   53906,   54056,   54229,   53967,   53907,   54055,   54210
   49747,   53955,   53966,   54229,   54228,   53956,   53967,   54210,   54209
   49748,   53944,   53955,   54228,   54227,   53945,   53956,   54209,   54208
   49749,   54224,   53933,   53944,   54227,   54205,   53934,   53945,   54208
   49750,   54222,   54224,   54227,   54225,   54203,   54205,   54208,   54206
   49751,   54223,   54222,   54225,   54226,   54204,   54203,   54206,   54207
   49752,   54221,   53922,   53933,   54224,   54202,   53923,   53934,   54205
   49753,   54219,   54221,   54224,   54222,   54200,   54202,   54205,   54203
   49754,   54220,   54219,   54222,   54223,   54201,   54200,   54203,   54204
   49755,   53994,   53896,   53922,   54221,   53995,   53895,   53923,   54202
   49756,   54005,   53994,   54221,   54219,   54006,   53995,   54202,   54200
   49757,   54016,   54005,   54219,   54220,   54017,   54006,   54200,   54201
   49758,   54256,   54026,   54015,   54239,   54237,   54027,   54016,   54220
   49759,   54255,   54256,   54239,   54242,   54236,   54237,   54220,   54223
   49760,   54251,   54255,   54242,   54245,   54232,   54236,   54223,   54226
   49761,   54254,   54037,   54026,   54256,   54235,   54038,   54027,   54237
   49762,   54253,   54254,   54256,   54255,   54234,   54235,   54237,   54236
   49763,   54252,   54253,   54255,   54251,   54233,   54234,   54236,   54232
   49764,   54101,   53981,   54037,   54254,   54100,   53980,   54038,   54235
   49765,   54090,   54101,   54254,   54253,   54089,   54100,   54235,   54234
   49766,   54079,   54090,   54253,   54252,   54078,   54089,   54234,   54233
   49767,   54250,   54068,   54079,   54252,   54231,   54067,   54078,   54233
   49768,   54249,   54250,   54252,   54251,   54230,   54231,   54233,   54232
   49769,   54244,   54249,   54251,   54245,   54225,   54230,   54232,   54226
   49770,   54248,   54057,   54068,   54250,   54229,   54056,   54067,   54231
   49771,   54247,   54248,   54250,   54249,   54228,   54229,   54231,   54230
   49772,   54246,   54247,   54249,   54244,   54227,   54228,   54230,   54225
   49773,   53965,   53905,   54057,   54248,   53966,   53906,   54056,   54229
   49774,   53954,   53965,   54248,   54247,   53955,   53966,   54229,   54228
   49775,   53943,   53954,   54247,   54246,   53944,   53955,   54228,   54227
   49776,   54243,   53932,   53943,   54246,   54224,   53933,   53944,   54227
   49777,   54241,   54243,   54246,   54244,   54222,   54224,   54227,   54225
   49778,   54242,   54241,   54244,   54245,   54223,   54222,   54225,   54226
   49779,   54240,   53921,   53932,   54243,   54221,   53922,   53933,   54224
   49780,   54238,   54240,   54243,   54241,   54219,   54221,   54224,   54222
   49781,   54239,   54238,   54241,   54242,   54220,   54219,   54222,   54223
   49782,   53993,   53897,   53921,   54240,   53994,   53896,   53922,   54221
   49783,   54004,   53993,   54240,   54238,   54005,   53994,   54221,   54219
   49784,   54015,   54004,   54238,   54239,   54016,   54005,   54219,   54220
   49785,   54275,   54025,   54014,   54258,   54256,   54026,   54015,   54239
   49786,   54274,   54275,   54258,   54261,   54255,   54256,   54239,   54242
   49787,   54270,   54274,   54261,   54264,   54251,   54255,   54242,   54245
   49788,   54273,   54036,   54025,   54275,   54254,   54037,   54026,   54256
   49789,   54272,   54273,   54275,   54274,   54253,   54254,   54256,   54255
   49790,   54271,   54272,   54274,   54270,   54252,   54253,   54255,   54251
   49791,   54102,   53982,   54036,   54273,   54101,   53981,   54037,   54254
   49792,   54091,   54102,   54273,   54272,   54090,   54101,   54254,   54253
   49793,   54080,   54091,   54272,   54271,   54079,   54090,   54253,   54252
   49794,   54269,   54069,   54080,   54271,   54250,   54068,   54079,   54252
   49795,   54268,   54269,   54271,   54270,   54249,   54250,   54252,   54251
   49796,   54263,   54268,   54270,   54264,   54244,   54249,   54251,   54245
   49797,   54267,   54058,   54069,   54269,   54248,   54057,   54068,   54250
   49798,   54266,   54267,   54269,   54268,   54247,   54248,   54250,   54249
   49799,   54265,   54266,   54268,   54263,   54246,   54247,   54249,   54244
   49800,   53964,   53904,   54058,   54267,   53965,   53905,   54057,   54248
   49801,   53953,   53964,   54267,   54266,   53954,   53965,   54248,   54247
   49802,   53942,   53953,   54266,   54265,   53943,   53954,   54247,   54246
   49803,   54262,   53931,   53942,   54265,   54243,   53932,   53943,   54246
   49804,   54260,   54262,   54265,   54263,   54241,   54243,   54246,   54244
   49805,   54261,   54260,   54263,   54264,   54242,   54241,   54244,   54245
   49806,   54259,   53920,   53931,   54262,   54240,   53921,   53932,   54243
   49807,   54257,   54259,   54262,   54260,   54238,   54240,   54243,   54241
   49808,   54258,   54257,   54260,   54261,   54239,   54238,   54241,   54242
   49809,   53992,   53898,   53920,   54259,   53993,   53897,   53921,   54240
   49810,   54003,   53992,   54259,   54257,   54004,   53993,   54240,   54238
   49811,   54014,   54003,   54257,   54258,   54015,   54004,   54238,   54239
   49812,   54294,   54024,   54013,   54277,   54275,   54025,   54014,   54258
   49813,   54293,   54294,   54277,   54280,   54274,   54275,   54258,   54261
   49814,   54289,   54293,   54280,   54283,   54270,   54274,   54261,   54264
   49815,   54292,   54035,   54024,   54294,   54273,   54036,   54025,   54275
   49816,   54291,   54292,   54294,   54293,   54272,   54273,   54275,   54274
   49817,   54290,   54291,   54293,   54289,   54271,   54272,   54274,   54270
   49818,   54103,   53983,   54035,   54292,   54102,   53982,   54036,   54273
   49819,   54092,   54103,   54292,   54291,   54091,   54102,   54273,   54272
   49820,   54081,   54092,   54291,   54290,   54080,   54091,   54272,   54271
   49821,   54288,   54070,   54081,   54290,   54269,   54069,   54080,   54271
   49822,   54287,   54288,   54290,   54289,   54268,   54269,   54271,   54270
   49823,   54282,   54287,   54289,   54283,   54263,   54268,   54270,   54264
   49824,   54286,   54059,   54070,   54288,   54267,   54058,   54069,   54269
   49825,   54285,   54286,   54288,   54287,   54266,   54267,   54269,   54268
   49826,   54284,   54285,   54287,   54282,   54265,   54266,   54268,   54263
   49827,   53963,   53903,   54059,   54286,   53964,   53904,   54058,   54267
   49828,   53952,   53963,   54286,   54285,   53953,   53964,   54267,   54266
   49829,   53941,   53952,   54285,   54284,   53942,   53953,   54266,   54265
   49830,   54281,   53930,   53941,   54284,   54262,   53931,   53942,   54265
   49831,   54279,   54281,   54284,   54282,   54260,   54262,   54265,   54263
   49832,   54280,   54279,   54282,   54283,   54261,   54260,   54263,   54264
   49833,   54278,   53919,   53930,   54281,   54259,   53920,   53931,   54262
   49834,   54276,   54278,   54281,   54279,   54257,   54259,   54262,   54260
   49835,   54277,   54276,   54279,   54280,   54258,   54257,   54260,   54261
   49836,   53991,   53899,   53919,   54278,   53992,   53898,   53920,   54259
   49837,   54002,   53991,   54278,   54276,   54003,   53992,   54259,   54257
   49838,   54013,   54002,   54276,   54277,   54014,   54003,   54257,   54258
   49839,   54313,   54023,   54012,   54296,   54294,   54024,   54013,   54277
   49840,   54312,   54313,   54296,   54299,   54293,   54294,   54277,   54280
   49841,   54308,   54312,   54299,   54302,   54289,   54293,   54280,   54283
   49842,   54311,   54034,   54023,   54313,   54292,   54035,   54024,   54294
   49843,   54310,   54311,   54313,   54312,   54291,   54292,   54294,   54293
   49844,   54309,   54310,   54312,   54308,   54290,   54291,   54293,   54289
   49845,   54104,   53984,   54034,   54311,   54103,   53983,   54035,   54292
   49846,   54093,   54104,   54311,   54310,   54092,   54103,   54292,   54291
   49847,   54082,   54093,   54310,   54309,   54081,   54092,   54291,   54290
   49848,   54307,   54071,   54082,   54309,   54288,   54070,   54081,   54290
   49849,   54306,   54307,   54309,   54308,   54287,   54288,   54290,   54289
   49850,   54301,   54306,   54308,   54302,   54282,   54287,   54289,   54283
   49851,   54305,   54060,   54071,   54307,   54286,   54059,   54070,   54288
   49852,   54304,   54305,   54307,   54306,   54285,   54286,   54288,   54287
   49853,   54303,   54304,   54306,   54301,   54284,   54285,   54287,   54282
   49854,   53962,   53902,   54060,   54305,   53963,   53903,   54059,   54286
   49855,   53951,   53962,   54305,   54304,   53952,   53963,   54286,   54285
   49856,   53940,   53951,   54304,   54303,   53941,   53952,   54285,   54284
   49857,   54300,   53929,   53940,   54303,   54281,   53930,   53941,   54284
   49858,   54298,   54300,   54303,   54301,   54279,   54281,   54284,   54282
   49859,   54299,   54298,   54301,   54302,   54280,   54279,   54282,   54283
   49860,   54297,   53918,   53929,   54300,   54278,   53919,   53930,   54281
   49861,   54295,   54297,   54300,   54298,   54276,   54278,   54281,   54279
   49862,   54296,   54295,   54298,   54299,   54277,   54276,   54279,   54280
   49863,   53990,   53900,   53918,   54297,   53991,   53899,   53919,   54278
   49864,   54001,   53990,   54297,   54295,   54002,   53991,   54278,   54276
   49865,   54012,   54001,   54295,   54296,   54013,   54002,   54276,   54277
   49866,   54332,   53986,   53987,   54315,   54313,   54023,   54012,   54296
   49867,   54331,   54332,   54315,   54318,   54312,   54313,   54296,   54299
   49868,   54327,   54331,   54318,   54321,   54308,   54312,   54299,   54302
   49869,   54330,   53985,   53986,   54332,   54311,   54034,   54023,   54313
   49870,   54329,   54330,   54332,   54331,   54310,   54311,   54313,   54312
   49871,   54328,   54329,   54331,   54327,   54309,   54310,   54312,   54308
   49872,   54045,   53973,   53985,   54330,   54104,   53984,   54034,   54311
   49873,   54046,   54045,   54330,   54329,   54093,   54104,   54311,   54310
   49874,   54047,   54046,   54329,   54328,   54082,   54093,   54310,   54309
   49875,   54326,   54048,   54047,   54328,   54307,   54071,   54082,   54309
   49876,   54325,   54326,   54328,   54327,   54306,   54307,   54309,   54308
   49877,   54320,   54325,   54327,   54321,   54301,   54306,   54308,   54302
   49878,   54324,   54049,   54048,   54326,   54305,   54060,   54071,   54307
   49879,   54323,   54324,   54326,   54325,   54304,   54305,   54307,   54306
   49880,   54322,   54323,   54325,   54320,   54303,   54304,   54306,   54301
   49881,   53917,   53901,   54049,   54324,   53962,   53902,   54060,   54305
   49882,   53916,   53917,   54324,   54323,   53951,   53962,   54305,   54304
   49883,   53915,   53916,   54323,   54322,   53940,   53951,   54304,   54303
   49884,   54319,   53914,   53915,   54322,   54300,   53929,   53940,   54303
   49885,   54317,   54319,   54322,   54320,   54298,   54300,   54303,   54301
   49886,   54318,   54317,   54320,   54321,   54299,   54298,   54301,   54302
   49887,   54316,   53913,   53914,   54319,   54297,   53918,   53929,   54300
   49888,   54314,   54316,   54319,   54317,   54295,   54297,   54300,   54298
   49889,   54315,   54314,   54317,   54318,   54296,   54295,   54298,   54299
   49890,   53989,   53889,   53913,   54316,   53990,   53900,   53918,   54297
   49891,   53988,   53989,   54316,   54314,   54001,   53990,   54297,   54295
   49892,   53987,   53988,   54314,   54315,   54012,   54001,   54295,   54296
   49893,   53708,   53688,   53687,   53695,   53793,   53765,   53760,   53775
   49894,   53707,   53708,   53695,   53696,   53792,   53793,   53775,   53778
   49895,   53694,   53707,   53696,   53690,   53788,   53792,   53778,   53781
   49896,   53706,   53689,   53688,   53708,   53791,   53770,   53765,   53793
   49897,   53705,   53706,   53708,   53707,   53790,   53791,   53793,   53792
   49898,   53693,   53705,   53707,   53694,   53789,   53790,   53792,   53788
   49899,   53600,   53595,   53689,   53706,   53636,   53606,   53770,   53791
   49900,   53599,   53600,   53706,   53705,   53631,   53636,   53791,   53790
   49901,   53598,   53599,   53705,   53693,   53626,   53631,   53790,   53789
   49902,   53704,   53597,   53598,   53693,   53787,   53621,   53626,   53789
   49903,   53703,   53704,   53693,   53694,   53786,   53787,   53789,   53788
   49904,   53692,   53703,   53694,   53690,   53782,   53786,   53788,   53781
   49905,   53702,   53596,   53597,   53704,   53785,   53616,   53621,   53787
   49906,   53701,   53702,   53704,   53703,   53784,   53785,   53787,   53786
   49907,   53691,   53701,   53703,   53692,   53783,   53784,   53786,   53782
   49908,   53680,   53589,   53596,   53702,   53740,   53590,   53616,   53785
   49909,   53681,   53680,   53702,   53701,   53735,   53740,   53785,   53784
   49910,   53682,   53681,   53701,   53691,   53730,   53735,   53784,   53783
   49911,   53700,   53683,   53682,   53691,   53780,   53725,   53730,   53783
   49912,   53699,   53700,   53691,   53692,   53779,   53780,   53783,   53782
   49913,   53696,   53699,   53692,   53690,   53778,   53779,   53782,   53781
   49914,   53698,   53684,   53683,   53700,   53777,   53720,   53725,   53780
   49915,   53697,   53698,   53700,   53699,   53776,   53777,   53780,   53779
   49916,   53695,   53697,   53699,   53696,   53775,   53776,   53779,   53778
   49917,   53685,   53679,   53684,   53698,   53750,   53714,   53720,   53777
   49918,   53686,   53685,   53698,   53697,   53755,   53750,   53777,   53776
   49919,   53687,   53686,   53697,   53695,   53760,   53755,   53776,   53775
   49920,   53793,   53765,   53760,   53775,   53812,   53766,   53761,   53794
   49921,   53792,   53793,   53775,   53778,   53811,   53812,   53794,   53797
   49922,   53788,   53792,   53778,   53781,   53807,   53811,   53797,   53800
   49923,   53791,   53770,   53765,   53793,   53810,   53771,   53766,   53812
   49924,   53790,   53791,   53793,   53792,   53809,   53810,   53812,   53811
   49925,   53789,   53790,   53792,   53788,   53808,   53809,   53811,   53807
   49926,   53636,   53606,   53770,   53791,   53635,   53605,   53771,   53810
   49927,   53631,   53636,   53791,   53790,   53630,   53635,   53810,   53809
   49928,   53626,   53631,   53790,   53789,   53625,   53630,   53809,   53808
   49929,   53787,   53621,   53626,   53789,   53806,   53620,   53625,   53808
   49930,   53786,   53787,   53789,   53788,   53805,   53806,   53808,   53807
   49931,   53782,   53786,   53788,   53781,   53801,   53805,   53807,   53800
   49932,   53785,   53616,   53621,   53787,   53804,   53615,   53620,   53806
   49933,   53784,   53785,   53787,   53786,   53803,   53804,   53806,   53805
   49934,   53783,   53784,   53786,   53782,   53802,   53803,   53805,   53801
   49935,   53740,   53590,   53616,   53785,   53741,   53591,   53615,   53804
   49936,   53735,   53740,   53785,   53784,   53736,   53741,   53804,   53803
   49937,   53730,   53735,   53784,   53783,   53731,   53736,   53803,   53802
   49938,   53780,   53725,   53730,   53783,   53799,   53726,   53731,   53802
   49939,   53779,   53780,   53783,   53782,   53798,   53799,   53802,   53801
   49940,   53778,   53779,   53782,   53781,   53797,   53798,   53801,   53800
   49941,   53777,   53720,   53725,   53780,   53796,   53721,   53726,   53799
   49942,   53776,   53777,   53780,   53779,   53795,   53796,   53799,   53798
   49943,   53775,   53776,   53779,   53778,   53794,   53795,   53798,   53797
   49944,   53750,   53714,   53720,   53777,   53751,   53713,   53721,   53796
   49945,   53755,   53750,   53777,   53776,   53756,   53751,   53796,   53795
   49946,   53760,   53755,   53776,   53775,   53761,   53756,   53795,   53794
   49947,   53812,   53766,   53761,   53794,   53831,   53767,   53762,   53813
   49948,   53811,   53812,   53794,   53797,   53830,   53831,   53813,   53816
   49949,   53807,   53811,   53797,   53800,   53826,   53830,   53816,   53819
   49950,   53810,   53771,   53766,   53812,   53829,   53772,   53767,   53831
   49951,   53809,   53810,   53812,   53811,   53828,   53829,   53831,   53830
   49952,   53808,   53809,   53811,   53807,   53827,   53828,   53830,   53826
   49953,   53635,   53605,   53771,   53810,   53634,   53604,   53772,   53829
   49954,   53630,   53635,   53810,   53809,   53629,   53634,   53829,   53828
   49955,   53625,   53630,   53809,   53808,   53624,   53629,   53828,   53827
   49956,   53806,   53620,   53625,   53808,   53825,   53619,   53624,   53827
   49957,   53805,   53806,   53808,   53807,   53824,   53825,   53827,   53826
   49958,   53801,   53805,   53807,   53800,   53820,   53824,   53826,   53819
   49959,   53804,   53615,   53620,   53806,   53823,   53614,   53619,   53825
   49960,   53803,   53804,   53806,   53805,   53822,   53823,   53825,   53824
   49961,   53802,   53803,   53805,   53801,   53821,   53822,   53824,   53820
   49962,   53741,   53591,   53615,   53804,   53742,   53592,   53614,   53823
   49963,   53736,   53741,   53804,   53803,   53737,   53742,   53823,   53822
   49964,   53731,   53736,   53803,   53802,   53732,   53737,   53822,   53821
   49965,   53799,   53726,   53731,   53802,   53818,   53727,   53732,   53821
   49966,   53798,   53799,   53802,   53801,   53817,   53818,   53821,   53820
   49967,   53797,   53798,   53801,   53800,   53816,   53817,   53820,   53819
   49968,   53796,   53721,   53726,   53799,   53815,   53722,   53727,   53818
   49969,   53795,   53796,   53799,   53798,   53814,   53815,   53818,   53817
   49970,   53794,   53795,   53798,   53797,   53813,   53814,   53817,   53816
   49971,   53751,   53713,   53721,   53796,   53752,   53712,   53722,   53815
   49972,   53756,   53751,   53796,   53795,   53757,   53752,   53815,   53814
   49973,   53761,   53756,   53795,   53794,   53762,   53757,   53814,   53813
   49974,   53831,   53767,   53762,   53813,   53850,   53768,   53763,   53832
   49975,   53830,   53831,   53813,   53816,   53849,   53850,   53832,   53835
   49976,   53826,   53830,   53816,   53819,   53845,   53849,   53835,   53838
   49977,   53829,   53772,   53767,   53831,   53848,   53773,   53768,   53850
   49978,   53828,   53829,   53831,   53830,   53847,   53848,   53850,   53849
   49979,   53827,   53828,   53830,   53826,   53846,   53847,   53849,   53845
   49980,   53634,   53604,   53772,   53829,   53633,   53603,   53773,   53848
   49981,   53629,   53634,   53829,   53828,   53628,   53633,   53848,   53847
   49982,   53624,   53629,   53828,   53827,   53623,   53628,   53847,   53846
   49983,   53825,   53619,   53624,   53827,   53844,   53618,   53623,   53846
   49984,   53824,   53825,   53827,   53826,   53843,   53844,   53846,   53845
   49985,   53820,   53824,   53826,   53819,   53839,   53843,   53845,   53838
   49986,   53823,   53614,   53619,   53825,   53842,   53613,   53618,   53844
   49987,   53822,   53823,   53825,   53824,   53841,   53842,   53844,   53843
   49988,   53821,   53822,   53824,   53820,   53840,   53841,   53843,   53839
   49989,   53742,   53592,   53614,   53823,   53743,   53593,   53613,   53842
   49990,   53737,   53742,   53823,   53822,   53738,   53743,   53842,   53841
   49991,   53732,   53737,   53822,   53821,   53733,   53738,   53841,   53840
   49992,   53818,   53727,   53732,   53821,   53837,   53728,   53733,   53840
   49993,   53817,   53818,   53821,   53820,   53836,   53837,   53840,   53839
   49994,   53816,   53817,   53820,   53819,   53835,   53836,   53839,   53838
   49995,   53815,   53722,   53727,   53818,   53834,   53723,   53728,   53837
   49996,   53814,   53815,   53818,   53817,   53833,   53834,   53837,   53836
   49997,   53813,   53814,   53817,   53816,   53832,   53833,   53836,   53835
   49998,   53752,   53712,   53722,   53815,   53753,   53711,   53723,   53834
   49999,   53757,   53752,   53815,   53814,   53758,   53753,   53834,   53833
   50000,   53762,   53757,   53814,   53813,   53763,   53758,   53833,   53832
   50001,   53850,   53768,   53763,   53832,   53869,   53769,   53764,   53851
   50002,   53849,   53850,   53832,   53835,   53868,   53869,   53851,   53854
   50003,   53845,   53849,   53835,   53838,   53864,   53868,   53854,   53857
   50004,   53848,   53773,   53768,   53850,   53867,   53774,   53769,   53869
   50005,   53847,   53848,   53850,   53849,   53866,   53867,   53869,   53868
   50006,   53846,   53847,   53849,   53845,   53865,   53866,   53868,   53864
   50007,   53633,   53603,   53773,   53848,   53632,   53602,   53774,   53867
   50008,   53628,   53633,   53848,   53847,   53627,   53632,   53867,   53866
   50009,   53623,   53628,   53847,   53846,   53622,   53627,   53866,   53865
   50010,   53844,   53618,   53623,   53846,   53863,   53617,   53622,   53865
   50011,   53843,   53844,   53846,   53845,   53862,   53863,   53865,   53864
   50012,   53839,   53843,   53845,   53838,   53858,   53862,   53864,   53857
   50013,   53842,   53613,   53618,   53844,   53861,   53612,   53617,   53863
   50014,   53841,   53842,   53844,   53843,   53860,   53861,   53863,   53862
   50015,   53840,   53841,   53843,   53839,   53859,   53860,   53862,   53858
   50016,   53743,   53593,   53613,   53842,   53744,   53594,   53612,   53861
   50017,   53738,   53743,   53842,   53841,   53739,   53744,   53861,   53860
   50018,   53733,   53738,   53841,   53840,   53734,   53739,   53860,   53859
   50019,   53837,   53728,   53733,   53840,   53856,   53729,   53734,   53859
   50020,   53836,   53837,   53840,   53839,   53855,   53856,   53859,   53858
   50021,   53835,   53836,   53839,   53838,   53854,   53855,   53858,   53857
   50022,   53834,   53723,   53728,   53837,   53853,   53724,   53729,   53856
   50023,   53833,   53834,   53837,   53836,   53852,   53853,   53856,   53855
   50024,   53832,   53833,   53836,   53835,   53851,   53852,   53855,   53854
   50025,   53753,   53711,   53723,   53834,   53754,   53710,   53724,   53853
   50026,   53758,   53753,   53834,   53833,   53759,   53754,   53853,   53852
   50027,   53763,   53758,   53833,   53832,   53764,   53759,   53852,   53851
   50028,   53869,   53769,   53764,   53851,   53888,   53748,   53747,   53870
   50029,   53868,   53869,   53851,   53854,   53887,   53888,   53870,   53873
   50030,   53864,   53868,   53854,   53857,   53883,   53887,   53873,   53876
   50031,   53867,   53774,   53769,   53869,   53886,   53749,   53748,   53888
   50032,   53866,   53867,   53869,   53868,   53885,   53886,   53888,   53887
   50033,   53865,   53866,   53868,   53864,   53884,   53885,   53887,   53883
   50034,   53632,   53602,   53774,   53867,   53607,   53601,   53749,   53886
   50035,   53627,   53632,   53867,   53866,   53608,   53607,   53886,   53885
   50036,   53622,   53627,   53866,   53865,   53609,   53608,   53885,   53884
   50037,   53863,   53617,   53622,   53865,   53882,   53610,   53609,   53884
   50038,   53862,   53863,   53865,   53864,   53881,   53882,   53884,   53883
   50039,   53858,   53862,   53864,   53857,   53877,   53881,   53883,   53876
   50040,   53861,   53612,   53617,   53863,   53880,   53611,   53610,   53882
   50041,   53860,   53861,   53863,   53862,   53879,   53880,   53882,   53881
   50042,   53859,   53860,   53862,   53858,   53878,   53879,   53881,   53877
   50043,   53744,   53594,   53612,   53861,   53715,   53588,   53611,   53880
   50044,   53739,   53744,   53861,   53860,   53716,   53715,   53880,   53879
   50045,   53734,   53739,   53860,   53859,   53717,   53716,   53879,   53878
   50046,   53856,   53729,   53734,   53859,   53875,   53718,   53717,   53878
   50047,   53855,   53856,   53859,   53858,   53874,   53875,   53878,   53877
   50048,   53854,   53855,   53858,   53857,   53873,   53874,   53877,   53876
   50049,   53853,   53724,   53729,   53856,   53872,   53719,   53718,   53875
   50050,   53852,   53853,   53856,   53855,   53871,   53872,   53875,   53874
   50051,   53851,   53852,   53855,   53854,   53870,   53871,   53874,   53873
   50052,   53754,   53710,   53724,   53853,   53745,   53709,   53719,   53872
   50053,   53759,   53754,   53853,   53852,   53746,   53745,   53872,   53871
   50054,   53764,   53759,   53852,   53851,   53747,   53746,   53871,   53870
   50055,   54651,   54561,   54550,   54634,   54356,   53639,   53640,   54343
   50056,   54650,   54651,   54634,   54637,   54355,   54356,   54343,   54344
   50057,   54646,   54650,   54637,   54640,   54342,   54355,   54344,   54338
   50058,   54649,   54572,   54561,   54651,   54354,   53638,   53639,   54356
   50059,   54648,   54649,   54651,   54650,   54353,   54354,   54356,   54355
   50060,   54647,   54648,   54650,   54646,   54341,   54353,   54355,   54342
   50061,   54622,   54512,   54572,   54649,   54333,   53637,   53638,   54354
   50062,   54611,   54622,   54649,   54648,   54334,   54333,   54354,   54353
   50063,   54600,   54611,   54648,   54647,   54335,   54334,   54353,   54341
   50064,   54645,   54589,   54600,   54647,   54352,   54336,   54335,   54341
   50065,   54644,   54645,   54647,   54646,   54351,   54352,   54341,   54342
   50066,   54639,   54644,   54646,   54640,   54340,   54351,   54342,   54338
   50067,   54643,   54578,   54589,   54645,   54350,   54337,   54336,   54352
   50068,   54642,   54643,   54645,   54644,   54349,   54350,   54352,   54351
   50069,   54641,   54642,   54644,   54639,   54339,   54349,   54351,   54340
   50070,   53928,   53890,   54578,   54643,   53684,   53679,   54337,   54350
   50071,   53939,   53928,   54643,   54642,   53683,   53684,   54350,   54349
   50072,   53950,   53939,   54642,   54641,   53682,   53683,   54349,   54339
   50073,   54638,   53961,   53950,   54641,   54348,   53681,   53682,   54339
   50074,   54636,   54638,   54641,   54639,   54347,   54348,   54339,   54340
   50075,   54637,   54636,   54639,   54640,   54344,   54347,   54340,   54338
   50076,   54635,   53972,   53961,   54638,   54346,   53680,   53681,   54348
   50077,   54633,   54635,   54638,   54636,   54345,   54346,   54348,   54347
   50078,   54634,   54633,   54636,   54637,   54343,   54345,   54347,   54344
   50079,   54528,   53912,   53972,   54635,   53642,   53589,   53680,   54346
   50080,   54539,   54528,   54635,   54633,   53641,   53642,   54346,   54345
   50081,   54550,   54539,   54633,   54634,   53640,   53641,   54345,   54343
   50082,   54670,   54560,   54549,   54653,   54651,   54561,   54550,   54634
   50083,   54669,   54670,   54653,   54656,   54650,   54651,   54634,   54637
   50084,   54665,   54669,   54656,   54659,   54646,   54650,   54637,   54640
   50085,   54668,   54571,   54560,   54670,   54649,   54572,   54561,   54651
   50086,   54667,   54668,   54670,   54669,   54648,   54649,   54651,   54650
   50087,   54666,   54667,   54669,   54665,   54647,   54648,   54650,   54646
   50088,   54623,   54511,   54571,   54668,   54622,   54512,   54572,   54649
   50089,   54612,   54623,   54668,   54667,   54611,   54622,   54649,   54648
   50090,   54601,   54612,   54667,   54666,   54600,   54611,   54648,   54647
   50091,   54664,   54590,   54601,   54666,   54645,   54589,   54600,   54647
   50092,   54663,   54664,   54666,   54665,   54644,   54645,   54647,   54646
   50093,   54658,   54663,   54665,   54659,   54639,   54644,   54646,   54640
   50094,   54662,   54579,   54590,   54664,   54643,   54578,   54589,   54645
   50095,   54661,   54662,   54664,   54663,   54642,   54643,   54645,   54644
   50096,   54660,   54661,   54663,   54658,   54641,   54642,   54644,   54639
   50097,   53927,   53891,   54579,   54662,   53928,   53890,   54578,   54643
   50098,   53938,   53927,   54662,   54661,   53939,   53928,   54643,   54642
   50099,   53949,   53938,   54661,   54660,   53950,   53939,   54642,   54641
   50100,   54657,   53960,   53949,   54660,   54638,   53961,   53950,   54641
   50101,   54655,   54657,   54660,   54658,   54636,   54638,   54641,   54639
   50102,   54656,   54655,   54658,   54659,   54637,   54636,   54639,   54640
   50103,   54654,   53971,   53960,   54657,   54635,   53972,   53961,   54638
   50104,   54652,   54654,   54657,   54655,   54633,   54635,   54638,   54636
   50105,   54653,   54652,   54655,   54656,   54634,   54633,   54636,   54637
   50106,   54527,   53911,   53971,   54654,   54528,   53912,   53972,   54635
   50107,   54538,   54527,   54654,   54652,   54539,   54528,   54635,   54633
   50108,   54549,   54538,   54652,   54653,   54550,   54539,   54633,   54634
   50109,   54689,   54559,   54548,   54672,   54670,   54560,   54549,   54653
   50110,   54688,   54689,   54672,   54675,   54669,   54670,   54653,   54656
   50111,   54684,   54688,   54675,   54678,   54665,   54669,   54656,   54659
   50112,   54687,   54570,   54559,   54689,   54668,   54571,   54560,   54670
   50113,   54686,   54687,   54689,   54688,   54667,   54668,   54670,   54669
   50114,   54685,   54686,   54688,   54684,   54666,   54667,   54669,   54665
   50115,   54624,   54510,   54570,   54687,   54623,   54511,   54571,   54668
   50116,   54613,   54624,   54687,   54686,   54612,   54623,   54668,   54667
   50117,   54602,   54613,   54686,   54685,   54601,   54612,   54667,   54666
   50118,   54683,   54591,   54602,   54685,   54664,   54590,   54601,   54666
   50119,   54682,   54683,   54685,   54684,   54663,   54664,   54666,   54665
   50120,   54677,   54682,   54684,   54678,   54658,   54663,   54665,   54659
   50121,   54681,   54580,   54591,   54683,   54662,   54579,   54590,   54664
   50122,   54680,   54681,   54683,   54682,   54661,   54662,   54664,   54663
   50123,   54679,   54680,   54682,   54677,   54660,   54661,   54663,   54658
   50124,   53926,   53892,   54580,   54681,   53927,   53891,   54579,   54662
   50125,   53937,   53926,   54681,   54680,   53938,   53927,   54662,   54661
   50126,   53948,   53937,   54680,   54679,   53949,   53938,   54661,   54660
   50127,   54676,   53959,   53948,   54679,   54657,   53960,   53949,   54660
   50128,   54674,   54676,   54679,   54677,   54655,   54657,   54660,   54658
   50129,   54675,   54674,   54677,   54678,   54656,   54655,   54658,   54659
   50130,   54673,   53970,   53959,   54676,   54654,   53971,   53960,   54657
   50131,   54671,   54673,   54676,   54674,   54652,   54654,   54657,   54655
   50132,   54672,   54671,   54674,   54675,   54653,   54652,   54655,   54656
   50133,   54526,   53910,   53970,   54673,   54527,   53911,   53971,   54654
   50134,   54537,   54526,   54673,   54671,   54538,   54527,   54654,   54652
   50135,   54548,   54537,   54671,   54672,   54549,   54538,   54652,   54653
   50136,   54708,   54558,   54547,   54691,   54689,   54559,   54548,   54672
   50137,   54707,   54708,   54691,   54694,   54688,   54689,   54672,   54675
   50138,   54703,   54707,   54694,   54697,   54684,   54688,   54675,   54678
   50139,   54706,   54569,   54558,   54708,   54687,   54570,   54559,   54689
   50140,   54705,   54706,   54708,   54707,   54686,   54687,   54689,   54688
   50141,   54704,   54705,   54707,   54703,   54685,   54686,   54688,   54684
   50142,   54625,   54509,   54569,   54706,   54624,   54510,   54570,   54687
   50143,   54614,   54625,   54706,   54705,   54613,   54624,   54687,   54686
   50144,   54603,   54614,   54705,   54704,   54602,   54613,   54686,   54685
   50145,   54702,   54592,   54603,   54704,   54683,   54591,   54602,   54685
   50146,   54701,   54702,   54704,   54703,   54682,   54683,   54685,   54684
   50147,   54696,   54701,   54703,   54697,   54677,   54682,   54684,   54678
   50148,   54700,   54581,   54592,   54702,   54681,   54580,   54591,   54683
   50149,   54699,   54700,   54702,   54701,   54680,   54681,   54683,   54682
   50150,   54698,   54699,   54701,   54696,   54679,   54680,   54682,   54677
   50151,   53925,   53893,   54581,   54700,   53926,   53892,   54580,   54681
   50152,   53936,   53925,   54700,   54699,   53937,   53926,   54681,   54680
   50153,   53947,   53936,   54699,   54698,   53948,   53937,   54680,   54679
   50154,   54695,   53958,   53947,   54698,   54676,   53959,   53948,   54679
   50155,   54693,   54695,   54698,   54696,   54674,   54676,   54679,   54677
   50156,   54694,   54693,   54696,   54697,   54675,   54674,   54677,   54678
   50157,   54692,   53969,   53958,   54695,   54673,   53970,   53959,   54676
   50158,   54690,   54692,   54695,   54693,   54671,   54673,   54676,   54674
   50159,   54691,   54690,   54693,   54694,   54672,   54671,   54674,   54675
   50160,   54525,   53909,   53969,   54692,   54526,   53910,   53970,   54673
   50161,   54536,   54525,   54692,   54690,   54537,   54526,   54673,   54671
   50162,   54547,   54536,   54690,   54691,   54548,   54537,   54671,   54672
   50163,   54727,   54557,   54546,   54710,   54708,   54558,   54547,   54691
   50164,   54726,   54727,   54710,   54713,   54707,   54708,   54691,   54694
   50165,   54722,   54726,   54713,   54716,   54703,   54707,   54694,   54697
   50166,   54725,   54568,   54557,   54727,   54706,   54569,   54558,   54708
   50167,   54724,   54725,   54727,   54726,   54705,   54706,   54708,   54707
   50168,   54723,   54724,   54726,   54722,   54704,   54705,   54707,   54703
   50169,   54626,   54508,   54568,   54725,   54625,   54509,   54569,   54706
   50170,   54615,   54626,   54725,   54724,   54614,   54625,   54706,   54705
   50171,   54604,   54615,   54724,   54723,   54603,   54614,   54705,   54704
   50172,   54721,   54593,   54604,   54723,   54702,   54592,   54603,   54704
   50173,   54720,   54721,   54723,   54722,   54701,   54702,   54704,   54703
   50174,   54715,   54720,   54722,   54716,   54696,   54701,   54703,   54697
   50175,   54719,   54582,   54593,   54721,   54700,   54581,   54592,   54702
   50176,   54718,   54719,   54721,   54720,   54699,   54700,   54702,   54701
   50177,   54717,   54718,   54720,   54715,   54698,   54699,   54701,   54696
   50178,   53924,   53894,   54582,   54719,   53925,   53893,   54581,   54700
   50179,   53935,   53924,   54719,   54718,   53936,   53925,   54700,   54699
   50180,   53946,   53935,   54718,   54717,   53947,   53936,   54699,   54698
   50181,   54714,   53957,   53946,   54717,   54695,   53958,   53947,   54698
   50182,   54712,   54714,   54717,   54715,   54693,   54695,   54698,   54696
   50183,   54713,   54712,   54715,   54716,   54694,   54693,   54696,   54697
   50184,   54711,   53968,   53957,   54714,   54692,   53969,   53958,   54695
   50185,   54709,   54711,   54714,   54712,   54690,   54692,   54695,   54693
   50186,   54710,   54709,   54712,   54713,   54691,   54690,   54693,   54694
   50187,   54524,   53908,   53968,   54711,   54525,   53909,   53969,   54692
   50188,   54535,   54524,   54711,   54709,   54536,   54525,   54692,   54690
   50189,   54546,   54535,   54709,   54710,   54547,   54536,   54690,   54691
   50190,   54746,   54556,   54545,   54729,   54727,   54557,   54546,   54710
   50191,   54745,   54746,   54729,   54732,   54726,   54727,   54710,   54713
   50192,   54741,   54745,   54732,   54735,   54722,   54726,   54713,   54716
   50193,   54744,   54567,   54556,   54746,   54725,   54568,   54557,   54727
   50194,   54743,   54744,   54746,   54745,   54724,   54725,   54727,   54726
   50195,   54742,   54743,   54745,   54741,   54723,   54724,   54726,   54722
   50196,   54627,   54507,   54567,   54744,   54626,   54508,   54568,   54725
   50197,   54616,   54627,   54744,   54743,   54615,   54626,   54725,   54724
   50198,   54605,   54616,   54743,   54742,   54604,   54615,   54724,   54723
   50199,   54740,   54594,   54605,   54742,   54721,   54593,   54604,   54723
   50200,   54739,   54740,   54742,   54741,   54720,   54721,   54723,   54722
   50201,   54734,   54739,   54741,   54735,   54715,   54720,   54722,   54716
   50202,   54738,   54583,   54594,   54740,   54719,   54582,   54593,   54721
   50203,   54737,   54738,   54740,   54739,   54718,   54719,   54721,   54720
   50204,   54736,   54737,   54739,   54734,   54717,   54718,   54720,   54715
   50205,   53923,   53895,   54583,   54738,   53924,   53894,   54582,   54719
   50206,   53934,   53923,   54738,   54737,   53935,   53924,   54719,   54718
   50207,   53945,   53934,   54737,   54736,   53946,   53935,   54718,   54717
   50208,   54733,   53956,   53945,   54736,   54714,   53957,   53946,   54717
   50209,   54731,   54733,   54736,   54734,   54712,   54714,   54717,   54715
   50210,   54732,   54731,   54734,   54735,   54713,   54712,   54715,   54716
   50211,   54730,   53967,   53956,   54733,   54711,   53968,   53957,   54714
   50212,   54728,   54730,   54733,   54731,   54709,   54711,   54714,   54712
   50213,   54729,   54728,   54731,   54732,   54710,   54709,   54712,   54713
   50214,   54523,   53907,   53967,   54730,   54524,   53908,   53968,   54711
   50215,   54534,   54523,   54730,   54728,   54535,   54524,   54711,   54709
   50216,   54545,   54534,   54728,   54729,   54546,   54535,   54709,   54710
   50217,   54765,   54555,   54544,   54748,   54746,   54556,   54545,   54729
   50218,   54764,   54765,   54748,   54751,   54745,   54746,   54729,   54732
   50219,   54760,   54764,   54751,   54754,   54741,   54745,   54732,   54735
   50220,   54763,   54566,   54555,   54765,   54744,   54567,   54556,   54746
   50221,   54762,   54763,   54765,   54764,   54743,   54744,   54746,   54745
   50222,   54761,   54762,   54764,   54760,   54742,   54743,   54745,   54741
   50223,   54628,   54506,   54566,   54763,   54627,   54507,   54567,   54744
   50224,   54617,   54628,   54763,   54762,   54616,   54627,   54744,   54743
   50225,   54606,   54617,   54762,   54761,   54605,   54616,   54743,   54742
   50226,   54759,   54595,   54606,   54761,   54740,   54594,   54605,   54742
   50227,   54758,   54759,   54761,   54760,   54739,   54740,   54742,   54741
   50228,   54753,   54758,   54760,   54754,   54734,   54739,   54741,   54735
   50229,   54757,   54584,   54595,   54759,   54738,   54583,   54594,   54740
   50230,   54756,   54757,   54759,   54758,   54737,   54738,   54740,   54739
   50231,   54755,   54756,   54758,   54753,   54736,   54737,   54739,   54734
   50232,   53922,   53896,   54584,   54757,   53923,   53895,   54583,   54738
   50233,   53933,   53922,   54757,   54756,   53934,   53923,   54738,   54737
   50234,   53944,   53933,   54756,   54755,   53945,   53934,   54737,   54736
   50235,   54752,   53955,   53944,   54755,   54733,   53956,   53945,   54736
   50236,   54750,   54752,   54755,   54753,   54731,   54733,   54736,   54734
   50237,   54751,   54750,   54753,   54754,   54732,   54731,   54734,   54735
   50238,   54749,   53966,   53955,   54752,   54730,   53967,   53956,   54733
   50239,   54747,   54749,   54752,   54750,   54728,   54730,   54733,   54731
   50240,   54748,   54747,   54750,   54751,   54729,   54728,   54731,   54732
   50241,   54522,   53906,   53966,   54749,   54523,   53907,   53967,   54730
   50242,   54533,   54522,   54749,   54747,   54534,   54523,   54730,   54728
   50243,   54544,   54533,   54747,   54748,   54545,   54534,   54728,   54729
   50244,   54784,   54554,   54543,   54767,   54765,   54555,   54544,   54748
   50245,   54783,   54784,   54767,   54770,   54764,   54765,   54748,   54751
   50246,   54779,   54783,   54770,   54773,   54760,   54764,   54751,   54754
   50247,   54782,   54565,   54554,   54784,   54763,   54566,   54555,   54765
   50248,   54781,   54782,   54784,   54783,   54762,   54763,   54765,   54764
   50249,   54780,   54781,   54783,   54779,   54761,   54762,   54764,   54760
   50250,   54629,   54505,   54565,   54782,   54628,   54506,   54566,   54763
   50251,   54618,   54629,   54782,   54781,   54617,   54628,   54763,   54762
   50252,   54607,   54618,   54781,   54780,   54606,   54617,   54762,   54761
   50253,   54778,   54596,   54607,   54780,   54759,   54595,   54606,   54761
   50254,   54777,   54778,   54780,   54779,   54758,   54759,   54761,   54760
   50255,   54772,   54777,   54779,   54773,   54753,   54758,   54760,   54754
   50256,   54776,   54585,   54596,   54778,   54757,   54584,   54595,   54759
   50257,   54775,   54776,   54778,   54777,   54756,   54757,   54759,   54758
   50258,   54774,   54775,   54777,   54772,   54755,   54756,   54758,   54753
   50259,   53921,   53897,   54585,   54776,   53922,   53896,   54584,   54757
   50260,   53932,   53921,   54776,   54775,   53933,   53922,   54757,   54756
   50261,   53943,   53932,   54775,   54774,   53944,   53933,   54756,   54755
   50262,   54771,   53954,   53943,   54774,   54752,   53955,   53944,   54755
   50263,   54769,   54771,   54774,   54772,   54750,   54752,   54755,   54753
   50264,   54770,   54769,   54772,   54773,   54751,   54750,   54753,   54754
   50265,   54768,   53965,   53954,   54771,   54749,   53966,   53955,   54752
   50266,   54766,   54768,   54771,   54769,   54747,   54749,   54752,   54750
   50267,   54767,   54766,   54769,   54770,   54748,   54747,   54750,   54751
   50268,   54521,   53905,   53965,   54768,   54522,   53906,   53966,   54749
   50269,   54532,   54521,   54768,   54766,   54533,   54522,   54749,   54747
   50270,   54543,   54532,   54766,   54767,   54544,   54533,   54747,   54748
   50271,   54803,   54553,   54542,   54786,   54784,   54554,   54543,   54767
   50272,   54802,   54803,   54786,   54789,   54783,   54784,   54767,   54770
   50273,   54798,   54802,   54789,   54792,   54779,   54783,   54770,   54773
   50274,   54801,   54564,   54553,   54803,   54782,   54565,   54554,   54784
   50275,   54800,   54801,   54803,   54802,   54781,   54782,   54784,   54783
   50276,   54799,   54800,   54802,   54798,   54780,   54781,   54783,   54779
   50277,   54630,   54504,   54564,   54801,   54629,   54505,   54565,   54782
   50278,   54619,   54630,   54801,   54800,   54618,   54629,   54782,   54781
   50279,   54608,   54619,   54800,   54799,   54607,   54618,   54781,   54780
   50280,   54797,   54597,   54608,   54799,   54778,   54596,   54607,   54780
   50281,   54796,   54797,   54799,   54798,   54777,   54778,   54780,   54779
   50282,   54791,   54796,   54798,   54792,   54772,   54777,   54779,   54773
   50283,   54795,   54586,   54597,   54797,   54776,   54585,   54596,   54778
   50284,   54794,   54795,   54797,   54796,   54775,   54776,   54778,   54777
   50285,   54793,   54794,   54796,   54791,   54774,   54775,   54777,   54772
   50286,   53920,   53898,   54586,   54795,   53921,   53897,   54585,   54776
   50287,   53931,   53920,   54795,   54794,   53932,   53921,   54776,   54775
   50288,   53942,   53931,   54794,   54793,   53943,   53932,   54775,   54774
   50289,   54790,   53953,   53942,   54793,   54771,   53954,   53943,   54774
   50290,   54788,   54790,   54793,   54791,   54769,   54771,   54774,   54772
   50291,   54789,   54788,   54791,   54792,   54770,   54769,   54772,   54773
   50292,   54787,   53964,   53953,   54790,   54768,   53965,   53954,   54771
   50293,   54785,   54787,   54790,   54788,   54766,   54768,   54771,   54769
   50294,   54786,   54785,   54788,   54789,   54767,   54766,   54769,   54770
   50295,   54520,   53904,   53964,   54787,   54521,   53905,   53965,   54768
   50296,   54531,   54520,   54787,   54785,   54532,   54521,   54768,   54766
   50297,   54542,   54531,   54785,   54786,   54543,   54532,   54766,   54767
   50298,   54822,   54552,   54541,   54805,   54803,   54553,   54542,   54786
   50299,   54821,   54822,   54805,   54808,   54802,   54803,   54786,   54789
   50300,   54817,   54821,   54808,   54811,   54798,   54802,   54789,   54792
   50301,   54820,   54563,   54552,   54822,   54801,   54564,   54553,   54803
   50302,   54819,   54820,   54822,   54821,   54800,   54801,   54803,   54802
   50303,   54818,   54819,   54821,   54817,   54799,   54800,   54802,   54798
   50304,   54631,   54503,   54563,   54820,   54630,   54504,   54564,   54801
   50305,   54620,   54631,   54820,   54819,   54619,   54630,   54801,   54800
   50306,   54609,   54620,   54819,   54818,   54608,   54619,   54800,   54799
   50307,   54816,   54598,   54609,   54818,   54797,   54597,   54608,   54799
   50308,   54815,   54816,   54818,   54817,   54796,   54797,   54799,   54798
   50309,   54810,   54815,   54817,   54811,   54791,   54796,   54798,   54792
   50310,   54814,   54587,   54598,   54816,   54795,   54586,   54597,   54797
   50311,   54813,   54814,   54816,   54815,   54794,   54795,   54797,   54796
   50312,   54812,   54813,   54815,   54810,   54793,   54794,   54796,   54791
   50313,   53919,   53899,   54587,   54814,   53920,   53898,   54586,   54795
   50314,   53930,   53919,   54814,   54813,   53931,   53920,   54795,   54794
   50315,   53941,   53930,   54813,   54812,   53942,   53931,   54794,   54793
   50316,   54809,   53952,   53941,   54812,   54790,   53953,   53942,   54793
   50317,   54807,   54809,   54812,   54810,   54788,   54790,   54793,   54791
   50318,   54808,   54807,   54810,   54811,   54789,   54788,   54791,   54792
   50319,   54806,   53963,   53952,   54809,   54787,   53964,   53953,   54790
   50320,   54804,   54806,   54809,   54807,   54785,   54787,   54790,   54788
   50321,   54805,   54804,   54807,   54808,   54786,   54785,   54788,   54789
   50322,   54519,   53903,   53963,   54806,   54520,   53904,   53964,   54787
   50323,   54530,   54519,   54806,   54804,   54531,   54520,   54787,   54785
   50324,   54541,   54530,   54804,   54805,   54542,   54531,   54785,   54786
   50325,   54841,   54551,   54540,   54824,   54822,   54552,   54541,   54805
   50326,   54840,   54841,   54824,   54827,   54821,   54822,   54805,   54808
   50327,   54836,   54840,   54827,   54830,   54817,   54821,   54808,   54811
   50328,   54839,   54562,   54551,   54841,   54820,   54563,   54552,   54822
   50329,   54838,   54839,   54841,   54840,   54819,   54820,   54822,   54821
   50330,   54837,   54838,   54840,   54836,   54818,   54819,   54821,   54817
   50331,   54632,   54502,   54562,   54839,   54631,   54503,   54563,   54820
   50332,   54621,   54632,   54839,   54838,   54620,   54631,   54820,   54819
   50333,   54610,   54621,   54838,   54837,   54609,   54620,   54819,   54818
   50334,   54835,   54599,   54610,   54837,   54816,   54598,   54609,   54818
   50335,   54834,   54835,   54837,   54836,   54815,   54816,   54818,   54817
   50336,   54829,   54834,   54836,   54830,   54810,   54815,   54817,   54811
   50337,   54833,   54588,   54599,   54835,   54814,   54587,   54598,   54816
   50338,   54832,   54833,   54835,   54834,   54813,   54814,   54816,   54815
   50339,   54831,   54832,   54834,   54829,   54812,   54813,   54815,   54810
   50340,   53918,   53900,   54588,   54833,   53919,   53899,   54587,   54814
   50341,   53929,   53918,   54833,   54832,   53930,   53919,   54814,   54813
   50342,   53940,   53929,   54832,   54831,   53941,   53930,   54813,   54812
   50343,   54828,   53951,   53940,   54831,   54809,   53952,   53941,   54812
   50344,   54826,   54828,   54831,   54829,   54807,   54809,   54812,   54810
   50345,   54827,   54826,   54829,   54830,   54808,   54807,   54810,   54811
   50346,   54825,   53962,   53951,   54828,   54806,   53963,   53952,   54809
   50347,   54823,   54825,   54828,   54826,   54804,   54806,   54809,   54807
   50348,   54824,   54823,   54826,   54827,   54805,   54804,   54807,   54808
   50349,   54518,   53902,   53962,   54825,   54519,   53903,   53963,   54806
   50350,   54529,   54518,   54825,   54823,   54530,   54519,   54806,   54804
   50351,   54540,   54529,   54823,   54824,   54541,   54530,   54804,   54805
   50352,   54860,   54516,   54515,   54843,   54841,   54551,   54540,   54824
   50353,   54859,   54860,   54843,   54846,   54840,   54841,   54824,   54827
   50354,   54855,   54859,   54846,   54849,   54836,   54840,   54827,   54830
   50355,   54858,   54517,   54516,   54860,   54839,   54562,   54551,   54841
   50356,   54857,   54858,   54860,   54859,   54838,   54839,   54841,   54840
   50357,   54856,   54857,   54859,   54855,   54837,   54838,   54840,   54836
   50358,   54577,   54501,   54517,   54858,   54632,   54502,   54562,   54839
   50359,   54576,   54577,   54858,   54857,   54621,   54632,   54839,   54838
   50360,   54575,   54576,   54857,   54856,   54610,   54621,   54838,   54837
   50361,   54854,   54574,   54575,   54856,   54835,   54599,   54610,   54837
   50362,   54853,   54854,   54856,   54855,   54834,   54835,   54837,   54836
   50363,   54848,   54853,   54855,   54849,   54829,   54834,   54836,   54830
   50364,   54852,   54573,   54574,   54854,   54833,   54588,   54599,   54835
   50365,   54851,   54852,   54854,   54853,   54832,   54833,   54835,   54834
   50366,   54850,   54851,   54853,   54848,   54831,   54832,   54834,   54829
   50367,   53913,   53889,   54573,   54852,   53918,   53900,   54588,   54833
   50368,   53914,   53913,   54852,   54851,   53929,   53918,   54833,   54832
   50369,   53915,   53914,   54851,   54850,   53940,   53929,   54832,   54831
   50370,   54847,   53916,   53915,   54850,   54828,   53951,   53940,   54831
   50371,   54845,   54847,   54850,   54848,   54826,   54828,   54831,   54829
   50372,   54846,   54845,   54848,   54849,   54827,   54826,   54829,   54830
   50373,   54844,   53917,   53916,   54847,   54825,   53962,   53951,   54828
   50374,   54842,   54844,   54847,   54845,   54823,   54825,   54828,   54826
   50375,   54843,   54842,   54845,   54846,   54824,   54823,   54826,   54827
   50376,   54513,   53901,   53917,   54844,   54518,   53902,   53962,   54825
   50377,   54514,   54513,   54844,   54842,   54529,   54518,   54825,   54823
   50378,   54515,   54514,   54842,   54843,   54540,   54529,   54823,   54824
   50379,   54356,   53639,   53640,   54343,   54405,   53669,   53664,   54387
   50380,   54355,   54356,   54343,   54344,   54404,   54405,   54387,   54390
   50381,   54342,   54355,   54344,   54338,   54400,   54404,   54390,   54393
   50382,   54354,   53638,   53639,   54356,   54403,   53674,   53669,   54405
   50383,   54353,   54354,   54356,   54355,   54402,   54403,   54405,   54404
   50384,   54341,   54353,   54355,   54342,   54401,   54402,   54404,   54400
   50385,   54333,   53637,   53638,   54354,   54386,   53644,   53674,   54403
   50386,   54334,   54333,   54354,   54353,   54381,   54386,   54403,   54402
   50387,   54335,   54334,   54353,   54341,   54376,   54381,   54402,   54401
   50388,   54352,   54336,   54335,   54341,   54399,   54371,   54376,   54401
   50389,   54351,   54352,   54341,   54342,   54398,   54399,   54401,   54400
   50390,   54340,   54351,   54342,   54338,   54394,   54398,   54400,   54393
   50391,   54350,   54337,   54336,   54352,   54397,   54366,   54371,   54399
   50392,   54349,   54350,   54352,   54351,   54396,   54397,   54399,   54398
   50393,   54339,   54349,   54351,   54340,   54395,   54396,   54398,   54394
   50394,   53684,   53679,   54337,   54350,   53720,   53714,   54366,   54397
   50395,   53683,   53684,   54350,   54349,   53725,   53720,   54397,   54396
   50396,   53682,   53683,   54349,   54339,   53730,   53725,   54396,   54395
   50397,   54348,   53681,   53682,   54339,   54392,   53735,   53730,   54395
   50398,   54347,   54348,   54339,   54340,   54391,   54392,   54395,   54394
   50399,   54344,   54347,   54340,   54338,   54390,   54391,   54394,   54393
   50400,   54346,   53680,   53681,   54348,   54389,   53740,   53735,   54392
   50401,   54345,   54346,   54348,   54347,   54388,   54389,   54392,   54391
   50402,   54343,   54345,   54347,   54344,   54387,   54388,   54391,   54390
   50403,   53642,   53589,   53680,   54346,   53654,   53590,   53740,   54389
   50404,   53641,   53642,   54346,   54345,   53659,   53654,   54389,   54388
   50405,   53640,   53641,   54345,   54343,   53664,   53659,   54388,   54387
   50406,   54405,   53669,   53664,   54387,   54424,   53670,   53665,   54406
   50407,   54404,   54405,   54387,   54390,   54423,   54424,   54406,   54409
   50408,   54400,   54404,   54390,   54393,   54419,   54423,   54409,   54412
   50409,   54403,   53674,   53669,   54405,   54422,   53675,   53670,   54424
   50410,   54402,   54403,   54405,   54404,   54421,   54422,   54424,   54423
   50411,   54401,   54402,   54404,   54400,   54420,   54421,   54423,   54419
   50412,   54386,   53644,   53674,   54403,   54385,   53645,   53675,   54422
   50413,   54381,   54386,   54403,   54402,   54380,   54385,   54422,   54421
   50414,   54376,   54381,   54402,   54401,   54375,   54380,   54421,   54420
   50415,   54399,   54371,   54376,   54401,   54418,   54370,   54375,   54420
   50416,   54398,   54399,   54401,   54400,   54417,   54418,   54420,   54419
   50417,   54394,   54398,   54400,   54393,   54413,   54417,   54419,   54412
   50418,   54397,   54366,   54371,   54399,   54416,   54365,   54370,   54418
   50419,   54396,   54397,   54399,   54398,   54415,   54416,   54418,   54417
   50420,   54395,   54396,   54398,   54394,   54414,   54415,   54417,   54413
   50421,   53720,   53714,   54366,   54397,   53721,   53713,   54365,   54416
   50422,   53725,   53720,   54397,   54396,   53726,   53721,   54416,   54415
   50423,   53730,   53725,   54396,   54395,   53731,   53726,   54415,   54414
   50424,   54392,   53735,   53730,   54395,   54411,   53736,   53731,   54414
   50425,   54391,   54392,   54395,   54394,   54410,   54411,   54414,   54413
   50426,   54390,   54391,   54394,   54393,   54409,   54410,   54413,   54412
   50427,   54389,   53740,   53735,   54392,   54408,   53741,   53736,   54411
   50428,   54388,   54389,   54392,   54391,   54407,   54408,   54411,   54410
   50429,   54387,   54388,   54391,   54390,   54406,   54407,   54410,   54409
   50430,   53654,   53590,   53740,   54389,   53655,   53591,   53741,   54408
   50431,   53659,   53654,   54389,   54388,   53660,   53655,   54408,   54407
   50432,   53664,   53659,   54388,   54387,   53665,   53660,   54407,   54406
   50433,   54424,   53670,   53665,   54406,   54443,   53671,   53666,   54425
   50434,   54423,   54424,   54406,   54409,   54442,   54443,   54425,   54428
   50435,   54419,   54423,   54409,   54412,   54438,   54442,   54428,   54431
   50436,   54422,   53675,   53670,   54424,   54441,   53676,   53671,   54443
   50437,   54421,   54422,   54424,   54423,   54440,   54441,   54443,   54442
   50438,   54420,   54421,   54423,   54419,   54439,   54440,   54442,   54438
   50439,   54385,   53645,   53675,   54422,   54384,   53646,   53676,   54441
   50440,   54380,   54385,   54422,   54421,   54379,   54384,   54441,   54440
   50441,   54375,   54380,   54421,   54420,   54374,   54379,   54440,   54439
   50442,   54418,   54370,   54375,   54420,   54437,   54369,   54374,   54439
   50443,   54417,   54418,   54420,   54419,   54436,   54437,   54439,   54438
   50444,   54413,   54417,   54419,   54412,   54432,   54436,   54438,   54431
   50445,   54416,   54365,   54370,   54418,   54435,   54364,   54369,   54437
   50446,   54415,   54416,   54418,   54417,   54434,   54435,   54437,   54436
   50447,   54414,   54415,   54417,   54413,   54433,   54434,   54436,   54432
   50448,   53721,   53713,   54365,   54416,   53722,   53712,   54364,   54435
   50449,   53726,   53721,   54416,   54415,   53727,   53722,   54435,   54434
   50450,   53731,   53726,   54415,   54414,   53732,   53727,   54434,   54433
   50451,   54411,   53736,   53731,   54414,   54430,   53737,   53732,   54433
   50452,   54410,   54411,   54414,   54413,   54429,   54430,   54433,   54432
   50453,   54409,   54410,   54413,   54412,   54428,   54429,   54432,   54431
   50454,   54408,   53741,   53736,   54411,   54427,   53742,   53737,   54430
   50455,   54407,   54408,   54411,   54410,   54426,   54427,   54430,   54429
   50456,   54406,   54407,   54410,   54409,   54425,   54426,   54429,   54428
   50457,   53655,   53591,   53741,   54408,   53656,   53592,   53742,   54427
   50458,   53660,   53655,   54408,   54407,   53661,   53656,   54427,   54426
   50459,   53665,   53660,   54407,   54406,   53666,   53661,   54426,   54425
   50460,   54443,   53671,   53666,   54425,   54462,   53672,   53667,   54444
   50461,   54442,   54443,   54425,   54428,   54461,   54462,   54444,   54447
   50462,   54438,   54442,   54428,   54431,   54457,   54461,   54447,   54450
   50463,   54441,   53676,   53671,   54443,   54460,   53677,   53672,   54462
   50464,   54440,   54441,   54443,   54442,   54459,   54460,   54462,   54461
   50465,   54439,   54440,   54442,   54438,   54458,   54459,   54461,   54457
   50466,   54384,   53646,   53676,   54441,   54383,   53647,   53677,   54460
   50467,   54379,   54384,   54441,   54440,   54378,   54383,   54460,   54459
   50468,   54374,   54379,   54440,   54439,   54373,   54378,   54459,   54458
   50469,   54437,   54369,   54374,   54439,   54456,   54368,   54373,   54458
   50470,   54436,   54437,   54439,   54438,   54455,   54456,   54458,   54457
   50471,   54432,   54436,   54438,   54431,   54451,   54455,   54457,   54450
   50472,   54435,   54364,   54369,   54437,   54454,   54363,   54368,   54456
   50473,   54434,   54435,   54437,   54436,   54453,   54454,   54456,   54455
   50474,   54433,   54434,   54436,   54432,   54452,   54453,   54455,   54451
   50475,   53722,   53712,   54364,   54435,   53723,   53711,   54363,   54454
   50476,   53727,   53722,   54435,   54434,   53728,   53723,   54454,   54453
   50477,   53732,   53727,   54434,   54433,   53733,   53728,   54453,   54452
   50478,   54430,   53737,   53732,   54433,   54449,   53738,   53733,   54452
   50479,   54429,   54430,   54433,   54432,   54448,   54449,   54452,   54451
   50480,   54428,   54429,   54432,   54431,   54447,   54448,   54451,   54450
   50481,   54427,   53742,   53737,   54430,   54446,   53743,   53738,   54449
   50482,   54426,   54427,   54430,   54429,   54445,   54446,   54449,   54448
   50483,   54425,   54426,   54429,   54428,   54444,   54445,   54448,   54447
   50484,   53656,   53592,   53742,   54427,   53657,   53593,   53743,   54446
   50485,   53661,   53656,   54427,   54426,   53662,   53657,   54446,   54445
   50486,   53666,   53661,   54426,   54425,   53667,   53662,   54445,   54444
   50487,   54462,   53672,   53667,   54444,   54481,   53673,   53668,   54463
   50488,   54461,   54462,   54444,   54447,   54480,   54481,   54463,   54466
   50489,   54457,   54461,   54447,   54450,   54476,   54480,   54466,   54469
   50490,   54460,   53677,   53672,   54462,   54479,   53678,   53673,   54481
   50491,   54459,   54460,   54462,   54461,   54478,   54479,   54481,   54480
   50492,   54458,   54459,   54461,   54457,   54477,   54478,   54480,   54476
   50493,   54383,   53647,   53677,   54460,   54382,   53648,   53678,   54479
   50494,   54378,   54383,   54460,   54459,   54377,   54382,   54479,   54478
   50495,   54373,   54378,   54459,   54458,   54372,   54377,   54478,   54477
   50496,   54456,   54368,   54373,   54458,   54475,   54367,   54372,   54477
   50497,   54455,   54456,   54458,   54457,   54474,   54475,   54477,   54476
   50498,   54451,   54455,   54457,   54450,   54470,   54474,   54476,   54469
   50499,   54454,   54363,   54368,   54456,   54473,   54362,   54367,   54475
   50500,   54453,   54454,   54456,   54455,   54472,   54473,   54475,   54474
   50501,   54452,   54453,   54455,   54451,   54471,   54472,   54474,   54470
   50502,   53723,   53711,   54363,   54454,   53724,   53710,   54362,   54473
   50503,   53728,   53723,   54454,   54453,   53729,   53724,   54473,   54472
   50504,   53733,   53728,   54453,   54452,   53734,   53729,   54472,   54471
   50505,   54449,   53738,   53733,   54452,   54468,   53739,   53734,   54471
   50506,   54448,   54449,   54452,   54451,   54467,   54468,   54471,   54470
   50507,   54447,   54448,   54451,   54450,   54466,   54467,   54470,   54469
   50508,   54446,   53743,   53738,   54449,   54465,   53744,   53739,   54468
   50509,   54445,   54446,   54449,   54448,   54464,   54465,   54468,   54467
   50510,   54444,   54445,   54448,   54447,   54463,   54464,   54467,   54466
   50511,   53657,   53593,   53743,   54446,   53658,   53594,   53744,   54465
   50512,   53662,   53657,   54446,   54445,   53663,   53658,   54465,   54464
   50513,   53667,   53662,   54445,   54444,   53668,   53663,   54464,   54463
   50514,   54481,   53673,   53668,   54463,   54500,   53652,   53651,   54482
   50515,   54480,   54481,   54463,   54466,   54499,   54500,   54482,   54485
   50516,   54476,   54480,   54466,   54469,   54495,   54499,   54485,   54488
   50517,   54479,   53678,   53673,   54481,   54498,   53653,   53652,   54500
   50518,   54478,   54479,   54481,   54480,   54497,   54498,   54500,   54499
   50519,   54477,   54478,   54480,   54476,   54496,   54497,   54499,   54495
   50520,   54382,   53648,   53678,   54479,   54357,   53643,   53653,   54498
   50521,   54377,   54382,   54479,   54478,   54358,   54357,   54498,   54497
   50522,   54372,   54377,   54478,   54477,   54359,   54358,   54497,   54496
   50523,   54475,   54367,   54372,   54477,   54494,   54360,   54359,   54496
   50524,   54474,   54475,   54477,   54476,   54493,   54494,   54496,   54495
   50525,   54470,   54474,   54476,   54469,   54489,   54493,   54495,   54488
   50526,   54473,   54362,   54367,   54475,   54492,   54361,   54360,   54494
   50527,   54472,   54473,   54475,   54474,   54491,   54492,   54494,   54493
   50528,   54471,   54472,   54474,   54470,   54490,   54491,   54493,   54489
   50529,   53724,   53710,   54362,   54473,   53719,   53709,   54361,   54492
   50530,   53729,   53724,   54473,   54472,   53718,   53719,   54492,   54491
   50531,   53734,   53729,   54472,   54471,   53717,   53718,   54491,   54490
   50532,   54468,   53739,   53734,   54471,   54487,   53716,   53717,   54490
   50533,   54467,   54468,   54471,   54470,   54486,   54487,   54490,   54489
   50534,   54466,   54467,   54470,   54469,   54485,   54486,   54489,   54488
   50535,   54465,   53744,   53739,   54468,   54484,   53715,   53716,   54487
   50536,   54464,   54465,   54468,   54467,   54483,   54484,   54487,   54486
   50537,   54463,   54464,   54467,   54466,   54482,   54483,   54486,   54485
   50538,   53658,   53594,   53744,   54465,   53649,   53588,   53715,   54484
   50539,   53663,   53658,   54465,   54464,   53650,   53649,   54484,   54483
   50540,   53668,   53663,   54464,   54463,   53651,   53650,   54483,   54482
*ELEMENT, TYPE=C3D8R, ELSET=plate
   50541,   52935,   53601,   53602,   52940,   52977,   53607,   53632,   53006
   50542,   52940,   53602,   53603,   52939,   53006,   53632,   53633,   53005
   50543,   52939,   53603,   53604,   52938,   53005,   53633,   53634,   53004
   50544,   52938,   53604,   53605,   52937,   53004,   53634,   53635,   53003
   50545,   52937,   53605,   53606,   52936,   53003,   53635,   53636,   53002
   50546,   52936,   53606,   53595,   52828,   53002,   53636,   53600,   52833
   50547,   52977,   53607,   53632,   53006,   52978,   53608,   53627,   53001
   50548,   53006,   53632,   53633,   53005,   53001,   53627,   53628,   53000
   50549,   53005,   53633,   53634,   53004,   53000,   53628,   53629,   52999
   50550,   53004,   53634,   53635,   53003,   52999,   53629,   53630,   52998
   50551,   53003,   53635,   53636,   53002,   52998,   53630,   53631,   52997
   50552,   53002,   53636,   53600,   52833,   52997,   53631,   53599,   52832
   50553,   52978,   53608,   53627,   53001,   52979,   53609,   53622,   52996
   50554,   53001,   53627,   53628,   53000,   52996,   53622,   53623,   52995
   50555,   53000,   53628,   53629,   52999,   52995,   53623,   53624,   52994
   50556,   52999,   53629,   53630,   52998,   52994,   53624,   53625,   52993
   50557,   52998,   53630,   53631,   52997,   52993,   53625,   53626,   52992
   50558,   52997,   53631,   53599,   52832,   52992,   53626,   53598,   52831
   50559,   52979,   53609,   53622,   52996,   52980,   53610,   53617,   52991
   50560,   52996,   53622,   53623,   52995,   52991,   53617,   53618,   52990
   50561,   52995,   53623,   53624,   52994,   52990,   53618,   53619,   52989
   50562,   52994,   53624,   53625,   52993,   52989,   53619,   53620,   52988
   50563,   52993,   53625,   53626,   52992,   52988,   53620,   53621,   52987
   50564,   52992,   53626,   53598,   52831,   52987,   53621,   53597,   52830
   50565,   52980,   53610,   53617,   52991,   52981,   53611,   53612,   52986
   50566,   52991,   53617,   53618,   52990,   52986,   53612,   53613,   52985
   50567,   52990,   53618,   53619,   52989,   52985,   53613,   53614,   52984
   50568,   52989,   53619,   53620,   52988,   52984,   53614,   53615,   52983
   50569,   52988,   53620,   53621,   52987,   52983,   53615,   53616,   52982
   50570,   52987,   53621,   53597,   52830,   52982,   53616,   53596,   52829
   50571,   52981,   53611,   53612,   52986,   52881,   53588,   53594,   52882
   50572,   52986,   53612,   53613,   52985,   52882,   53594,   53593,   52883
   50573,   52985,   53613,   53614,   52984,   52883,   53593,   53592,   52884
   50574,   52984,   53614,   53615,   52983,   52884,   53592,   53591,   52885
   50575,   52983,   53615,   53616,   52982,   52885,   53591,   53590,   52886
   50576,   52982,   53616,   53596,   52829,   52886,   53590,   53589,   52825
   50577,   53065,   53060,   53066,   53064,   52879,   52874,   52880,   52878
   50578,   53063,   53064,   53066,   53062,   52877,   52878,   52880,   52876
   50579,   53061,   53062,   53066,   53060,   52875,   52876,   52880,   52874
   50580,   53058,   53059,   53060,   53065,   52872,   52873,   52874,   52879
   50581,   53056,   53057,   53058,   53065,   52870,   52871,   52872,   52879
   50582,   53055,   53056,   53065,   53064,   52869,   52870,   52879,   52878
   50583,   53054,   53055,   53064,   53063,   52868,   52869,   52878,   52877
   50584,   53049,   53050,   53054,   53063,   52863,   52864,   52868,   52877
   50585,   53048,   53049,   53063,   53062,   52862,   52863,   52877,   52876
   50586,   53047,   53048,   53062,   53061,   52861,   52862,   52876,   52875
   50587,   53053,   53046,   53047,   53061,   52867,   52860,   52861,   52875
   50588,   53052,   53053,   53061,   53060,   52866,   52867,   52875,   52874
   50589,   53051,   53052,   53060,   53059,   52865,   52866,   52874,   52873
   50590,   53044,   53045,   53051,   53059,   52858,   52859,   52865,   52873
   50591,   53043,   53044,   53059,   53058,   52857,   52858,   52873,   52872
   50592,   53042,   53043,   53058,   53057,   52856,   52857,   52872,   52871
   50593,   53040,   53041,   53042,   53057,   52854,   52855,   52856,   52871
   50594,   53039,   53040,   53057,   53056,   52853,   52854,   52871,   52870
   50595,   53038,   53039,   53056,   53055,   52852,   52853,   52870,   52869
   50596,   53037,   53038,   53055,   53054,   52851,   52852,   52869,   52868
   50597,   52894,   53037,   53054,   53050,   52827,   52851,   52868,   52864
   50598,   53027,   53032,   53046,   53053,   52844,   52845,   52860,   52867
   50599,   53022,   53027,   53053,   53052,   52843,   52844,   52867,   52866
   50600,   53017,   53022,   53052,   53051,   52842,   52843,   52866,   52865
   50601,   53012,   53017,   53051,   53045,   52841,   52842,   52865,   52859
   50602,   52914,   52889,   52894,   53050,   52850,   52826,   52827,   52864
   50603,   52919,   52914,   53050,   53049,   52849,   52850,   52864,   52863
   50604,   52924,   52919,   53049,   53048,   52848,   52849,   52863,   52862
   50605,   52929,   52924,   53048,   53047,   52847,   52848,   52862,   52861
   50606,   52934,   52929,   53047,   53046,   52846,   52847,   52861,   52860
   50607,   52900,   52934,   53046,   53032,   52840,   52846,   52860,   52845
   50608,   52972,   52951,   53012,   53045,   52835,   52834,   52841,   52859
   50609,   52967,   52972,   53045,   53044,   52836,   52835,   52859,   52858
   50610,   52962,   52967,   53044,   53043,   52837,   52836,   52858,   52857
   50611,   52957,   52962,   53043,   53042,   52838,   52837,   52857,   52856
   50612,   52952,   52957,   53042,   53041,   52839,   52838,   52856,   52855
   50613,   53002,   52936,   52952,   53041,   52833,   52828,   52839,   52855
   50614,   52997,   53002,   53041,   53040,   52832,   52833,   52855,   52854
   50615,   52992,   52997,   53040,   53039,   52831,   52832,   52854,   52853
   50616,   52987,   52992,   53039,   53038,   52830,   52831,   52853,   52852
   50617,   52982,   52987,   53038,   53037,   52829,   52830,   52852,   52851
   50618,   52886,   52982,   53037,   52894,   52825,   52829,   52851,   52827
   50619,   53095,   53090,   53096,   53094,   53065,   53060,   53066,   53064
   50620,   53093,   53094,   53096,   53092,   53063,   53064,   53066,   53062
   50621,   53091,   53092,   53096,   53090,   53061,   53062,   53066,   53060
   50622,   53088,   53089,   53090,   53095,   53058,   53059,   53060,   53065
   50623,   53086,   53087,   53088,   53095,   53056,   53057,   53058,   53065
   50624,   53085,   53086,   53095,   53094,   53055,   53056,   53065,   53064
   50625,   53084,   53085,   53094,   53093,   53054,   53055,   53064,   53063
   50626,   53079,   53080,   53084,   53093,   53049,   53050,   53054,   53063
   50627,   53078,   53079,   53093,   53092,   53048,   53049,   53063,   53062
   50628,   53077,   53078,   53092,   53091,   53047,   53048,   53062,   53061
   50629,   53083,   53076,   53077,   53091,   53053,   53046,   53047,   53061
   50630,   53082,   53083,   53091,   53090,   53052,   53053,   53061,   53060
   50631,   53081,   53082,   53090,   53089,   53051,   53052,   53060,   53059
   50632,   53074,   53075,   53081,   53089,   53044,   53045,   53051,   53059
   50633,   53073,   53074,   53089,   53088,   53043,   53044,   53059,   53058
   50634,   53072,   53073,   53088,   53087,   53042,   53043,   53058,   53057
   50635,   53070,   53071,   53072,   53087,   53040,   53041,   53042,   53057
   50636,   53069,   53070,   53087,   53086,   53039,   53040,   53057,   53056
   50637,   53068,   53069,   53086,   53085,   53038,   53039,   53056,   53055
   50638,   53067,   53068,   53085,   53084,   53037,   53038,   53055,   53054
   50639,   52895,   53067,   53084,   53080,   52894,   53037,   53054,   53050
   50640,   53028,   53033,   53076,   53083,   53027,   53032,   53046,   53053
   50641,   53023,   53028,   53083,   53082,   53022,   53027,   53053,   53052
   50642,   53018,   53023,   53082,   53081,   53017,   53022,   53052,   53051
   50643,   53013,   53018,   53081,   53075,   53012,   53017,   53051,   53045
   50644,   52913,   52890,   52895,   53080,   52914,   52889,   52894,   53050
   50645,   52918,   52913,   53080,   53079,   52919,   52914,   53050,   53049
   50646,   52923,   52918,   53079,   53078,   52924,   52919,   53049,   53048
   50647,   52928,   52923,   53078,   53077,   52929,   52924,   53048,   53047
   50648,   52933,   52928,   53077,   53076,   52934,   52929,   53047,   53046
   50649,   52901,   52933,   53076,   53033,   52900,   52934,   53046,   53032
   50650,   52973,   52950,   53013,   53075,   52972,   52951,   53012,   53045
   50651,   52968,   52973,   53075,   53074,   52967,   52972,   53045,   53044
   50652,   52963,   52968,   53074,   53073,   52962,   52967,   53044,   53043
   50653,   52958,   52963,   53073,   53072,   52957,   52962,   53043,   53042
   50654,   52953,   52958,   53072,   53071,   52952,   52957,   53042,   53041
   50655,   53003,   52937,   52953,   53071,   53002,   52936,   52952,   53041
   50656,   52998,   53003,   53071,   53070,   52997,   53002,   53041,   53040
   50657,   52993,   52998,   53070,   53069,   52992,   52997,   53040,   53039
   50658,   52988,   52993,   53069,   53068,   52987,   52992,   53039,   53038
   50659,   52983,   52988,   53068,   53067,   52982,   52987,   53038,   53037
   50660,   52885,   52983,   53067,   52895,   52886,   52982,   53037,   52894
   50661,   53125,   53120,   53126,   53124,   53095,   53090,   53096,   53094
   50662,   53123,   53124,   53126,   53122,   53093,   53094,   53096,   53092
   50663,   53121,   53122,   53126,   53120,   53091,   53092,   53096,   53090
   50664,   53118,   53119,   53120,   53125,   53088,   53089,   53090,   53095
   50665,   53116,   53117,   53118,   53125,   53086,   53087,   53088,   53095
   50666,   53115,   53116,   53125,   53124,   53085,   53086,   53095,   53094
   50667,   53114,   53115,   53124,   53123,   53084,   53085,   53094,   53093
   50668,   53109,   53110,   53114,   53123,   53079,   53080,   53084,   53093
   50669,   53108,   53109,   53123,   53122,   53078,   53079,   53093,   53092
   50670,   53107,   53108,   53122,   53121,   53077,   53078,   53092,   53091
   50671,   53113,   53106,   53107,   53121,   53083,   53076,   53077,   53091
   50672,   53112,   53113,   53121,   53120,   53082,   53083,   53091,   53090
   50673,   53111,   53112,   53120,   53119,   53081,   53082,   53090,   53089
   50674,   53104,   53105,   53111,   53119,   53074,   53075,   53081,   53089
   50675,   53103,   53104,   53119,   53118,   53073,   53074,   53089,   53088
   50676,   53102,   53103,   53118,   53117,   53072,   53073,   53088,   53087
   50677,   53100,   53101,   53102,   53117,   53070,   53071,   53072,   53087
   50678,   53099,   53100,   53117,   53116,   53069,   53070,   53087,   53086
   50679,   53098,   53099,   53116,   53115,   53068,   53069,   53086,   53085
   50680,   53097,   53098,   53115,   53114,   53067,   53068,   53085,   53084
   50681,   52896,   53097,   53114,   53110,   52895,   53067,   53084,   53080
   50682,   53029,   53034,   53106,   53113,   53028,   53033,   53076,   53083
   50683,   53024,   53029,   53113,   53112,   53023,   53028,   53083,   53082
   50684,   53019,   53024,   53112,   53111,   53018,   53023,   53082,   53081
   50685,   53014,   53019,   53111,   53105,   53013,   53018,   53081,   53075
   50686,   52912,   52891,   52896,   53110,   52913,   52890,   52895,   53080
   50687,   52917,   52912,   53110,   53109,   52918,   52913,   53080,   53079
   50688,   52922,   52917,   53109,   53108,   52923,   52918,   53079,   53078
   50689,   52927,   52922,   53108,   53107,   52928,   52923,   53078,   53077
   50690,   52932,   52927,   53107,   53106,   52933,   52928,   53077,   53076
   50691,   52902,   52932,   53106,   53034,   52901,   52933,   53076,   53033
   50692,   52974,   52949,   53014,   53105,   52973,   52950,   53013,   53075
   50693,   52969,   52974,   53105,   53104,   52968,   52973,   53075,   53074
   50694,   52964,   52969,   53104,   53103,   52963,   52968,   53074,   53073
   50695,   52959,   52964,   53103,   53102,   52958,   52963,   53073,   53072
   50696,   52954,   52959,   53102,   53101,   52953,   52958,   53072,   53071
   50697,   53004,   52938,   52954,   53101,   53003,   52937,   52953,   53071
   50698,   52999,   53004,   53101,   53100,   52998,   53003,   53071,   53070
   50699,   52994,   52999,   53100,   53099,   52993,   52998,   53070,   53069
   50700,   52989,   52994,   53099,   53098,   52988,   52993,   53069,   53068
   50701,   52984,   52989,   53098,   53097,   52983,   52988,   53068,   53067
   50702,   52884,   52984,   53097,   52896,   52885,   52983,   53067,   52895
   50703,   53155,   53150,   53156,   53154,   53125,   53120,   53126,   53124
   50704,   53153,   53154,   53156,   53152,   53123,   53124,   53126,   53122
   50705,   53151,   53152,   53156,   53150,   53121,   53122,   53126,   53120
   50706,   53148,   53149,   53150,   53155,   53118,   53119,   53120,   53125
   50707,   53146,   53147,   53148,   53155,   53116,   53117,   53118,   53125
   50708,   53145,   53146,   53155,   53154,   53115,   53116,   53125,   53124
   50709,   53144,   53145,   53154,   53153,   53114,   53115,   53124,   53123
   50710,   53139,   53140,   53144,   53153,   53109,   53110,   53114,   53123
   50711,   53138,   53139,   53153,   53152,   53108,   53109,   53123,   53122
   50712,   53137,   53138,   53152,   53151,   53107,   53108,   53122,   53121
   50713,   53143,   53136,   53137,   53151,   53113,   53106,   53107,   53121
   50714,   53142,   53143,   53151,   53150,   53112,   53113,   53121,   53120
   50715,   53141,   53142,   53150,   53149,   53111,   53112,   53120,   53119
   50716,   53134,   53135,   53141,   53149,   53104,   53105,   53111,   53119
   50717,   53133,   53134,   53149,   53148,   53103,   53104,   53119,   53118
   50718,   53132,   53133,   53148,   53147,   53102,   53103,   53118,   53117
   50719,   53130,   53131,   53132,   53147,   53100,   53101,   53102,   53117
   50720,   53129,   53130,   53147,   53146,   53099,   53100,   53117,   53116
   50721,   53128,   53129,   53146,   53145,   53098,   53099,   53116,   53115
   50722,   53127,   53128,   53145,   53144,   53097,   53098,   53115,   53114
   50723,   52897,   53127,   53144,   53140,   52896,   53097,   53114,   53110
   50724,   53030,   53035,   53136,   53143,   53029,   53034,   53106,   53113
   50725,   53025,   53030,   53143,   53142,   53024,   53029,   53113,   53112
   50726,   53020,   53025,   53142,   53141,   53019,   53024,   53112,   53111
   50727,   53015,   53020,   53141,   53135,   53014,   53019,   53111,   53105
   50728,   52911,   52892,   52897,   53140,   52912,   52891,   52896,   53110
   50729,   52916,   52911,   53140,   53139,   52917,   52912,   53110,   53109
   50730,   52921,   52916,   53139,   53138,   52922,   52917,   53109,   53108
   50731,   52926,   52921,   53138,   53137,   52927,   52922,   53108,   53107
   50732,   52931,   52926,   53137,   53136,   52932,   52927,   53107,   53106
   50733,   52903,   52931,   53136,   53035,   52902,   52932,   53106,   53034
   50734,   52975,   52948,   53015,   53135,   52974,   52949,   53014,   53105
   50735,   52970,   52975,   53135,   53134,   52969,   52974,   53105,   53104
   50736,   52965,   52970,   53134,   53133,   52964,   52969,   53104,   53103
   50737,   52960,   52965,   53133,   53132,   52959,   52964,   53103,   53102
   50738,   52955,   52960,   53132,   53131,   52954,   52959,   53102,   53101
   50739,   53005,   52939,   52955,   53131,   53004,   52938,   52954,   53101
   50740,   53000,   53005,   53131,   53130,   52999,   53004,   53101,   53100
   50741,   52995,   53000,   53130,   53129,   52994,   52999,   53100,   53099
   50742,   52990,   52995,   53129,   53128,   52989,   52994,   53099,   53098
   50743,   52985,   52990,   53128,   53127,   52984,   52989,   53098,   53097
   50744,   52883,   52985,   53127,   52897,   52884,   52984,   53097,   52896
   50745,   53185,   53180,   53186,   53184,   53155,   53150,   53156,   53154
   50746,   53183,   53184,   53186,   53182,   53153,   53154,   53156,   53152
   50747,   53181,   53182,   53186,   53180,   53151,   53152,   53156,   53150
   50748,   53178,   53179,   53180,   53185,   53148,   53149,   53150,   53155
   50749,   53176,   53177,   53178,   53185,   53146,   53147,   53148,   53155
   50750,   53175,   53176,   53185,   53184,   53145,   53146,   53155,   53154
   50751,   53174,   53175,   53184,   53183,   53144,   53145,   53154,   53153
   50752,   53169,   53170,   53174,   53183,   53139,   53140,   53144,   53153
   50753,   53168,   53169,   53183,   53182,   53138,   53139,   53153,   53152
   50754,   53167,   53168,   53182,   53181,   53137,   53138,   53152,   53151
   50755,   53173,   53166,   53167,   53181,   53143,   53136,   53137,   53151
   50756,   53172,   53173,   53181,   53180,   53142,   53143,   53151,   53150
   50757,   53171,   53172,   53180,   53179,   53141,   53142,   53150,   53149
   50758,   53164,   53165,   53171,   53179,   53134,   53135,   53141,   53149
   50759,   53163,   53164,   53179,   53178,   53133,   53134,   53149,   53148
   50760,   53162,   53163,   53178,   53177,   53132,   53133,   53148,   53147
   50761,   53160,   53161,   53162,   53177,   53130,   53131,   53132,   53147
   50762,   53159,   53160,   53177,   53176,   53129,   53130,   53147,   53146
   50763,   53158,   53159,   53176,   53175,   53128,   53129,   53146,   53145
   50764,   53157,   53158,   53175,   53174,   53127,   53128,   53145,   53144
   50765,   52898,   53157,   53174,   53170,   52897,   53127,   53144,   53140
   50766,   53031,   53036,   53166,   53173,   53030,   53035,   53136,   53143
   50767,   53026,   53031,   53173,   53172,   53025,   53030,   53143,   53142
   50768,   53021,   53026,   53172,   53171,   53020,   53025,   53142,   53141
   50769,   53016,   53021,   53171,   53165,   53015,   53020,   53141,   53135
   50770,   52910,   52893,   52898,   53170,   52911,   52892,   52897,   53140
   50771,   52915,   52910,   53170,   53169,   52916,   52911,   53140,   53139
   50772,   52920,   52915,   53169,   53168,   52921,   52916,   53139,   53138
   50773,   52925,   52920,   53168,   53167,   52926,   52921,   53138,   53137
   50774,   52930,   52925,   53167,   53166,   52931,   52926,   53137,   53136
   50775,   52904,   52930,   53166,   53036,   52903,   52931,   53136,   53035
   50776,   52976,   52947,   53016,   53165,   52975,   52948,   53015,   53135
   50777,   52971,   52976,   53165,   53164,   52970,   52975,   53135,   53134
   50778,   52966,   52971,   53164,   53163,   52965,   52970,   53134,   53133
   50779,   52961,   52966,   53163,   53162,   52960,   52965,   53133,   53132
   50780,   52956,   52961,   53162,   53161,   52955,   52960,   53132,   53131
   50781,   53006,   52940,   52956,   53161,   53005,   52939,   52955,   53131
   50782,   53001,   53006,   53161,   53160,   53000,   53005,   53131,   53130
   50783,   52996,   53001,   53160,   53159,   52995,   53000,   53130,   53129
   50784,   52991,   52996,   53159,   53158,   52990,   52995,   53129,   53128
   50785,   52986,   52991,   53158,   53157,   52985,   52990,   53128,   53127
   50786,   52882,   52986,   53157,   52898,   52883,   52985,   53127,   52897
   50787,   53215,   53210,   53216,   53214,   53185,   53180,   53186,   53184
   50788,   53213,   53214,   53216,   53212,   53183,   53184,   53186,   53182
   50789,   53211,   53212,   53216,   53210,   53181,   53182,   53186,   53180
   50790,   53208,   53209,   53210,   53215,   53178,   53179,   53180,   53185
   50791,   53206,   53207,   53208,   53215,   53176,   53177,   53178,   53185
   50792,   53205,   53206,   53215,   53214,   53175,   53176,   53185,   53184
   50793,   53204,   53205,   53214,   53213,   53174,   53175,   53184,   53183
   50794,   53199,   53200,   53204,   53213,   53169,   53170,   53174,   53183
   50795,   53198,   53199,   53213,   53212,   53168,   53169,   53183,   53182
   50796,   53197,   53198,   53212,   53211,   53167,   53168,   53182,   53181
   50797,   53203,   53196,   53197,   53211,   53173,   53166,   53167,   53181
   50798,   53202,   53203,   53211,   53210,   53172,   53173,   53181,   53180
   50799,   53201,   53202,   53210,   53209,   53171,   53172,   53180,   53179
   50800,   53194,   53195,   53201,   53209,   53164,   53165,   53171,   53179
   50801,   53193,   53194,   53209,   53208,   53163,   53164,   53179,   53178
   50802,   53192,   53193,   53208,   53207,   53162,   53163,   53178,   53177
   50803,   53190,   53191,   53192,   53207,   53160,   53161,   53162,   53177
   50804,   53189,   53190,   53207,   53206,   53159,   53160,   53177,   53176
   50805,   53188,   53189,   53206,   53205,   53158,   53159,   53176,   53175
   50806,   53187,   53188,   53205,   53204,   53157,   53158,   53175,   53174
   50807,   52888,   53187,   53204,   53200,   52898,   53157,   53174,   53170
   50808,   53008,   53007,   53196,   53203,   53031,   53036,   53166,   53173
   50809,   53009,   53008,   53203,   53202,   53026,   53031,   53173,   53172
   50810,   53010,   53009,   53202,   53201,   53021,   53026,   53172,   53171
   50811,   53011,   53010,   53201,   53195,   53016,   53021,   53171,   53165
   50812,   52905,   52887,   52888,   53200,   52910,   52893,   52898,   53170
   50813,   52906,   52905,   53200,   53199,   52915,   52910,   53170,   53169
   50814,   52907,   52906,   53199,   53198,   52920,   52915,   53169,   53168
   50815,   52908,   52907,   53198,   53197,   52925,   52920,   53168,   53167
   50816,   52909,   52908,   53197,   53196,   52930,   52925,   53167,   53166
   50817,   52899,   52909,   53196,   53007,   52904,   52930,   53166,   53036
   50818,   52946,   52941,   53011,   53195,   52976,   52947,   53016,   53165
   50819,   52945,   52946,   53195,   53194,   52971,   52976,   53165,   53164
   50820,   52944,   52945,   53194,   53193,   52966,   52971,   53164,   53163
   50821,   52943,   52944,   53193,   53192,   52961,   52966,   53163,   53162
   50822,   52942,   52943,   53192,   53191,   52956,   52961,   53162,   53161
   50823,   52977,   52935,   52942,   53191,   53006,   52940,   52956,   53161
   50824,   52978,   52977,   53191,   53190,   53001,   53006,   53161,   53160
   50825,   52979,   52978,   53190,   53189,   52996,   53001,   53160,   53159
   50826,   52980,   52979,   53189,   53188,   52991,   52996,   53159,   53158
   50827,   52981,   52980,   53188,   53187,   52986,   52991,   53158,   53157
   50828,   52881,   52981,   53187,   52888,   52882,   52986,   53157,   52898
   50829,   53588,   53649,   53658,   53594,   52881,   53218,   53281,   52882
   50830,   53649,   53650,   53663,   53658,   53218,   53219,   53286,   53281
   50831,   53650,   53651,   53668,   53663,   53219,   53220,   53291,   53286
   50832,   53651,   53652,   53673,   53668,   53220,   53221,   53296,   53291
   50833,   53652,   53653,   53678,   53673,   53221,   53222,   53301,   53296
   50834,   53653,   53643,   53648,   53678,   53222,   53217,   53276,   53301
   50835,   53594,   53658,   53657,   53593,   52882,   53281,   53282,   52883
   50836,   53658,   53663,   53662,   53657,   53281,   53286,   53287,   53282
   50837,   53663,   53668,   53667,   53662,   53286,   53291,   53292,   53287
   50838,   53668,   53673,   53672,   53667,   53291,   53296,   53297,   53292
   50839,   53673,   53678,   53677,   53672,   53296,   53301,   53302,   53297
   50840,   53678,   53648,   53647,   53677,   53301,   53276,   53277,   53302
   50841,   53593,   53657,   53656,   53592,   52883,   53282,   53283,   52884
   50842,   53657,   53662,   53661,   53656,   53282,   53287,   53288,   53283
   50843,   53662,   53667,   53666,   53661,   53287,   53292,   53293,   53288
   50844,   53667,   53672,   53671,   53666,   53292,   53297,   53298,   53293
   50845,   53672,   53677,   53676,   53671,   53297,   53302,   53303,   53298
   50846,   53677,   53647,   53646,   53676,   53302,   53277,   53278,   53303
   50847,   53592,   53656,   53655,   53591,   52884,   53283,   53284,   52885
   50848,   53656,   53661,   53660,   53655,   53283,   53288,   53289,   53284
   50849,   53661,   53666,   53665,   53660,   53288,   53293,   53294,   53289
   50850,   53666,   53671,   53670,   53665,   53293,   53298,   53299,   53294
   50851,   53671,   53676,   53675,   53670,   53298,   53303,   53304,   53299
   50852,   53676,   53646,   53645,   53675,   53303,   53278,   53279,   53304
   50853,   53591,   53655,   53654,   53590,   52885,   53284,   53285,   52886
   50854,   53655,   53660,   53659,   53654,   53284,   53289,   53290,   53285
   50855,   53660,   53665,   53664,   53659,   53289,   53294,   53295,   53290
   50856,   53665,   53670,   53669,   53664,   53294,   53299,   53300,   53295
   50857,   53670,   53675,   53674,   53669,   53299,   53304,   53305,   53300
   50858,   53675,   53645,   53644,   53674,   53304,   53279,   53280,   53305
   50859,   53590,   53654,   53642,   53589,   52886,   53285,   53275,   52825
   50860,   53654,   53659,   53641,   53642,   53285,   53290,   53274,   53275
   50861,   53659,   53664,   53640,   53641,   53290,   53295,   53273,   53274
   50862,   53664,   53669,   53639,   53640,   53295,   53300,   53272,   53273
   50863,   53669,   53674,   53638,   53639,   53300,   53305,   53271,   53272
   50864,   53674,   53644,   53637,   53638,   53305,   53280,   53270,   53271
   50865,   53436,   53431,   53437,   53435,   53268,   53263,   53269,   53267
   50866,   53434,   53435,   53437,   53433,   53266,   53267,   53269,   53265
   50867,   53432,   53433,   53437,   53431,   53264,   53265,   53269,   53263
   50868,   53429,   53430,   53431,   53436,   53261,   53262,   53263,   53268
   50869,   53427,   53428,   53429,   53436,   53259,   53260,   53261,   53268
   50870,   53426,   53427,   53436,   53435,   53258,   53259,   53268,   53267
   50871,   53425,   53426,   53435,   53434,   53257,   53258,   53267,   53266
   50872,   53420,   53421,   53425,   53434,   53252,   53253,   53257,   53266
   50873,   53419,   53420,   53434,   53433,   53251,   53252,   53266,   53265
   50874,   53418,   53419,   53433,   53432,   53250,   53251,   53265,   53264
   50875,   53424,   53417,   53418,   53432,   53256,   53249,   53250,   53264
   50876,   53423,   53424,   53432,   53431,   53255,   53256,   53264,   53263
   50877,   53422,   53423,   53431,   53430,   53254,   53255,   53263,   53262
   50878,   53415,   53416,   53422,   53430,   53247,   53248,   53254,   53262
   50879,   53414,   53415,   53430,   53429,   53246,   53247,   53262,   53261
   50880,   53413,   53414,   53429,   53428,   53245,   53246,   53261,   53260
   50881,   53411,   53412,   53413,   53428,   53243,   53244,   53245,   53260
   50882,   53410,   53411,   53428,   53427,   53242,   53243,   53260,   53259
   50883,   53409,   53410,   53427,   53426,   53241,   53242,   53259,   53258
   50884,   53408,   53409,   53426,   53425,   53240,   53241,   53258,   53257
   50885,   52898,   53408,   53425,   53421,   52888,   53240,   53257,   53253
   50886,   53398,   53403,   53417,   53424,   53233,   53234,   53249,   53256
   50887,   53393,   53398,   53424,   53423,   53232,   53233,   53256,   53255
   50888,   53388,   53393,   53423,   53422,   53231,   53232,   53255,   53254
   50889,   53383,   53388,   53422,   53416,   53230,   53231,   53254,   53248
   50890,   53357,   52893,   52898,   53421,   53239,   52887,   52888,   53253
   50891,   53362,   53357,   53421,   53420,   53238,   53239,   53253,   53252
   50892,   53367,   53362,   53420,   53419,   53237,   53238,   53252,   53251
   50893,   53372,   53367,   53419,   53418,   53236,   53237,   53251,   53250
   50894,   53377,   53372,   53418,   53417,   53235,   53236,   53250,   53249
   50895,   53347,   53377,   53417,   53403,   53229,   53235,   53249,   53234
   50896,   53337,   53316,   53383,   53416,   53224,   53223,   53230,   53248
   50897,   53332,   53337,   53416,   53415,   53225,   53224,   53248,   53247
   50898,   53327,   53332,   53415,   53414,   53226,   53225,   53247,   53246
   50899,   53322,   53327,   53414,   53413,   53227,   53226,   53246,   53245
   50900,   53317,   53322,   53413,   53412,   53228,   53227,   53245,   53244
   50901,   53301,   53276,   53317,   53412,   53222,   53217,   53228,   53244
   50902,   53296,   53301,   53412,   53411,   53221,   53222,   53244,   53243
   50903,   53291,   53296,   53411,   53410,   53220,   53221,   53243,   53242
   50904,   53286,   53291,   53410,   53409,   53219,   53220,   53242,   53241
   50905,   53281,   53286,   53409,   53408,   53218,   53219,   53241,   53240
   50906,   52882,   53281,   53408,   52898,   52881,   53218,   53240,   52888
   50907,   53466,   53461,   53467,   53465,   53436,   53431,   53437,   53435
   50908,   53464,   53465,   53467,   53463,   53434,   53435,   53437,   53433
   50909,   53462,   53463,   53467,   53461,   53432,   53433,   53437,   53431
   50910,   53459,   53460,   53461,   53466,   53429,   53430,   53431,   53436
   50911,   53457,   53458,   53459,   53466,   53427,   53428,   53429,   53436
   50912,   53456,   53457,   53466,   53465,   53426,   53427,   53436,   53435
   50913,   53455,   53456,   53465,   53464,   53425,   53426,   53435,   53434
   50914,   53450,   53451,   53455,   53464,   53420,   53421,   53425,   53434
   50915,   53449,   53450,   53464,   53463,   53419,   53420,   53434,   53433
   50916,   53448,   53449,   53463,   53462,   53418,   53419,   53433,   53432
   50917,   53454,   53447,   53448,   53462,   53424,   53417,   53418,   53432
   50918,   53453,   53454,   53462,   53461,   53423,   53424,   53432,   53431
   50919,   53452,   53453,   53461,   53460,   53422,   53423,   53431,   53430
   50920,   53445,   53446,   53452,   53460,   53415,   53416,   53422,   53430
   50921,   53444,   53445,   53460,   53459,   53414,   53415,   53430,   53429
   50922,   53443,   53444,   53459,   53458,   53413,   53414,   53429,   53428
   50923,   53441,   53442,   53443,   53458,   53411,   53412,   53413,   53428
   50924,   53440,   53441,   53458,   53457,   53410,   53411,   53428,   53427
   50925,   53439,   53440,   53457,   53456,   53409,   53410,   53427,   53426
   50926,   53438,   53439,   53456,   53455,   53408,   53409,   53426,   53425
   50927,   52897,   53438,   53455,   53451,   52898,   53408,   53425,   53421
   50928,   53399,   53404,   53447,   53454,   53398,   53403,   53417,   53424
   50929,   53394,   53399,   53454,   53453,   53393,   53398,   53424,   53423
   50930,   53389,   53394,   53453,   53452,   53388,   53393,   53423,   53422
   50931,   53384,   53389,   53452,   53446,   53383,   53388,   53422,   53416
   50932,   53356,   52892,   52897,   53451,   53357,   52893,   52898,   53421
   50933,   53361,   53356,   53451,   53450,   53362,   53357,   53421,   53420
   50934,   53366,   53361,   53450,   53449,   53367,   53362,   53420,   53419
   50935,   53371,   53366,   53449,   53448,   53372,   53367,   53419,   53418
   50936,   53376,   53371,   53448,   53447,   53377,   53372,   53418,   53417
   50937,   53346,   53376,   53447,   53404,   53347,   53377,   53417,   53403
   50938,   53338,   53315,   53384,   53446,   53337,   53316,   53383,   53416
   50939,   53333,   53338,   53446,   53445,   53332,   53337,   53416,   53415
   50940,   53328,   53333,   53445,   53444,   53327,   53332,   53415,   53414
   50941,   53323,   53328,   53444,   53443,   53322,   53327,   53414,   53413
   50942,   53318,   53323,   53443,   53442,   53317,   53322,   53413,   53412
   50943,   53302,   53277,   53318,   53442,   53301,   53276,   53317,   53412
   50944,   53297,   53302,   53442,   53441,   53296,   53301,   53412,   53411
   50945,   53292,   53297,   53441,   53440,   53291,   53296,   53411,   53410
   50946,   53287,   53292,   53440,   53439,   53286,   53291,   53410,   53409
   50947,   53282,   53287,   53439,   53438,   53281,   53286,   53409,   53408
   50948,   52883,   53282,   53438,   52897,   52882,   53281,   53408,   52898
   50949,   53496,   53491,   53497,   53495,   53466,   53461,   53467,   53465
   50950,   53494,   53495,   53497,   53493,   53464,   53465,   53467,   53463
   50951,   53492,   53493,   53497,   53491,   53462,   53463,   53467,   53461
   50952,   53489,   53490,   53491,   53496,   53459,   53460,   53461,   53466
   50953,   53487,   53488,   53489,   53496,   53457,   53458,   53459,   53466
   50954,   53486,   53487,   53496,   53495,   53456,   53457,   53466,   53465
   50955,   53485,   53486,   53495,   53494,   53455,   53456,   53465,   53464
   50956,   53480,   53481,   53485,   53494,   53450,   53451,   53455,   53464
   50957,   53479,   53480,   53494,   53493,   53449,   53450,   53464,   53463
   50958,   53478,   53479,   53493,   53492,   53448,   53449,   53463,   53462
   50959,   53484,   53477,   53478,   53492,   53454,   53447,   53448,   53462
   50960,   53483,   53484,   53492,   53491,   53453,   53454,   53462,   53461
   50961,   53482,   53483,   53491,   53490,   53452,   53453,   53461,   53460
   50962,   53475,   53476,   53482,   53490,   53445,   53446,   53452,   53460
   50963,   53474,   53475,   53490,   53489,   53444,   53445,   53460,   53459
   50964,   53473,   53474,   53489,   53488,   53443,   53444,   53459,   53458
   50965,   53471,   53472,   53473,   53488,   53441,   53442,   53443,   53458
   50966,   53470,   53471,   53488,   53487,   53440,   53441,   53458,   53457
   50967,   53469,   53470,   53487,   53486,   53439,   53440,   53457,   53456
   50968,   53468,   53469,   53486,   53485,   53438,   53439,   53456,   53455
   50969,   52896,   53468,   53485,   53481,   52897,   53438,   53455,   53451
   50970,   53400,   53405,   53477,   53484,   53399,   53404,   53447,   53454
   50971,   53395,   53400,   53484,   53483,   53394,   53399,   53454,   53453
   50972,   53390,   53395,   53483,   53482,   53389,   53394,   53453,   53452
   50973,   53385,   53390,   53482,   53476,   53384,   53389,   53452,   53446
   50974,   53355,   52891,   52896,   53481,   53356,   52892,   52897,   53451
   50975,   53360,   53355,   53481,   53480,   53361,   53356,   53451,   53450
   50976,   53365,   53360,   53480,   53479,   53366,   53361,   53450,   53449
   50977,   53370,   53365,   53479,   53478,   53371,   53366,   53449,   53448
   50978,   53375,   53370,   53478,   53477,   53376,   53371,   53448,   53447
   50979,   53345,   53375,   53477,   53405,   53346,   53376,   53447,   53404
   50980,   53339,   53314,   53385,   53476,   53338,   53315,   53384,   53446
   50981,   53334,   53339,   53476,   53475,   53333,   53338,   53446,   53445
   50982,   53329,   53334,   53475,   53474,   53328,   53333,   53445,   53444
   50983,   53324,   53329,   53474,   53473,   53323,   53328,   53444,   53443
   50984,   53319,   53324,   53473,   53472,   53318,   53323,   53443,   53442
   50985,   53303,   53278,   53319,   53472,   53302,   53277,   53318,   53442
   50986,   53298,   53303,   53472,   53471,   53297,   53302,   53442,   53441
   50987,   53293,   53298,   53471,   53470,   53292,   53297,   53441,   53440
   50988,   53288,   53293,   53470,   53469,   53287,   53292,   53440,   53439
   50989,   53283,   53288,   53469,   53468,   53282,   53287,   53439,   53438
   50990,   52884,   53283,   53468,   52896,   52883,   53282,   53438,   52897
   50991,   53526,   53521,   53527,   53525,   53496,   53491,   53497,   53495
   50992,   53524,   53525,   53527,   53523,   53494,   53495,   53497,   53493
   50993,   53522,   53523,   53527,   53521,   53492,   53493,   53497,   53491
   50994,   53519,   53520,   53521,   53526,   53489,   53490,   53491,   53496
   50995,   53517,   53518,   53519,   53526,   53487,   53488,   53489,   53496
   50996,   53516,   53517,   53526,   53525,   53486,   53487,   53496,   53495
   50997,   53515,   53516,   53525,   53524,   53485,   53486,   53495,   53494
   50998,   53510,   53511,   53515,   53524,   53480,   53481,   53485,   53494
   50999,   53509,   53510,   53524,   53523,   53479,   53480,   53494,   53493
   51000,   53508,   53509,   53523,   53522,   53478,   53479,   53493,   53492
   51001,   53514,   53507,   53508,   53522,   53484,   53477,   53478,   53492
   51002,   53513,   53514,   53522,   53521,   53483,   53484,   53492,   53491
   51003,   53512,   53513,   53521,   53520,   53482,   53483,   53491,   53490
   51004,   53505,   53506,   53512,   53520,   53475,   53476,   53482,   53490
   51005,   53504,   53505,   53520,   53519,   53474,   53475,   53490,   53489
   51006,   53503,   53504,   53519,   53518,   53473,   53474,   53489,   53488
   51007,   53501,   53502,   53503,   53518,   53471,   53472,   53473,   53488
   51008,   53500,   53501,   53518,   53517,   53470,   53471,   53488,   53487
   51009,   53499,   53500,   53517,   53516,   53469,   53470,   53487,   53486
   51010,   53498,   53499,   53516,   53515,   53468,   53469,   53486,   53485
   51011,   52895,   53498,   53515,   53511,   52896,   53468,   53485,   53481
   51012,   53401,   53406,   53507,   53514,   53400,   53405,   53477,   53484
   51013,   53396,   53401,   53514,   53513,   53395,   53400,   53484,   53483
   51014,   53391,   53396,   53513,   53512,   53390,   53395,   53483,   53482
   51015,   53386,   53391,   53512,   53506,   53385,   53390,   53482,   53476
   51016,   53354,   52890,   52895,   53511,   53355,   52891,   52896,   53481
   51017,   53359,   53354,   53511,   53510,   53360,   53355,   53481,   53480
   51018,   53364,   53359,   53510,   53509,   53365,   53360,   53480,   53479
   51019,   53369,   53364,   53509,   53508,   53370,   53365,   53479,   53478
   51020,   53374,   53369,   53508,   53507,   53375,   53370,   53478,   53477
   51021,   53344,   53374,   53507,   53406,   53345,   53375,   53477,   53405
   51022,   53340,   53313,   53386,   53506,   53339,   53314,   53385,   53476
   51023,   53335,   53340,   53506,   53505,   53334,   53339,   53476,   53475
   51024,   53330,   53335,   53505,   53504,   53329,   53334,   53475,   53474
   51025,   53325,   53330,   53504,   53503,   53324,   53329,   53474,   53473
   51026,   53320,   53325,   53503,   53502,   53319,   53324,   53473,   53472
   51027,   53304,   53279,   53320,   53502,   53303,   53278,   53319,   53472
   51028,   53299,   53304,   53502,   53501,   53298,   53303,   53472,   53471
   51029,   53294,   53299,   53501,   53500,   53293,   53298,   53471,   53470
   51030,   53289,   53294,   53500,   53499,   53288,   53293,   53470,   53469
   51031,   53284,   53289,   53499,   53498,   53283,   53288,   53469,   53468
   51032,   52885,   53284,   53498,   52895,   52884,   53283,   53468,   52896
   51033,   53556,   53551,   53557,   53555,   53526,   53521,   53527,   53525
   51034,   53554,   53555,   53557,   53553,   53524,   53525,   53527,   53523
   51035,   53552,   53553,   53557,   53551,   53522,   53523,   53527,   53521
   51036,   53549,   53550,   53551,   53556,   53519,   53520,   53521,   53526
   51037,   53547,   53548,   53549,   53556,   53517,   53518,   53519,   53526
   51038,   53546,   53547,   53556,   53555,   53516,   53517,   53526,   53525
   51039,   53545,   53546,   53555,   53554,   53515,   53516,   53525,   53524
   51040,   53540,   53541,   53545,   53554,   53510,   53511,   53515,   53524
   51041,   53539,   53540,   53554,   53553,   53509,   53510,   53524,   53523
   51042,   53538,   53539,   53553,   53552,   53508,   53509,   53523,   53522
   51043,   53544,   53537,   53538,   53552,   53514,   53507,   53508,   53522
   51044,   53543,   53544,   53552,   53551,   53513,   53514,   53522,   53521
   51045,   53542,   53543,   53551,   53550,   53512,   53513,   53521,   53520
   51046,   53535,   53536,   53542,   53550,   53505,   53506,   53512,   53520
   51047,   53534,   53535,   53550,   53549,   53504,   53505,   53520,   53519
   51048,   53533,   53534,   53549,   53548,   53503,   53504,   53519,   53518
   51049,   53531,   53532,   53533,   53548,   53501,   53502,   53503,   53518
   51050,   53530,   53531,   53548,   53547,   53500,   53501,   53518,   53517
   51051,   53529,   53530,   53547,   53546,   53499,   53500,   53517,   53516
   51052,   53528,   53529,   53546,   53545,   53498,   53499,   53516,   53515
   51053,   52894,   53528,   53545,   53541,   52895,   53498,   53515,   53511
   51054,   53402,   53407,   53537,   53544,   53401,   53406,   53507,   53514
   51055,   53397,   53402,   53544,   53543,   53396,   53401,   53514,   53513
   51056,   53392,   53397,   53543,   53542,   53391,   53396,   53513,   53512
   51057,   53387,   53392,   53542,   53536,   53386,   53391,   53512,   53506
   51058,   53353,   52889,   52894,   53541,   53354,   52890,   52895,   53511
   51059,   53358,   53353,   53541,   53540,   53359,   53354,   53511,   53510
   51060,   53363,   53358,   53540,   53539,   53364,   53359,   53510,   53509
   51061,   53368,   53363,   53539,   53538,   53369,   53364,   53509,   53508
   51062,   53373,   53368,   53538,   53537,   53374,   53369,   53508,   53507
   51063,   53343,   53373,   53537,   53407,   53344,   53374,   53507,   53406
   51064,   53341,   53312,   53387,   53536,   53340,   53313,   53386,   53506
   51065,   53336,   53341,   53536,   53535,   53335,   53340,   53506,   53505
   51066,   53331,   53336,   53535,   53534,   53330,   53335,   53505,   53504
   51067,   53326,   53331,   53534,   53533,   53325,   53330,   53504,   53503
   51068,   53321,   53326,   53533,   53532,   53320,   53325,   53503,   53502
   51069,   53305,   53280,   53321,   53532,   53304,   53279,   53320,   53502
   51070,   53300,   53305,   53532,   53531,   53299,   53304,   53502,   53501
   51071,   53295,   53300,   53531,   53530,   53294,   53299,   53501,   53500
   51072,   53290,   53295,   53530,   53529,   53289,   53294,   53500,   53499
   51073,   53285,   53290,   53529,   53528,   53284,   53289,   53499,   53498
   51074,   52886,   53285,   53528,   52894,   52885,   53284,   53498,   52895
   51075,   53586,   53581,   53587,   53585,   53556,   53551,   53557,   53555
   51076,   53584,   53585,   53587,   53583,   53554,   53555,   53557,   53553
   51077,   53582,   53583,   53587,   53581,   53552,   53553,   53557,   53551
   51078,   53579,   53580,   53581,   53586,   53549,   53550,   53551,   53556
   51079,   53577,   53578,   53579,   53586,   53547,   53548,   53549,   53556
   51080,   53576,   53577,   53586,   53585,   53546,   53547,   53556,   53555
   51081,   53575,   53576,   53585,   53584,   53545,   53546,   53555,   53554
   51082,   53570,   53571,   53575,   53584,   53540,   53541,   53545,   53554
   51083,   53569,   53570,   53584,   53583,   53539,   53540,   53554,   53553
   51084,   53568,   53569,   53583,   53582,   53538,   53539,   53553,   53552
   51085,   53574,   53567,   53568,   53582,   53544,   53537,   53538,   53552
   51086,   53573,   53574,   53582,   53581,   53543,   53544,   53552,   53551
   51087,   53572,   53573,   53581,   53580,   53542,   53543,   53551,   53550
   51088,   53565,   53566,   53572,   53580,   53535,   53536,   53542,   53550
   51089,   53564,   53565,   53580,   53579,   53534,   53535,   53550,   53549
   51090,   53563,   53564,   53579,   53578,   53533,   53534,   53549,   53548
   51091,   53561,   53562,   53563,   53578,   53531,   53532,   53533,   53548
   51092,   53560,   53561,   53578,   53577,   53530,   53531,   53548,   53547
   51093,   53559,   53560,   53577,   53576,   53529,   53530,   53547,   53546
   51094,   53558,   53559,   53576,   53575,   53528,   53529,   53546,   53545
   51095,   52827,   53558,   53575,   53571,   52894,   53528,   53545,   53541
   51096,   53379,   53378,   53567,   53574,   53402,   53407,   53537,   53544
   51097,   53380,   53379,   53574,   53573,   53397,   53402,   53544,   53543
   51098,   53381,   53380,   53573,   53572,   53392,   53397,   53543,   53542
   51099,   53382,   53381,   53572,   53566,   53387,   53392,   53542,   53536
   51100,   53348,   52826,   52827,   53571,   53353,   52889,   52894,   53541
   51101,   53349,   53348,   53571,   53570,   53358,   53353,   53541,   53540
   51102,   53350,   53349,   53570,   53569,   53363,   53358,   53540,   53539
   51103,   53351,   53350,   53569,   53568,   53368,   53363,   53539,   53538
   51104,   53352,   53351,   53568,   53567,   53373,   53368,   53538,   53537
   51105,   53342,   53352,   53567,   53378,   53343,   53373,   53537,   53407
   51106,   53311,   53306,   53382,   53566,   53341,   53312,   53387,   53536
   51107,   53310,   53311,   53566,   53565,   53336,   53341,   53536,   53535
   51108,   53309,   53310,   53565,   53564,   53331,   53336,   53535,   53534
   51109,   53308,   53309,   53564,   53563,   53326,   53331,   53534,   53533
   51110,   53307,   53308,   53563,   53562,   53321,   53326,   53533,   53532
   51111,   53271,   53270,   53307,   53562,   53305,   53280,   53321,   53532
   51112,   53272,   53271,   53562,   53561,   53300,   53305,   53532,   53531
   51113,   53273,   53272,   53561,   53560,   53295,   53300,   53531,   53530
   51114,   53274,   53273,   53560,   53559,   53290,   53295,   53530,   53529
   51115,   53275,   53274,   53559,   53558,   53285,   53290,   53529,   53528
   51116,   52825,   53275,   53558,   52827,   52886,   53285,   53528,   52894
*ELEMENT, TYPE=C3D8R, ELSET=mortar
   51117,   54863,   55311,   55013,   54911,   54864,   55358,   55018,   54958
   51118,   55311,   55310,   55014,   55013,   55358,   55405,   55065,   55018
   51119,   55310,   55309,   55015,   55014,   55405,   55452,   55112,   55065
   51120,   55309,   55308,   55016,   55015,   55452,   55499,   55159,   55112
   51121,   55308,   55307,   55017,   55016,   55499,   55546,   55206,   55159
   51122,   55307,   55259,   54965,   55017,   55546,   55306,   54966,   55206
   51123,   54864,   55358,   55018,   54958,   54865,   55357,   55019,   54957
   51124,   55358,   55405,   55065,   55018,   55357,   55404,   55066,   55019
   51125,   55405,   55452,   55112,   55065,   55404,   55451,   55113,   55066
   51126,   55452,   55499,   55159,   55112,   55451,   55498,   55160,   55113
   51127,   55499,   55546,   55206,   55159,   55498,   55545,   55207,   55160
   51128,   55546,   55306,   54966,   55206,   55545,   55305,   54967,   55207
   51129,   54865,   55357,   55019,   54957,   54866,   55356,   55020,   54956
   51130,   55357,   55404,   55066,   55019,   55356,   55403,   55067,   55020
   51131,   55404,   55451,   55113,   55066,   55403,   55450,   55114,   55067
   51132,   55451,   55498,   55160,   55113,   55450,   55497,   55161,   55114
   51133,   55498,   55545,   55207,   55160,   55497,   55544,   55208,   55161
   51134,   55545,   55305,   54967,   55207,   55544,   55304,   54968,   55208
   51135,   54866,   55356,   55020,   54956,   54867,   55355,   55021,   54955
   51136,   55356,   55403,   55067,   55020,   55355,   55402,   55068,   55021
   51137,   55403,   55450,   55114,   55067,   55402,   55449,   55115,   55068
   51138,   55450,   55497,   55161,   55114,   55449,   55496,   55162,   55115
   51139,   55497,   55544,   55208,   55161,   55496,   55543,   55209,   55162
   51140,   55544,   55304,   54968,   55208,   55543,   55303,   54969,   55209
   51141,   54867,   55355,   55021,   54955,   54868,   55354,   55022,   54954
   51142,   55355,   55402,   55068,   55021,   55354,   55401,   55069,   55022
   51143,   55402,   55449,   55115,   55068,   55401,   55448,   55116,   55069
   51144,   55449,   55496,   55162,   55115,   55448,   55495,   55163,   55116
   51145,   55496,   55543,   55209,   55162,   55495,   55542,   55210,   55163
   51146,   55543,   55303,   54969,   55209,   55542,   55302,   54970,   55210
   51147,   54868,   55354,   55022,   54954,   54869,   55353,   55023,   54953
   51148,   55354,   55401,   55069,   55022,   55353,   55400,   55070,   55023
   51149,   55401,   55448,   55116,   55069,   55400,   55447,   55117,   55070
   51150,   55448,   55495,   55163,   55116,   55447,   55494,   55164,   55117
   51151,   55495,   55542,   55210,   55163,   55494,   55541,   55211,   55164
   51152,   55542,   55302,   54970,   55210,   55541,   55301,   54971,   55211
   51153,   54869,   55353,   55023,   54953,   54870,   55352,   55024,   54952
   51154,   55353,   55400,   55070,   55023,   55352,   55399,   55071,   55024
   51155,   55400,   55447,   55117,   55070,   55399,   55446,   55118,   55071
   51156,   55447,   55494,   55164,   55117,   55446,   55493,   55165,   55118
   51157,   55494,   55541,   55211,   55164,   55493,   55540,   55212,   55165
   51158,   55541,   55301,   54971,   55211,   55540,   55300,   54972,   55212
   51159,   54870,   55352,   55024,   54952,   54871,   55351,   55025,   54951
   51160,   55352,   55399,   55071,   55024,   55351,   55398,   55072,   55025
   51161,   55399,   55446,   55118,   55071,   55398,   55445,   55119,   55072
   51162,   55446,   55493,   55165,   55118,   55445,   55492,   55166,   55119
   51163,   55493,   55540,   55212,   55165,   55492,   55539,   55213,   55166
   51164,   55540,   55300,   54972,   55212,   55539,   55299,   54973,   55213
   51165,   54871,   55351,   55025,   54951,   54872,   55350,   55026,   54950
   51166,   55351,   55398,   55072,   55025,   55350,   55397,   55073,   55026
   51167,   55398,   55445,   55119,   55072,   55397,   55444,   55120,   55073
   51168,   55445,   55492,   55166,   55119,   55444,   55491,   55167,   55120
   51169,   55492,   55539,   55213,   55166,   55491,   55538,   55214,   55167
   51170,   55539,   55299,   54973,   55213,   55538,   55298,   54974,   55214
   51171,   54872,   55350,   55026,   54950,   54873,   55349,   55027,   54949
   51172,   55350,   55397,   55073,   55026,   55349,   55396,   55074,   55027
   51173,   55397,   55444,   55120,   55073,   55396,   55443,   55121,   55074
   51174,   55444,   55491,   55167,   55120,   55443,   55490,   55168,   55121
   51175,   55491,   55538,   55214,   55167,   55490,   55537,   55215,   55168
   51176,   55538,   55298,   54974,   55214,   55537,   55297,   54975,   55215
   51177,   54873,   55349,   55027,   54949,   54874,   55348,   55028,   54948
   51178,   55349,   55396,   55074,   55027,   55348,   55395,   55075,   55028
   51179,   55396,   55443,   55121,   55074,   55395,   55442,   55122,   55075
   51180,   55443,   55490,   55168,   55121,   55442,   55489,   55169,   55122
   51181,   55490,   55537,   55215,   55168,   55489,   55536,   55216,   55169
   51182,   55537,   55297,   54975,   55215,   55536,   55296,   54976,   55216
   51183,   54874,   55348,   55028,   54948,   54875,   55347,   55029,   54947
   51184,   55348,   55395,   55075,   55028,   55347,   55394,   55076,   55029
   51185,   55395,   55442,   55122,   55075,   55394,   55441,   55123,   55076
   51186,   55442,   55489,   55169,   55122,   55441,   55488,   55170,   55123
   51187,   55489,   55536,   55216,   55169,   55488,   55535,   55217,   55170
   51188,   55536,   55296,   54976,   55216,   55535,   55295,   54977,   55217
   51189,   54875,   55347,   55029,   54947,   54876,   55346,   55030,   54946
   51190,   55347,   55394,   55076,   55029,   55346,   55393,   55077,   55030
   51191,   55394,   55441,   55123,   55076,   55393,   55440,   55124,   55077
   51192,   55441,   55488,   55170,   55123,   55440,   55487,   55171,   55124
   51193,   55488,   55535,   55217,   55170,   55487,   55534,   55218,   55171
   51194,   55535,   55295,   54977,   55217,   55534,   55294,   54978,   55218
   51195,   54876,   55346,   55030,   54946,   54877,   55345,   55031,   54945
   51196,   55346,   55393,   55077,   55030,   55345,   55392,   55078,   55031
   51197,   55393,   55440,   55124,   55077,   55392,   55439,   55125,   55078
   51198,   55440,   55487,   55171,   55124,   55439,   55486,   55172,   55125
   51199,   55487,   55534,   55218,   55171,   55486,   55533,   55219,   55172
   51200,   55534,   55294,   54978,   55218,   55533,   55293,   54979,   55219
   51201,   54877,   55345,   55031,   54945,   54878,   55344,   55032,   54944
   51202,   55345,   55392,   55078,   55031,   55344,   55391,   55079,   55032
   51203,   55392,   55439,   55125,   55078,   55391,   55438,   55126,   55079
   51204,   55439,   55486,   55172,   55125,   55438,   55485,   55173,   55126
   51205,   55486,   55533,   55219,   55172,   55485,   55532,   55220,   55173
   51206,   55533,   55293,   54979,   55219,   55532,   55292,   54980,   55220
   51207,   54878,   55344,   55032,   54944,   54879,   55343,   55033,   54943
   51208,   55344,   55391,   55079,   55032,   55343,   55390,   55080,   55033
   51209,   55391,   55438,   55126,   55079,   55390,   55437,   55127,   55080
   51210,   55438,   55485,   55173,   55126,   55437,   55484,   55174,   55127
   51211,   55485,   55532,   55220,   55173,   55484,   55531,   55221,   55174
   51212,   55532,   55292,   54980,   55220,   55531,   55291,   54981,   55221
   51213,   54879,   55343,   55033,   54943,   54880,   55342,   55034,   54942
   51214,   55343,   55390,   55080,   55033,   55342,   55389,   55081,   55034
   51215,   55390,   55437,   55127,   55080,   55389,   55436,   55128,   55081
   51216,   55437,   55484,   55174,   55127,   55436,   55483,   55175,   55128
   51217,   55484,   55531,   55221,   55174,   55483,   55530,   55222,   55175
   51218,   55531,   55291,   54981,   55221,   55530,   55290,   54982,   55222
   51219,   54880,   55342,   55034,   54942,   54881,   55341,   55035,   54941
   51220,   55342,   55389,   55081,   55034,   55341,   55388,   55082,   55035
   51221,   55389,   55436,   55128,   55081,   55388,   55435,   55129,   55082
   51222,   55436,   55483,   55175,   55128,   55435,   55482,   55176,   55129
   51223,   55483,   55530,   55222,   55175,   55482,   55529,   55223,   55176
   51224,   55530,   55290,   54982,   55222,   55529,   55289,   54983,   55223
   51225,   54881,   55341,   55035,   54941,   54882,   55340,   55036,   54940
   51226,   55341,   55388,   55082,   55035,   55340,   55387,   55083,   55036
   51227,   55388,   55435,   55129,   55082,   55387,   55434,   55130,   55083
   51228,   55435,   55482,   55176,   55129,   55434,   55481,   55177,   55130
   51229,   55482,   55529,   55223,   55176,   55481,   55528,   55224,   55177
   51230,   55529,   55289,   54983,   55223,   55528,   55288,   54984,   55224
   51231,   54882,   55340,   55036,   54940,   54883,   55339,   55037,   54939
   51232,   55340,   55387,   55083,   55036,   55339,   55386,   55084,   55037
   51233,   55387,   55434,   55130,   55083,   55386,   55433,   55131,   55084
   51234,   55434,   55481,   55177,   55130,   55433,   55480,   55178,   55131
   51235,   55481,   55528,   55224,   55177,   55480,   55527,   55225,   55178
   51236,   55528,   55288,   54984,   55224,   55527,   55287,   54985,   55225
   51237,   54883,   55339,   55037,   54939,   54884,   55338,   55038,   54938
   51238,   55339,   55386,   55084,   55037,   55338,   55385,   55085,   55038
   51239,   55386,   55433,   55131,   55084,   55385,   55432,   55132,   55085
   51240,   55433,   55480,   55178,   55131,   55432,   55479,   55179,   55132
   51241,   55480,   55527,   55225,   55178,   55479,   55526,   55226,   55179
   51242,   55527,   55287,   54985,   55225,   55526,   55286,   54986,   55226
   51243,   54884,   55338,   55038,   54938,   54885,   55337,   55039,   54937
   51244,   55338,   55385,   55085,   55038,   55337,   55384,   55086,   55039
   51245,   55385,   55432,   55132,   55085,   55384,   55431,   55133,   55086
   51246,   55432,   55479,   55179,   55132,   55431,   55478,   55180,   55133
   51247,   55479,   55526,   55226,   55179,   55478,   55525,   55227,   55180
   51248,   55526,   55286,   54986,   55226,   55525,   55285,   54987,   55227
   51249,   54885,   55337,   55039,   54937,   54886,   55336,   55040,   54936
   51250,   55337,   55384,   55086,   55039,   55336,   55383,   55087,   55040
   51251,   55384,   55431,   55133,   55086,   55383,   55430,   55134,   55087
   51252,   55431,   55478,   55180,   55133,   55430,   55477,   55181,   55134
   51253,   55478,   55525,   55227,   55180,   55477,   55524,   55228,   55181
   51254,   55525,   55285,   54987,   55227,   55524,   55284,   54988,   55228
   51255,   54886,   55336,   55040,   54936,   54887,   55335,   55041,   54935
   51256,   55336,   55383,   55087,   55040,   55335,   55382,   55088,   55041
   51257,   55383,   55430,   55134,   55087,   55382,   55429,   55135,   55088
   51258,   55430,   55477,   55181,   55134,   55429,   55476,   55182,   55135
   51259,   55477,   55524,   55228,   55181,   55476,   55523,   55229,   55182
   51260,   55524,   55284,   54988,   55228,   55523,   55283,   54989,   55229
   51261,   54887,   55335,   55041,   54935,   54888,   55334,   55042,   54934
   51262,   55335,   55382,   55088,   55041,   55334,   55381,   55089,   55042
   51263,   55382,   55429,   55135,   55088,   55381,   55428,   55136,   55089
   51264,   55429,   55476,   55182,   55135,   55428,   55475,   55183,   55136
   51265,   55476,   55523,   55229,   55182,   55475,   55522,   55230,   55183
   51266,   55523,   55283,   54989,   55229,   55522,   55282,   54990,   55230
   51267,   54888,   55334,   55042,   54934,   54889,   55333,   55043,   54933
   51268,   55334,   55381,   55089,   55042,   55333,   55380,   55090,   55043
   51269,   55381,   55428,   55136,   55089,   55380,   55427,   55137,   55090
   51270,   55428,   55475,   55183,   55136,   55427,   55474,   55184,   55137
   51271,   55475,   55522,   55230,   55183,   55474,   55521,   55231,   55184
   51272,   55522,   55282,   54990,   55230,   55521,   55281,   54991,   55231
   51273,   54889,   55333,   55043,   54933,   54890,   55332,   55044,   54932
   51274,   55333,   55380,   55090,   55043,   55332,   55379,   55091,   55044
   51275,   55380,   55427,   55137,   55090,   55379,   55426,   55138,   55091
   51276,   55427,   55474,   55184,   55137,   55426,   55473,   55185,   55138
   51277,   55474,   55521,   55231,   55184,   55473,   55520,   55232,   55185
   51278,   55521,   55281,   54991,   55231,   55520,   55280,   54992,   55232
   51279,   54890,   55332,   55044,   54932,   54891,   55331,   55045,   54931
   51280,   55332,   55379,   55091,   55044,   55331,   55378,   55092,   55045
   51281,   55379,   55426,   55138,   55091,   55378,   55425,   55139,   55092
   51282,   55426,   55473,   55185,   55138,   55425,   55472,   55186,   55139
   51283,   55473,   55520,   55232,   55185,   55472,   55519,   55233,   55186
   51284,   55520,   55280,   54992,   55232,   55519,   55279,   54993,   55233
   51285,   54891,   55331,   55045,   54931,   54892,   55330,   55046,   54930
   51286,   55331,   55378,   55092,   55045,   55330,   55377,   55093,   55046
   51287,   55378,   55425,   55139,   55092,   55377,   55424,   55140,   55093
   51288,   55425,   55472,   55186,   55139,   55424,   55471,   55187,   55140
   51289,   55472,   55519,   55233,   55186,   55471,   55518,   55234,   55187
   51290,   55519,   55279,   54993,   55233,   55518,   55278,   54994,   55234
   51291,   54892,   55330,   55046,   54930,   54893,   55329,   55047,   54929
   51292,   55330,   55377,   55093,   55046,   55329,   55376,   55094,   55047
   51293,   55377,   55424,   55140,   55093,   55376,   55423,   55141,   55094
   51294,   55424,   55471,   55187,   55140,   55423,   55470,   55188,   55141
   51295,   55471,   55518,   55234,   55187,   55470,   55517,   55235,   55188
   51296,   55518,   55278,   54994,   55234,   55517,   55277,   54995,   55235
   51297,   54893,   55329,   55047,   54929,   54894,   55328,   55048,   54928
   51298,   55329,   55376,   55094,   55047,   55328,   55375,   55095,   55048
   51299,   55376,   55423,   55141,   55094,   55375,   55422,   55142,   55095
   51300,   55423,   55470,   55188,   55141,   55422,   55469,   55189,   55142
   51301,   55470,   55517,   55235,   55188,   55469,   55516,   55236,   55189
   51302,   55517,   55277,   54995,   55235,   55516,   55276,   54996,   55236
   51303,   54894,   55328,   55048,   54928,   54895,   55327,   55049,   54927
   51304,   55328,   55375,   55095,   55048,   55327,   55374,   55096,   55049
   51305,   55375,   55422,   55142,   55095,   55374,   55421,   55143,   55096
   51306,   55422,   55469,   55189,   55142,   55421,   55468,   55190,   55143
   51307,   55469,   55516,   55236,   55189,   55468,   55515,   55237,   55190
   51308,   55516,   55276,   54996,   55236,   55515,   55275,   54997,   55237
   51309,   54895,   55327,   55049,   54927,   54896,   55326,   55050,   54926
   51310,   55327,   55374,   55096,   55049,   55326,   55373,   55097,   55050
   51311,   55374,   55421,   55143,   55096,   55373,   55420,   55144,   55097
   51312,   55421,   55468,   55190,   55143,   55420,   55467,   55191,   55144
   51313,   55468,   55515,   55237,   55190,   55467,   55514,   55238,   55191
   51314,   55515,   55275,   54997,   55237,   55514,   55274,   54998,   55238
   51315,   54896,   55326,   55050,   54926,   54897,   55325,   55051,   54925
   51316,   55326,   55373,   55097,   55050,   55325,   55372,   55098,   55051
   51317,   55373,   55420,   55144,   55097,   55372,   55419,   55145,   55098
   51318,   55420,   55467,   55191,   55144,   55419,   55466,   55192,   55145
   51319,   55467,   55514,   55238,   55191,   55466,   55513,   55239,   55192
   51320,   55514,   55274,   54998,   55238,   55513,   55273,   54999,   55239
   51321,   54897,   55325,   55051,   54925,   54898,   55324,   55052,   54924
   51322,   55325,   55372,   55098,   55051,   55324,   55371,   55099,   55052
   51323,   55372,   55419,   55145,   55098,   55371,   55418,   55146,   55099
   51324,   55419,   55466,   55192,   55145,   55418,   55465,   55193,   55146
   51325,   55466,   55513,   55239,   55192,   55465,   55512,   55240,   55193
   51326,   55513,   55273,   54999,   55239,   55512,   55272,   55000,   55240
   51327,   54898,   55324,   55052,   54924,   54899,   55323,   55053,   54923
   51328,   55324,   55371,   55099,   55052,   55323,   55370,   55100,   55053
   51329,   55371,   55418,   55146,   55099,   55370,   55417,   55147,   55100
   51330,   55418,   55465,   55193,   55146,   55417,   55464,   55194,   55147
   51331,   55465,   55512,   55240,   55193,   55464,   55511,   55241,   55194
   51332,   55512,   55272,   55000,   55240,   55511,   55271,   55001,   55241
   51333,   54899,   55323,   55053,   54923,   54900,   55322,   55054,   54922
   51334,   55323,   55370,   55100,   55053,   55322,   55369,   55101,   55054
   51335,   55370,   55417,   55147,   55100,   55369,   55416,   55148,   55101
   51336,   55417,   55464,   55194,   55147,   55416,   55463,   55195,   55148
   51337,   55464,   55511,   55241,   55194,   55463,   55510,   55242,   55195
   51338,   55511,   55271,   55001,   55241,   55510,   55270,   55002,   55242
   51339,   54900,   55322,   55054,   54922,   54901,   55321,   55055,   54921
   51340,   55322,   55369,   55101,   55054,   55321,   55368,   55102,   55055
   51341,   55369,   55416,   55148,   55101,   55368,   55415,   55149,   55102
   51342,   55416,   55463,   55195,   55148,   55415,   55462,   55196,   55149
   51343,   55463,   55510,   55242,   55195,   55462,   55509,   55243,   55196
   51344,   55510,   55270,   55002,   55242,   55509,   55269,   55003,   55243
   51345,   54901,   55321,   55055,   54921,   54902,   55320,   55056,   54920
   51346,   55321,   55368,   55102,   55055,   55320,   55367,   55103,   55056
   51347,   55368,   55415,   55149,   55102,   55367,   55414,   55150,   55103
   51348,   55415,   55462,   55196,   55149,   55414,   55461,   55197,   55150
   51349,   55462,   55509,   55243,   55196,   55461,   55508,   55244,   55197
   51350,   55509,   55269,   55003,   55243,   55508,   55268,   55004,   55244
   51351,   54902,   55320,   55056,   54920,   54903,   55319,   55057,   54919
   51352,   55320,   55367,   55103,   55056,   55319,   55366,   55104,   55057
   51353,   55367,   55414,   55150,   55103,   55366,   55413,   55151,   55104
   51354,   55414,   55461,   55197,   55150,   55413,   55460,   55198,   55151
   51355,   55461,   55508,   55244,   55197,   55460,   55507,   55245,   55198
   51356,   55508,   55268,   55004,   55244,   55507,   55267,   55005,   55245
   51357,   54903,   55319,   55057,   54919,   54904,   55318,   55058,   54918
   51358,   55319,   55366,   55104,   55057,   55318,   55365,   55105,   55058
   51359,   55366,   55413,   55151,   55104,   55365,   55412,   55152,   55105
   51360,   55413,   55460,   55198,   55151,   55412,   55459,   55199,   55152
   51361,   55460,   55507,   55245,   55198,   55459,   55506,   55246,   55199
   51362,   55507,   55267,   55005,   55245,   55506,   55266,   55006,   55246
   51363,   54904,   55318,   55058,   54918,   54905,   55317,   55059,   54917
   51364,   55318,   55365,   55105,   55058,   55317,   55364,   55106,   55059
   51365,   55365,   55412,   55152,   55105,   55364,   55411,   55153,   55106
   51366,   55412,   55459,   55199,   55152,   55411,   55458,   55200,   55153
   51367,   55459,   55506,   55246,   55199,   55458,   55505,   55247,   55200
   51368,   55506,   55266,   55006,   55246,   55505,   55265,   55007,   55247
   51369,   54905,   55317,   55059,   54917,   54906,   55316,   55060,   54916
   51370,   55317,   55364,   55106,   55059,   55316,   55363,   55107,   55060
   51371,   55364,   55411,   55153,   55106,   55363,   55410,   55154,   55107
   51372,   55411,   55458,   55200,   55153,   55410,   55457,   55201,   55154
   51373,   55458,   55505,   55247,   55200,   55457,   55504,   55248,   55201
   51374,   55505,   55265,   55007,   55247,   55504,   55264,   55008,   55248
   51375,   54906,   55316,   55060,   54916,   54907,   55315,   55061,   54915
   51376,   55316,   55363,   55107,   55060,   55315,   55362,   55108,   55061
   51377,   55363,   55410,   55154,   55107,   55362,   55409,   55155,   55108
   51378,   55410,   55457,   55201,   55154,   55409,   55456,   55202,   55155
   51379,   55457,   55504,   55248,   55201,   55456,   55503,   55249,   55202
   51380,   55504,   55264,   55008,   55248,   55503,   55263,   55009,   55249
   51381,   54907,   55315,   55061,   54915,   54908,   55314,   55062,   54914
   51382,   55315,   55362,   55108,   55061,   55314,   55361,   55109,   55062
   51383,   55362,   55409,   55155,   55108,   55361,   55408,   55156,   55109
   51384,   55409,   55456,   55202,   55155,   55408,   55455,   55203,   55156
   51385,   55456,   55503,   55249,   55202,   55455,   55502,   55250,   55203
   51386,   55503,   55263,   55009,   55249,   55502,   55262,   55010,   55250
   51387,   54908,   55314,   55062,   54914,   54909,   55313,   55063,   54913
   51388,   55314,   55361,   55109,   55062,   55313,   55360,   55110,   55063
   51389,   55361,   55408,   55156,   55109,   55360,   55407,   55157,   55110
   51390,   55408,   55455,   55203,   55156,   55407,   55454,   55204,   55157
   51391,   55455,   55502,   55250,   55203,   55454,   55501,   55251,   55204
   51392,   55502,   55262,   55010,   55250,   55501,   55261,   55011,   55251
   51393,   54909,   55313,   55063,   54913,   54910,   55312,   55064,   54912
   51394,   55313,   55360,   55110,   55063,   55312,   55359,   55111,   55064
   51395,   55360,   55407,   55157,   55110,   55359,   55406,   55158,   55111
   51396,   55407,   55454,   55204,   55157,   55406,   55453,   55205,   55158
   51397,   55454,   55501,   55251,   55204,   55453,   55500,   55252,   55205
   51398,   55501,   55261,   55011,   55251,   55500,   55260,   55012,   55252
   51399,   54910,   55312,   55064,   54912,   54861,   55254,   54964,   54862
   51400,   55312,   55359,   55111,   55064,   55254,   55255,   54963,   54964
   51401,   55359,   55406,   55158,   55111,   55255,   55256,   54962,   54963
   51402,   55406,   55453,   55205,   55158,   55256,   55257,   54961,   54962
   51403,   55453,   55500,   55252,   55205,   55257,   55258,   54960,   54961
   51404,   55500,   55260,   55012,   55252,   55258,   55253,   54959,   54960
   51405,   55559,   55611,   55848,   55847,   55560,   55846,   56088,   55899
   51406,   55611,   55610,   55849,   55848,   55846,   55845,   56089,   56088
   51407,   55610,   55609,   55850,   55849,   55845,   55844,   56090,   56089
   51408,   55609,   55608,   55851,   55850,   55844,   55843,   56091,   56090
   51409,   55608,   55607,   55852,   55851,   55843,   55842,   56092,   56091
   51410,   55607,   55606,   55853,   55852,   55842,   55841,   56093,   56092
   51411,   55606,   55605,   55854,   55853,   55841,   55840,   56094,   56093
   51412,   55605,   55604,   55855,   55854,   55840,   55839,   56095,   56094
   51413,   55604,   55603,   55856,   55855,   55839,   55838,   56096,   56095
   51414,   55603,   55602,   55857,   55856,   55838,   55837,   56097,   56096
   51415,   55602,   55601,   55858,   55857,   55837,   55836,   56098,   56097
   51416,   55601,   55600,   55859,   55858,   55836,   55835,   56099,   56098
   51417,   55600,   55599,   55860,   55859,   55835,   55834,   56100,   56099
   51418,   55599,   55598,   55861,   55860,   55834,   55833,   56101,   56100
   51419,   55598,   55597,   55862,   55861,   55833,   55832,   56102,   56101
   51420,   55597,   55596,   55863,   55862,   55832,   55831,   56103,   56102
   51421,   55596,   55595,   55864,   55863,   55831,   55830,   56104,   56103
   51422,   55595,   55594,   55865,   55864,   55830,   55829,   56105,   56104
   51423,   55594,   55593,   55866,   55865,   55829,   55828,   56106,   56105
   51424,   55593,   55592,   55867,   55866,   55828,   55827,   56107,   56106
   51425,   55592,   55591,   55868,   55867,   55827,   55826,   56108,   56107
   51426,   55591,   55590,   55869,   55868,   55826,   55825,   56109,   56108
   51427,   55590,   55589,   55870,   55869,   55825,   55824,   56110,   56109
   51428,   55589,   55588,   55871,   55870,   55824,   55823,   56111,   56110
   51429,   55588,   55587,   55872,   55871,   55823,   55822,   56112,   56111
   51430,   55587,   55586,   55873,   55872,   55822,   55821,   56113,   56112
   51431,   55586,   55585,   55874,   55873,   55821,   55820,   56114,   56113
   51432,   55585,   55584,   55875,   55874,   55820,   55819,   56115,   56114
   51433,   55584,   55583,   55876,   55875,   55819,   55818,   56116,   56115
   51434,   55583,   55582,   55877,   55876,   55818,   55817,   56117,   56116
   51435,   55582,   55581,   55878,   55877,   55817,   55816,   56118,   56117
   51436,   55581,   55580,   55879,   55878,   55816,   55815,   56119,   56118
   51437,   55580,   55579,   55880,   55879,   55815,   55814,   56120,   56119
   51438,   55579,   55578,   55881,   55880,   55814,   55813,   56121,   56120
   51439,   55578,   55577,   55882,   55881,   55813,   55812,   56122,   56121
   51440,   55577,   55576,   55883,   55882,   55812,   55811,   56123,   56122
   51441,   55576,   55575,   55884,   55883,   55811,   55810,   56124,   56123
   51442,   55575,   55574,   55885,   55884,   55810,   55809,   56125,   56124
   51443,   55574,   55573,   55886,   55885,   55809,   55808,   56126,   56125
   51444,   55573,   55572,   55887,   55886,   55808,   55807,   56127,   56126
   51445,   55572,   55571,   55888,   55887,   55807,   55806,   56128,   56127
   51446,   55571,   55570,   55889,   55888,   55806,   55805,   56129,   56128
   51447,   55570,   55569,   55890,   55889,   55805,   55804,   56130,   56129
   51448,   55569,   55568,   55891,   55890,   55804,   55803,   56131,   56130
   51449,   55568,   55567,   55892,   55891,   55803,   55802,   56132,   56131
   51450,   55567,   55566,   55893,   55892,   55802,   55801,   56133,   56132
   51451,   55566,   55565,   55894,   55893,   55801,   55800,   56134,   56133
   51452,   55565,   55547,   55553,   55894,   55800,   55552,   55554,   56134
   51453,   55560,   55846,   56088,   55899,   55561,   55799,   56041,   55898
   51454,   55846,   55845,   56089,   56088,   55799,   55798,   56042,   56041
   51455,   55845,   55844,   56090,   56089,   55798,   55797,   56043,   56042
   51456,   55844,   55843,   56091,   56090,   55797,   55796,   56044,   56043
   51457,   55843,   55842,   56092,   56091,   55796,   55795,   56045,   56044
   51458,   55842,   55841,   56093,   56092,   55795,   55794,   56046,   56045
   51459,   55841,   55840,   56094,   56093,   55794,   55793,   56047,   56046
   51460,   55840,   55839,   56095,   56094,   55793,   55792,   56048,   56047
   51461,   55839,   55838,   56096,   56095,   55792,   55791,   56049,   56048
   51462,   55838,   55837,   56097,   56096,   55791,   55790,   56050,   56049
   51463,   55837,   55836,   56098,   56097,   55790,   55789,   56051,   56050
   51464,   55836,   55835,   56099,   56098,   55789,   55788,   56052,   56051
   51465,   55835,   55834,   56100,   56099,   55788,   55787,   56053,   56052
   51466,   55834,   55833,   56101,   56100,   55787,   55786,   56054,   56053
   51467,   55833,   55832,   56102,   56101,   55786,   55785,   56055,   56054
   51468,   55832,   55831,   56103,   56102,   55785,   55784,   56056,   56055
   51469,   55831,   55830,   56104,   56103,   55784,   55783,   56057,   56056
   51470,   55830,   55829,   56105,   56104,   55783,   55782,   56058,   56057
   51471,   55829,   55828,   56106,   56105,   55782,   55781,   56059,   56058
   51472,   55828,   55827,   56107,   56106,   55781,   55780,   56060,   56059
   51473,   55827,   55826,   56108,   56107,   55780,   55779,   56061,   56060
   51474,   55826,   55825,   56109,   56108,   55779,   55778,   56062,   56061
   51475,   55825,   55824,   56110,   56109,   55778,   55777,   56063,   56062
   51476,   55824,   55823,   56111,   56110,   55777,   55776,   56064,   56063
   51477,   55823,   55822,   56112,   56111,   55776,   55775,   56065,   56064
   51478,   55822,   55821,   56113,   56112,   55775,   55774,   56066,   56065
   51479,   55821,   55820,   56114,   56113,   55774,   55773,   56067,   56066
   51480,   55820,   55819,   56115,   56114,   55773,   55772,   56068,   56067
   51481,   55819,   55818,   56116,   56115,   55772,   55771,   56069,   56068
   51482,   55818,   55817,   56117,   56116,   55771,   55770,   56070,   56069
   51483,   55817,   55816,   56118,   56117,   55770,   55769,   56071,   56070
   51484,   55816,   55815,   56119,   56118,   55769,   55768,   56072,   56071
   51485,   55815,   55814,   56120,   56119,   55768,   55767,   56073,   56072
   51486,   55814,   55813,   56121,   56120,   55767,   55766,   56074,   56073
   51487,   55813,   55812,   56122,   56121,   55766,   55765,   56075,   56074
   51488,   55812,   55811,   56123,   56122,   55765,   55764,   56076,   56075
   51489,   55811,   55810,   56124,   56123,   55764,   55763,   56077,   56076
   51490,   55810,   55809,   56125,   56124,   55763,   55762,   56078,   56077
   51491,   55809,   55808,   56126,   56125,   55762,   55761,   56079,   56078
   51492,   55808,   55807,   56127,   56126,   55761,   55760,   56080,   56079
   51493,   55807,   55806,   56128,   56127,   55760,   55759,   56081,   56080
   51494,   55806,   55805,   56129,   56128,   55759,   55758,   56082,   56081
   51495,   55805,   55804,   56130,   56129,   55758,   55757,   56083,   56082
   51496,   55804,   55803,   56131,   56130,   55757,   55756,   56084,   56083
   51497,   55803,   55802,   56132,   56131,   55756,   55755,   56085,   56084
   51498,   55802,   55801,   56133,   56132,   55755,   55754,   56086,   56085
   51499,   55801,   55800,   56134,   56133,   55754,   55753,   56087,   56086
   51500,   55800,   55552,   55554,   56134,   55753,   55551,   55555,   56087
   51501,   55561,   55799,   56041,   55898,   55562,   55752,   55994,   55897
   51502,   55799,   55798,   56042,   56041,   55752,   55751,   55995,   55994
   51503,   55798,   55797,   56043,   56042,   55751,   55750,   55996,   55995
   51504,   55797,   55796,   56044,   56043,   55750,   55749,   55997,   55996
   51505,   55796,   55795,   56045,   56044,   55749,   55748,   55998,   55997
   51506,   55795,   55794,   56046,   56045,   55748,   55747,   55999,   55998
   51507,   55794,   55793,   56047,   56046,   55747,   55746,   56000,   55999
   51508,   55793,   55792,   56048,   56047,   55746,   55745,   56001,   56000
   51509,   55792,   55791,   56049,   56048,   55745,   55744,   56002,   56001
   51510,   55791,   55790,   56050,   56049,   55744,   55743,   56003,   56002
   51511,   55790,   55789,   56051,   56050,   55743,   55742,   56004,   56003
   51512,   55789,   55788,   56052,   56051,   55742,   55741,   56005,   56004
   51513,   55788,   55787,   56053,   56052,   55741,   55740,   56006,   56005
   51514,   55787,   55786,   56054,   56053,   55740,   55739,   56007,   56006
   51515,   55786,   55785,   56055,   56054,   55739,   55738,   56008,   56007
   51516,   55785,   55784,   56056,   56055,   55738,   55737,   56009,   56008
   51517,   55784,   55783,   56057,   56056,   55737,   55736,   56010,   56009
   51518,   55783,   55782,   56058,   56057,   55736,   55735,   56011,   56010
   51519,   55782,   55781,   56059,   56058,   55735,   55734,   56012,   56011
   51520,   55781,   55780,   56060,   56059,   55734,   55733,   56013,   56012
   51521,   55780,   55779,   56061,   56060,   55733,   55732,   56014,   56013
   51522,   55779,   55778,   56062,   56061,   55732,   55731,   56015,   56014
   51523,   55778,   55777,   56063,   56062,   55731,   55730,   56016,   56015
   51524,   55777,   55776,   56064,   56063,   55730,   55729,   56017,   56016
   51525,   55776,   55775,   56065,   56064,   55729,   55728,   56018,   56017
   51526,   55775,   55774,   56066,   56065,   55728,   55727,   56019,   56018
   51527,   55774,   55773,   56067,   56066,   55727,   55726,   56020,   56019
   51528,   55773,   55772,   56068,   56067,   55726,   55725,   56021,   56020
   51529,   55772,   55771,   56069,   56068,   55725,   55724,   56022,   56021
   51530,   55771,   55770,   56070,   56069,   55724,   55723,   56023,   56022
   51531,   55770,   55769,   56071,   56070,   55723,   55722,   56024,   56023
   51532,   55769,   55768,   56072,   56071,   55722,   55721,   56025,   56024
   51533,   55768,   55767,   56073,   56072,   55721,   55720,   56026,   56025
   51534,   55767,   55766,   56074,   56073,   55720,   55719,   56027,   56026
   51535,   55766,   55765,   56075,   56074,   55719,   55718,   56028,   56027
   51536,   55765,   55764,   56076,   56075,   55718,   55717,   56029,   56028
   51537,   55764,   55763,   56077,   56076,   55717,   55716,   56030,   56029
   51538,   55763,   55762,   56078,   56077,   55716,   55715,   56031,   56030
   51539,   55762,   55761,   56079,   56078,   55715,   55714,   56032,   56031
   51540,   55761,   55760,   56080,   56079,   55714,   55713,   56033,   56032
   51541,   55760,   55759,   56081,   56080,   55713,   55712,   56034,   56033
   51542,   55759,   55758,   56082,   56081,   55712,   55711,   56035,   56034
   51543,   55758,   55757,   56083,   56082,   55711,   55710,   56036,   56035
   51544,   55757,   55756,   56084,   56083,   55710,   55709,   56037,   56036
   51545,   55756,   55755,   56085,   56084,   55709,   55708,   56038,   56037
   51546,   55755,   55754,   56086,   56085,   55708,   55707,   56039,   56038
   51547,   55754,   55753,   56087,   56086,   55707,   55706,   56040,   56039
   51548,   55753,   55551,   55555,   56087,   55706,   55550,   55556,   56040
   51549,   55562,   55752,   55994,   55897,   55563,   55705,   55947,   55896
   51550,   55752,   55751,   55995,   55994,   55705,   55704,   55948,   55947
   51551,   55751,   55750,   55996,   55995,   55704,   55703,   55949,   55948
   51552,   55750,   55749,   55997,   55996,   55703,   55702,   55950,   55949
   51553,   55749,   55748,   55998,   55997,   55702,   55701,   55951,   55950
   51554,   55748,   55747,   55999,   55998,   55701,   55700,   55952,   55951
   51555,   55747,   55746,   56000,   55999,   55700,   55699,   55953,   55952
   51556,   55746,   55745,   56001,   56000,   55699,   55698,   55954,   55953
   51557,   55745,   55744,   56002,   56001,   55698,   55697,   55955,   55954
   51558,   55744,   55743,   56003,   56002,   55697,   55696,   55956,   55955
   51559,   55743,   55742,   56004,   56003,   55696,   55695,   55957,   55956
   51560,   55742,   55741,   56005,   56004,   55695,   55694,   55958,   55957
   51561,   55741,   55740,   56006,   56005,   55694,   55693,   55959,   55958
   51562,   55740,   55739,   56007,   56006,   55693,   55692,   55960,   55959
   51563,   55739,   55738,   56008,   56007,   55692,   55691,   55961,   55960
   51564,   55738,   55737,   56009,   56008,   55691,   55690,   55962,   55961
   51565,   55737,   55736,   56010,   56009,   55690,   55689,   55963,   55962
   51566,   55736,   55735,   56011,   56010,   55689,   55688,   55964,   55963
   51567,   55735,   55734,   56012,   56011,   55688,   55687,   55965,   55964
   51568,   55734,   55733,   56013,   56012,   55687,   55686,   55966,   55965
   51569,   55733,   55732,   56014,   56013,   55686,   55685,   55967,   55966
   51570,   55732,   55731,   56015,   56014,   55685,   55684,   55968,   55967
   51571,   55731,   55730,   56016,   56015,   55684,   55683,   55969,   55968
   51572,   55730,   55729,   56017,   56016,   55683,   55682,   55970,   55969
   51573,   55729,   55728,   56018,   56017,   55682,   55681,   55971,   55970
   51574,   55728,   55727,   56019,   56018,   55681,   55680,   55972,   55971
   51575,   55727,   55726,   56020,   56019,   55680,   55679,   55973,   55972
   51576,   55726,   55725,   56021,   56020,   55679,   55678,   55974,   55973
   51577,   55725,   55724,   56022,   56021,   55678,   55677,   55975,   55974
   51578,   55724,   55723,   56023,   56022,   55677,   55676,   55976,   55975
   51579,   55723,   55722,   56024,   56023,   55676,   55675,   55977,   55976
   51580,   55722,   55721,   56025,   56024,   55675,   55674,   55978,   55977
   51581,   55721,   55720,   56026,   56025,   55674,   55673,   55979,   55978
   51582,   55720,   55719,   56027,   56026,   55673,   55672,   55980,   55979
   51583,   55719,   55718,   56028,   56027,   55672,   55671,   55981,   55980
   51584,   55718,   55717,   56029,   56028,   55671,   55670,   55982,   55981
   51585,   55717,   55716,   56030,   56029,   55670,   55669,   55983,   55982
   51586,   55716,   55715,   56031,   56030,   55669,   55668,   55984,   55983
   51587,   55715,   55714,   56032,   56031,   55668,   55667,   55985,   55984
   51588,   55714,   55713,   56033,   56032,   55667,   55666,   55986,   55985
   51589,   55713,   55712,   56034,   56033,   55666,   55665,   55987,   55986
   51590,   55712,   55711,   56035,   56034,   55665,   55664,   55988,   55987
   51591,   55711,   55710,   56036,   56035,   55664,   55663,   55989,   55988
   51592,   55710,   55709,   56037,   56036,   55663,   55662,   55990,   55989
   51593,   55709,   55708,   56038,   56037,   55662,   55661,   55991,   55990
   51594,   55708,   55707,   56039,   56038,   55661,   55660,   55992,   55991
   51595,   55707,   55706,   56040,   56039,   55660,   55659,   55993,   55992
   51596,   55706,   55550,   55556,   56040,   55659,   55549,   55557,   55993
   51597,   55563,   55705,   55947,   55896,   55564,   55658,   55900,   55895
   51598,   55705,   55704,   55948,   55947,   55658,   55657,   55901,   55900
   51599,   55704,   55703,   55949,   55948,   55657,   55656,   55902,   55901
   51600,   55703,   55702,   55950,   55949,   55656,   55655,   55903,   55902
   51601,   55702,   55701,   55951,   55950,   55655,   55654,   55904,   55903
   51602,   55701,   55700,   55952,   55951,   55654,   55653,   55905,   55904
   51603,   55700,   55699,   55953,   55952,   55653,   55652,   55906,   55905
   51604,   55699,   55698,   55954,   55953,   55652,   55651,   55907,   55906
   51605,   55698,   55697,   55955,   55954,   55651,   55650,   55908,   55907
   51606,   55697,   55696,   55956,   55955,   55650,   55649,   55909,   55908
   51607,   55696,   55695,   55957,   55956,   55649,   55648,   55910,   55909
   51608,   55695,   55694,   55958,   55957,   55648,   55647,   55911,   55910
   51609,   55694,   55693,   55959,   55958,   55647,   55646,   55912,   55911
   51610,   55693,   55692,   55960,   55959,   55646,   55645,   55913,   55912
   51611,   55692,   55691,   55961,   55960,   55645,   55644,   55914,   55913
   51612,   55691,   55690,   55962,   55961,   55644,   55643,   55915,   55914
   51613,   55690,   55689,   55963,   55962,   55643,   55642,   55916,   55915
   51614,   55689,   55688,   55964,   55963,   55642,   55641,   55917,   55916
   51615,   55688,   55687,   55965,   55964,   55641,   55640,   55918,   55917
   51616,   55687,   55686,   55966,   55965,   55640,   55639,   55919,   55918
   51617,   55686,   55685,   55967,   55966,   55639,   55638,   55920,   55919
   51618,   55685,   55684,   55968,   55967,   55638,   55637,   55921,   55920
   51619,   55684,   55683,   55969,   55968,   55637,   55636,   55922,   55921
   51620,   55683,   55682,   55970,   55969,   55636,   55635,   55923,   55922
   51621,   55682,   55681,   55971,   55970,   55635,   55634,   55924,   55923
   51622,   55681,   55680,   55972,   55971,   55634,   55633,   55925,   55924
   51623,   55680,   55679,   55973,   55972,   55633,   55632,   55926,   55925
   51624,   55679,   55678,   55974,   55973,   55632,   55631,   55927,   55926
   51625,   55678,   55677,   55975,   55974,   55631,   55630,   55928,   55927
   51626,   55677,   55676,   55976,   55975,   55630,   55629,   55929,   55928
   51627,   55676,   55675,   55977,   55976,   55629,   55628,   55930,   55929
   51628,   55675,   55674,   55978,   55977,   55628,   55627,   55931,   55930
   51629,   55674,   55673,   55979,   55978,   55627,   55626,   55932,   55931
   51630,   55673,   55672,   55980,   55979,   55626,   55625,   55933,   55932
   51631,   55672,   55671,   55981,   55980,   55625,   55624,   55934,   55933
   51632,   55671,   55670,   55982,   55981,   55624,   55623,   55935,   55934
   51633,   55670,   55669,   55983,   55982,   55623,   55622,   55936,   55935
   51634,   55669,   55668,   55984,   55983,   55622,   55621,   55937,   55936
   51635,   55668,   55667,   55985,   55984,   55621,   55620,   55938,   55937
   51636,   55667,   55666,   55986,   55985,   55620,   55619,   55939,   55938
   51637,   55666,   55665,   55987,   55986,   55619,   55618,   55940,   55939
   51638,   55665,   55664,   55988,   55987,   55618,   55617,   55941,   55940
   51639,   55664,   55663,   55989,   55988,   55617,   55616,   55942,   55941
   51640,   55663,   55662,   55990,   55989,   55616,   55615,   55943,   55942
   51641,   55662,   55661,   55991,   55990,   55615,   55614,   55944,   55943
   51642,   55661,   55660,   55992,   55991,   55614,   55613,   55945,   55944
   51643,   55660,   55659,   55993,   55992,   55613,   55612,   55946,   55945
   51644,   55659,   55549,   55557,   55993,   55612,   55548,   55558,   55946
   51645,   55564,   55658,   55900,   55895,   54861,   54910,   54912,   54862
   51646,   55658,   55657,   55901,   55900,   54910,   54909,   54913,   54912
   51647,   55657,   55656,   55902,   55901,   54909,   54908,   54914,   54913
   51648,   55656,   55655,   55903,   55902,   54908,   54907,   54915,   54914
   51649,   55655,   55654,   55904,   55903,   54907,   54906,   54916,   54915
   51650,   55654,   55653,   55905,   55904,   54906,   54905,   54917,   54916
   51651,   55653,   55652,   55906,   55905,   54905,   54904,   54918,   54917
   51652,   55652,   55651,   55907,   55906,   54904,   54903,   54919,   54918
   51653,   55651,   55650,   55908,   55907,   54903,   54902,   54920,   54919
   51654,   55650,   55649,   55909,   55908,   54902,   54901,   54921,   54920
   51655,   55649,   55648,   55910,   55909,   54901,   54900,   54922,   54921
   51656,   55648,   55647,   55911,   55910,   54900,   54899,   54923,   54922
   51657,   55647,   55646,   55912,   55911,   54899,   54898,   54924,   54923
   51658,   55646,   55645,   55913,   55912,   54898,   54897,   54925,   54924
   51659,   55645,   55644,   55914,   55913,   54897,   54896,   54926,   54925
   51660,   55644,   55643,   55915,   55914,   54896,   54895,   54927,   54926
   51661,   55643,   55642,   55916,   55915,   54895,   54894,   54928,   54927
   51662,   55642,   55641,   55917,   55916,   54894,   54893,   54929,   54928
   51663,   55641,   55640,   55918,   55917,   54893,   54892,   54930,   54929
   51664,   55640,   55639,   55919,   55918,   54892,   54891,   54931,   54930
   51665,   55639,   55638,   55920,   55919,   54891,   54890,   54932,   54931
   51666,   55638,   55637,   55921,   55920,   54890,   54889,   54933,   54932
   51667,   55637,   55636,   55922,   55921,   54889,   54888,   54934,   54933
   51668,   55636,   55635,   55923,   55922,   54888,   54887,   54935,   54934
   51669,   55635,   55634,   55924,   55923,   54887,   54886,   54936,   54935
   51670,   55634,   55633,   55925,   55924,   54886,   54885,   54937,   54936
   51671,   55633,   55632,   55926,   55925,   54885,   54884,   54938,   54937
   51672,   55632,   55631,   55927,   55926,   54884,   54883,   54939,   54938
   51673,   55631,   55630,   55928,   55927,   54883,   54882,   54940,   54939
   51674,   55630,   55629,   55929,   55928,   54882,   54881,   54941,   54940
   51675,   55629,   55628,   55930,   55929,   54881,   54880,   54942,   54941
   51676,   55628,   55627,   55931,   55930,   54880,   54879,   54943,   54942
   51677,   55627,   55626,   55932,   55931,   54879,   54878,   54944,   54943
   51678,   55626,   55625,   55933,   55932,   54878,   54877,   54945,   54944
   51679,   55625,   55624,   55934,   55933,   54877,   54876,   54946,   54945
   51680,   55624,   55623,   55935,   55934,   54876,   54875,   54947,   54946
   51681,   55623,   55622,   55936,   55935,   54875,   54874,   54948,   54947
   51682,   55622,   55621,   55937,   55936,   54874,   54873,   54949,   54948
   51683,   55621,   55620,   55938,   55937,   54873,   54872,   54950,   54949
   51684,   55620,   55619,   55939,   55938,   54872,   54871,   54951,   54950
   51685,   55619,   55618,   55940,   55939,   54871,   54870,   54952,   54951
   51686,   55618,   55617,   55941,   55940,   54870,   54869,   54953,   54952
   51687,   55617,   55616,   55942,   55941,   54869,   54868,   54954,   54953
   51688,   55616,   55615,   55943,   55942,   54868,   54867,   54955,   54954
   51689,   55615,   55614,   55944,   55943,   54867,   54866,   54956,   54955
   51690,   55614,   55613,   55945,   55944,   54866,   54865,   54957,   54956
   51691,   55613,   55612,   55946,   55945,   54865,   54864,   54958,   54957
   51692,   55612,   55548,   55558,   55946,   54864,   54863,   54911,   54958
********************************** N O D E S E T S **********************************
*NSET, NSET=z_symm
   52828,   52834,   52835,   52836,   52837,   52838,
   52839,   52935,   52936,   52937,   52938,   52939,
   52940,   52941,   52942,   52943,   52944,   52945,
   52946,   52947,   52948,   52949,   52950,   52951,
   52952,   52953,   52954,   52955,   52956,   52957,
   52958,   52959,   52960,   52961,   52962,   52963,
   52964,   52965,   52966,   52967,   52968,   52969,
   52970,   52971,   52972,   52973,   52974,   52975,
   52976,   53217,   53223,   53224,   53225,   53226,
   53227,   53228,   53270,   53276,   53277,   53278,
   53279,   53280,   53306,   53307,   53308,   53309,
   53310,   53311,   53312,   53313,   53314,   53315,
   53316,   53317,   53318,   53319,   53320,   53321,
   53322,   53323,   53324,   53325,   53326,   53327,
   53328,   53329,   53330,   53331,   53332,   53333,
   53334,   53335,   53336,   53337,   53338,   53339,
   53340,   53341,   53595,   53601,   53602,   53603,
   53604,   53605,   53606,   53637,   53643,   53644,
   53645,   53646,   53647,   53648,   53679,   53685,
   53686,   53687,   53688,   53689,   53709,   53710,
   53711,   53712,   53713,   53714,   53745,   53746,
   53747,   53748,   53749,   53750,   53751,   53752,
   53753,   53754,   53755,   53756,   53757,   53758,
   53759,   53760,   53761,   53762,   53763,   53764,
   53765,   53766,   53767,   53768,   53769,   53770,
   53771,   53772,   53773,   53774,   53889,   53890,
   53891,   53892,   53893,   53894,   53895,   53896,
   53897,   53898,   53899,   53900,   53973,   53974,
   53975,   53976,   53977,   53978,   53979,   53980,
   53981,   53982,   53983,   53984,   53985,   53986,
   53987,   53988,   53989,   53990,   53991,   53992,
   53993,   53994,   53995,   53996,   53997,   53998,
   53999,   54000,   54001,   54002,   54003,   54004,
   54005,   54006,   54007,   54008,   54009,   54010,
   54011,   54012,   54013,   54014,   54015,   54016,
   54017,   54018,   54019,   54020,   54021,   54022,
   54023,   54024,   54025,   54026,   54027,   54028,
   54029,   54030,   54031,   54032,   54033,   54034,
   54035,   54036,   54037,   54038,   54039,   54040,
   54041,   54042,   54043,   54044,   54333,   54334,
   54335,   54336,   54337,   54357,   54358,   54359,
   54360,   54361,   54362,   54363,   54364,   54365,
   54366,   54367,   54368,   54369,   54370,   54371,
   54372,   54373,   54374,   54375,   54376,   54377,
   54378,   54379,   54380,   54381,   54382,   54383,
   54384,   54385,   54386,   54501,   54502,   54503,
   54504,   54505,   54506,   54507,   54508,   54509,
   54510,   54511,   54512,   54573,   54574,   54575,
   54576,   54577,   54578,   54579,   54580,   54581,
   54582,   54583,   54584,   54585,   54586,   54587,
   54588,   54589,   54590,   54591,   54592,   54593,
   54594,   54595,   54596,   54597,   54598,   54599,
   54600,   54601,   54602,   54603,   54604,   54605,
   54606,   54607,   54608,   54609,   54610,   54611,
   54612,   54613,   54614,   54615,   54616,   54617,
   54618,   54619,   54620,   54621,   54622,   54623,
   54624,   54625,   54626,   54627,   54628,   54629,
   54630,   54631,   54632,   54959,   54965,   54966,
   54967,   54968,   54969,   54970,   54971,   54972,
   54973,   54974,   54975,   54976,   54977,   54978,
   54979,   54980,   54981,   54982,   54983,   54984,
   54985,   54986,   54987,   54988,   54989,   54990,
   54991,   54992,   54993,   54994,   54995,   54996,
   54997,   54998,   54999,   55000,   55001,   55002,
   55003,   55004,   55005,   55006,   55007,   55008,
   55009,   55010,   55011,   55012,   55253,   55259,
   55260,   55261,   55262,   55263,   55264,   55265,
   55266,   55267,   55268,   55269,   55270,   55271,
   55272,   55273,   55274,   55275,   55276,   55277,
   55278,   55279,   55280,   55281,   55282,   55283,
   55284,   55285,   55286,   55287,   55288,   55289,
   55290,   55291,   55292,   55293,   55294,   55295,
   55296,   55297,   55298,   55299,   55300,   55301,
   55302,   55303,   55304,   55305,   55306,   55547,
   55553,   55559,   55565,   55566,   55567,   55568,
   55569,   55570,   55571,   55572,   55573,   55574,
   55575,   55576,   55577,   55578,   55579,   55580,
   55581,   55582,   55583,   55584,   55585,   55586,
   55587,   55588,   55589,   55590,   55591,   55592,
   55593,   55594,   55595,   55596,   55597,   55598,
   55599,   55600,   55601,   55602,   55603,   55604,
   55605,   55606,   55607,   55608,   55609,   55610,
   55611,   55847,   55848,   55849,   55850,   55851,
   55852,   55853,   55854,   55855,   55856,   55857,
   55858,   55859,   55860,   55861,   55862,   55863,
   55864,   55865,   55866,   55867,   55868,   55869,
   55870,   55871,   55872,   55873,   55874,   55875,
   55876,   55877,   55878,   55879,   55880,   55881,
   55882,   55883,   55884,   55885,   55886,   55887,
   55888,   55889,   55890,   55891,   55892,   55893,
   55894,
*NSET, NSET=plate_left_loading
   52901,   52950,   53013,   53018,   53023,   53028,
   53033,
********************************** S I D E S E T S **********************************
*ELSET, ELSET=plate_bottom_S1
   51075,   51076,   51077,   51078,   51079,   51080,   51081,   51082,   51083,   51084,
   51085,   51086,   51087,   51088,   51089,   51090,   51091,   51092,   51093,   51094,
   51095,   51096,   51097,   51098,   51099,   51100,   51101,   51102,   51103,   51104,
   51105,   51106,   51107,   51108,   51109,   51110,   51111,   51112,   51113,   51114,
   51115,   51116
*ELSET, ELSET=plate_bottom_S2
   50577,   50578,   50579,   50580,   50581,   50582,   50583,   50584,   50585,   50586,
   50587,   50588,   50589,   50590,   50591,   50592,   50593,   50594,   50595,   50596,
   50597,   50598,   50599,   50600,   50601,   50602,   50603,   50604,   50605,   50606,
   50607,   50608,   50609,   50610,   50611,   50612,   50613,   50614,   50615,   50616,
   50617,   50618
*ELSET, ELSET=plate_bottom_S5
   50546,   50552,   50558,   50564,   50570,   50576,   50859,   50860,   50861,   50862,
   50863,   50864
*SURFACE, NAME=plate_bottom
plate_bottom_S1, S1
plate_bottom_S2, S2
plate_bottom_S5, S5
*ELSET, ELSET=plate_to_anchor_S1
   50829,   50830,   50831,   50832,   50833,   50834,   50835,   50836,   50837,   50838,
   50839,   50840,   50841,   50842,   50843,   50844,   50845,   50846,   50847,   50848,
   50849,   50850,   50851,   50852,   50853,   50854,   50855,   50856,   50857,   50858,
   50859,   50860,   50861,   50862,   50863,   50864
*ELSET, ELSET=plate_to_anchor_S3
   49899,   49900,   49901,   49926,   49927,   49928,   49953,   49954,   49955,   49980,
   49981,   49982,   50007,   50008,   50009,   50034,   50035,   50036,   50403,   50404,
   50405,   50430,   50431,   50432,   50457,   50458,   50459,   50484,   50485,   50486,
   50511,   50512,   50513,   50538,   50539,   50540
*ELSET, ELSET=plate_to_anchor_S4
   49902,   49905,   49908,   49929,   49932,   49935,   49956,   49959,   49962,   49983,
   49986,   49989,   50010,   50013,   50016,   50037,   50040,   50043,   50379,   50382,
   50385,   50406,   50409,   50412,   50433,   50436,   50439,   50460,   50463,   50466,
   50487,   50490,   50493,   50514,   50517,   50520,   50541,   50542,   50543,   50544,
   50545,   50546,   50547,   50548,   50549,   50550,   50551,   50552,   50553,   50554,
   50555,   50556,   50557,   50558,   50559,   50560,   50561,   50562,   50563,   50564,
   50565,   50566,   50567,   50568,   50569,   50570,   50571,   50572,   50573,   50574,
   50575,   50576
*SURFACE, NAME=plate_to_anchor
plate_to_anchor_S1, S1
plate_to_anchor_S3, S3
plate_to_anchor_S4, S4
*ELSET, ELSET=anchor_to_mortar_S3
   49575,   49576,   49577,   49602,   49603,   49604,   49629,   49630,   49631,   49656,
   49657,   49658,   49683,   49684,   49685,   49710,   49711,   49712,   49737,   49738,
   49739,   49764,   49765,   49766,   49791,   49792,   49793,   49818,   49819,   49820,
   49845,   49846,   49847,   49872,   49873,   49874,   50079,   50080,   50081,   50106,
   50107,   50108,   50133,   50134,   50135,   50160,   50161,   50162,   50187,   50188,
   50189,   50214,   50215,   50216,   50241,   50242,   50243,   50268,   50269,   50270,
   50295,   50296,   50297,   50322,   50323,   50324,   50349,   50350,   50351,   50376,
   50377,   50378
*ELSET, ELSET=anchor_to_mortar_S4
   49578,   49581,   49584,   49605,   49608,   49611,   49632,   49635,   49638,   49659,
   49662,   49665,   49686,   49689,   49692,   49713,   49716,   49719,   49740,   49743,
   49746,   49767,   49770,   49773,   49794,   49797,   49800,   49821,   49824,   49827,
   49848,   49851,   49854,   49875,   49878,   49881,   50055,   50058,   50061,   50082,
   50085,   50088,   50109,   50112,   50115,   50136,   50139,   50142,   50163,   50166,
   50169,   50190,   50193,   50196,   50217,   50220,   50223,   50244,   50247,   50250,
   50271,   50274,   50277,   50298,   50301,   50304,   50325,   50328,   50331,   50352,
   50355,   50358
*SURFACE, NAME=anchor_to_mortar
anchor_to_mortar_S3, S3
anchor_to_mortar_S4, S4
*ELSET, ELSET=mortar_to_anchor_S5
   51117,   51118,   51119,   51120,   51121,   51122,   51123,   51124,   51125,   51126,
   51127,   51128,   51129,   51130,   51131,   51132,   51133,   51134,   51135,   51136,
   51137,   51138,   51139,   51140,   51141,   51142,   51143,   51144,   51145,   51146,
   51147,   51148,   51149,   51150,   51151,   51152,   51153,   51154,   51155,   51156,
   51157,   51158,   51159,   51160,   51161,   51162,   51163,   51164,   51165,   51166,
   51167,   51168,   51169,   51170,   51171,   51172,   51173,   51174,   51175,   51176,
   51177,   51178,   51179,   51180,   51181,   51182,   51183,   51184,   51185,   51186,
   51187,   51188,   51189,   51190,   51191,   51192,   51193,   51194,   51195,   51196,
   51197,   51198,   51199,   51200,   51201,   51202,   51203,   51204,   51205,   51206,
   51207,   51208,   51209,   51210,   51211,   51212,   51213,   51214,   51215,   51216,
   51217,   51218,   51219,   51220,   51221,   51222,   51223,   51224,   51225,   51226,
   51227,   51228,   51229,   51230,   51231,   51232,   51233,   51234,   51235,   51236,
   51237,   51238,   51239,   51240,   51241,   51242,   51243,   51244,   51245,   51246,
   51247,   51248,   51249,   51250,   51251,   51252,   51253,   51254,   51255,   51256,
   51257,   51258,   51259,   51260,   51261,   51262,   51263,   51264,   51265,   51266,
   51267,   51268,   51269,   51270,   51271,   51272,   51273,   51274,   51275,   51276,
   51277,   51278,   51279,   51280,   51281,   51282,   51283,   51284,   51285,   51286,
   51287,   51288,   51289,   51290,   51291,   51292,   51293,   51294,   51295,   51296,
   51297,   51298,   51299,   51300,   51301,   51302,   51303,   51304,   51305,   51306,
   51307,   51308,   51309,   51310,   51311,   51312,   51313,   51314,   51315,   51316,
   51317,   51318,   51319,   51320,   51321,   51322,   51323,   51324,   51325,   51326,
   51327,   51328,   51329,   51330,   51331,   51332,   51333,   51334,   51335,   51336,
   51337,   51338,   51339,   51340,   51341,   51342,   51343,   51344,   51345,   51346,
   51347,   51348,   51349,   51350,   51351,   51352,   51353,   51354,   51355,   51356,
   51357,   51358,   51359,   51360,   51361,   51362,   51363,   51364,   51365,   51366,
   51367,   51368,   51369,   51370,   51371,   51372,   51373,   51374,   51375,   51376,
   51377,   51378,   51379,   51380,   51381,   51382,   51383,   51384,   51385,   51386,
   51387,   51388,   51389,   51390,   51391,   51392,   51393,   51394,   51395,   51396,
   51397,   51398,   51399,   51400,   51401,   51402,   51403,   51404,   51405,   51406,
   51407,   51408,   51409,   51410,   51411,   51412,   51413,   51414,   51415,   51416,
   51417,   51418,   51419,   51420,   51421,   51422,   51423,   51424,   51425,   51426,
   51427,   51428,   51429,   51430,   51431,   51432,   51433,   51434,   51435,   51436,
   51437,   51438,   51439,   51440,   51441,   51442,   51443,   51444,   51445,   51446,
   51447,   51448,   51449,   51450,   51451,   51452,   51453,   51454,   51455,   51456,
   51457,   51458,   51459,   51460,   51461,   51462,   51463,   51464,   51465,   51466,
   51467,   51468,   51469,   51470,   51471,   51472,   51473,   51474,   51475,   51476,
   51477,   51478,   51479,   51480,   51481,   51482,   51483,   51484,   51485,   51486,
   51487,   51488,   51489,   51490,   51491,   51492,   51493,   51494,   51495,   51496,
   51497,   51498,   51499,   51500,   51501,   51502,   51503,   51504,   51505,   51506,
   51507,   51508,   51509,   51510,   51511,   51512,   51513,   51514,   51515,   51516,
   51517,   51518,   51519,   51520,   51521,   51522,   51523,   51524,   51525,   51526,
   51527,   51528,   51529,   51530,   51531,   51532,   51533,   51534,   51535,   51536,
   51537,   51538,   51539,   51540,   51541,   51542,   51543,   51544,   51545,   51546,
   51547,   51548,   51549,   51550,   51551,   51552,   51553,   51554,   51555,   51556,
   51557,   51558,   51559,   51560,   51561,   51562,   51563,   51564,   51565,   51566,
   51567,   51568,   51569,   51570,   51571,   51572,   51573,   51574,   51575,   51576,
   51577,   51578,   51579,   51580,   51581,   51582,   51583,   51584,   51585,   51586,
   51587,   51588,   51589,   51590,   51591,   51592,   51593,   51594,   51595,   51596,
   51597,   51598,   51599,   51600,   51601,   51602,   51603,   51604,   51605,   51606,
   51607,   51608,   51609,   51610,   51611,   51612,   51613,   51614,   51615,   51616,
   51617,   51618,   51619,   51620,   51621,   51622,   51623,   51624,   51625,   51626,
   51627,   51628,   51629,   51630,   51631,   51632,   51633,   51634,   51635,   51636,
   51637,   51638,   51639,   51640,   51641,   51642,   51643,   51644,   51645,   51646,
   51647,   51648,   51649,   51650,   51651,   51652,   51653,   51654,   51655,   51656,
   51657,   51658,   51659,   51660,   51661,   51662,   51663,   51664,   51665,   51666,
   51667,   51668,   51669,   51670,   51671,   51672,   51673,   51674,   51675,   51676,
   51677,   51678,   51679,   51680,   51681,   51682,   51683,   51684,   51685,   51686,
   51687,   51688,   51689,   51690,   51691,   51692
*SURFACE, NAME=mortar_to_anchor
mortar_to_anchor_S5, S5
*ELSET, ELSET=mortar_to_concrete_S3
   51117,   51118,   51119,   51120,   51121,   51122,   51123,   51124,   51125,   51126,
   51127,   51128,   51129,   51130,   51131,   51132,   51133,   51134,   51135,   51136,
   51137,   51138,   51139,   51140,   51141,   51142,   51143,   51144,   51145,   51146,
   51147,   51148,   51149,   51150,   51151,   51152,   51153,   51154,   51155,   51156,
   51157,   51158,   51159,   51160,   51161,   51162,   51163,   51164,   51165,   51166,
   51167,   51168,   51169,   51170,   51171,   51172,   51173,   51174,   51175,   51176,
   51177,   51178,   51179,   51180,   51181,   51182,   51183,   51184,   51185,   51186,
   51187,   51188,   51189,   51190,   51191,   51192,   51193,   51194,   51195,   51196,
   51197,   51198,   51199,   51200,   51201,   51202,   51203,   51204,   51205,   51206,
   51207,   51208,   51209,   51210,   51211,   51212,   51213,   51214,   51215,   51216,
   51217,   51218,   51219,   51220,   51221,   51222,   51223,   51224,   51225,   51226,
   51227,   51228,   51229,   51230,   51231,   51232,   51233,   51234,   51235,   51236,
   51237,   51238,   51239,   51240,   51241,   51242,   51243,   51244,   51245,   51246,
   51247,   51248,   51249,   51250,   51251,   51252,   51253,   51254,   51255,   51256,
   51257,   51258,   51259,   51260,   51261,   51262,   51263,   51264,   51265,   51266,
   51267,   51268,   51269,   51270,   51271,   51272,   51273,   51274,   51275,   51276,
   51277,   51278,   51279,   51280,   51281,   51282,   51283,   51284,   51285,   51286,
   51287,   51288,   51289,   51290,   51291,   51292,   51293,   51294,   51295,   51296,
   51297,   51298,   51299,   51300,   51301,   51302,   51303,   51304,   51305,   51306,
   51307,   51308,   51309,   51310,   51311,   51312,   51313,   51314,   51315,   51316,
   51317,   51318,   51319,   51320,   51321,   51322,   51323,   51324,   51325,   51326,
   51327,   51328,   51329,   51330,   51331,   51332,   51333,   51334,   51335,   51336,
   51337,   51338,   51339,   51340,   51341,   51342,   51343,   51344,   51345,   51346,
   51347,   51348,   51349,   51350,   51351,   51352,   51353,   51354,   51355,   51356,
   51357,   51358,   51359,   51360,   51361,   51362,   51363,   51364,   51365,   51366,
   51367,   51368,   51369,   51370,   51371,   51372,   51373,   51374,   51375,   51376,
   51377,   51378,   51379,   51380,   51381,   51382,   51383,   51384,   51385,   51386,
   51387,   51388,   51389,   51390,   51391,   51392,   51393,   51394,   51395,   51396,
   51397,   51398,   51399,   51400,   51401,   51402,   51403,   51404,   51405,   51406,
   51407,   51408,   51409,   51410,   51411,   51412,   51413,   51414,   51415,   51416,
   51417,   51418,   51419,   51420,   51421,   51422,   51423,   51424,   51425,   51426,
   51427,   51428,   51429,   51430,   51431,   51432,   51433,   51434,   51435,   51436,
   51437,   51438,   51439,   51440,   51441,   51442,   51443,   51444,   51445,   51446,
   51447,   51448,   51449,   51450,   51451,   51452,   51453,   51454,   51455,   51456,
   51457,   51458,   51459,   51460,   51461,   51462,   51463,   51464,   51465,   51466,
   51467,   51468,   51469,   51470,   51471,   51472,   51473,   51474,   51475,   51476,
   51477,   51478,   51479,   51480,   51481,   51482,   51483,   51484,   51485,   51486,
   51487,   51488,   51489,   51490,   51491,   51492,   51493,   51494,   51495,   51496,
   51497,   51498,   51499,   51500,   51501,   51502,   51503,   51504,   51505,   51506,
   51507,   51508,   51509,   51510,   51511,   51512,   51513,   51514,   51515,   51516,
   51517,   51518,   51519,   51520,   51521,   51522,   51523,   51524,   51525,   51526,
   51527,   51528,   51529,   51530,   51531,   51532,   51533,   51534,   51535,   51536,
   51537,   51538,   51539,   51540,   51541,   51542,   51543,   51544,   51545,   51546,
   51547,   51548,   51549,   51550,   51551,   51552,   51553,   51554,   51555,   51556,
   51557,   51558,   51559,   51560,   51561,   51562,   51563,   51564,   51565,   51566,
   51567,   51568,   51569,   51570,   51571,   51572,   51573,   51574,   51575,   51576,
   51577,   51578,   51579,   51580,   51581,   51582,   51583,   51584,   51585,   51586,
   51587,   51588,   51589,   51590,   51591,   51592,   51593,   51594,   51595,   51596,
   51597,   51598,   51599,   51600,   51601,   51602,   51603,   51604,   51605,   51606,
   51607,   51608,   51609,   51610,   51611,   51612,   51613,   51614,   51615,   51616,
   51617,   51618,   51619,   51620,   51621,   51622,   51623,   51624,   51625,   51626,
   51627,   51628,   51629,   51630,   51631,   51632,   51633,   51634,   51635,   51636,
   51637,   51638,   51639,   51640,   51641,   51642,   51643,   51644,   51645,   51646,
   51647,   51648,   51649,   51650,   51651,   51652,   51653,   51654,   51655,   51656,
   51657,   51658,   51659,   51660,   51661,   51662,   51663,   51664,   51665,   51666,
   51667,   51668,   51669,   51670,   51671,   51672,   51673,   51674,   51675,   51676,
   51677,   51678,   51679,   51680,   51681,   51682,   51683,   51684,   51685,   51686,
   51687,   51688,   51689,   51690,   51691,   51692
*SURFACE, NAME=mortar_to_concrete
mortar_to_concrete_S3, S3
